LAMMPS Description

     710  atoms
     705  bonds
     1300  angles
     1105  dihedrals
     0  impropers

     8  atom types
     9  bond types
     10  angle types
     21  dihedral types
     0  improper types

  -36.2051 36.2051 xlo xhi
  -36.2051 36.2051 ylo yhi
  -36.2051 36.2051 zlo zhi

Masses

1 12.011  # 54_bCT_aCT_dCT_iCT
2 1.008  # 60_bHC_aHC_dHC_iHC
3 15.999  # 154_bOH_aOH_dOH_iOH
4 1.008  # 155_bHO_aHO_dHO_iHO
5 12.011  # 157_bCT_aCT_dCT_iCT
6 15.999  # 180_bOS_aOS_dOS_iOS
7 12.011  # 182_bCT_aCT_dCT_iCT
8 1.008  # 185_bHC_aHC_dHC_iHC

Atoms  # full

1 1 1 -0.1800 14.416046998227424 -18.612764030305346 7.434346646570491
2 1 6 -0.4000 13.421991407428793 -19.908064523828006 5.79463749129876
3 1 7 0.1400 14.398735804415674 -19.98747101156621 6.800638481685854
4 1 2 0.0600 15.11960047169807 -18.527651929080204 8.271376180214574
5 1 2 0.0600 13.359061979740199 -18.389153652791467 7.722086233283305
6 1 2 0.0600 14.694057937429168 -17.907080407850312 6.610970946975888
7 1 8 0.0300 15.373458633292183 -20.284846391231717 6.38536593210453
8 1 8 0.0300 14.063782072517057 -20.776598839984327 7.514179838513399
9 1 7 0.1400 13.422041574255491 -19.908133769767144 5.794574038642597
10 1 6 -0.4000 13.035653133758874 -22.137856036758233 5.183526916781527
11 1 7 0.1400 13.980633542934658 -21.118631090570283 5.155499513367527
12 1 8 0.0300 14.093728264715446 -19.263938504944655 6.341169364856821
13 1 8 0.0300 12.366370566447898 -19.865059051165407 5.986543546356398
14 1 8 0.0300 14.911135094450547 -21.402970975708662 5.704406329089482
15 1 8 0.0300 14.236098509179236 -20.8308340470129 4.104896109250975
16 1 7 0.1400 13.035595630432034 -22.137771046664334 5.183525163535611
17 1 6 -0.4000 10.849564098642382 -22.827784318815915 5.672896010926481
18 1 7 0.1400 12.13635011444688 -22.738822788652964 6.191413701734666
19 1 8 0.0300 14.062206331291382 -22.469571585469602 5.15359405380652
20 1 8 0.0300 12.603473172842047 -21.66008222450237 4.324320548308301
21 1 8 0.0300 12.542255477969949 -23.74336302722334 6.463664955094837
22 1 8 0.0300 12.168521243386268 -22.064999637005755 7.084041495816266
23 1 7 0.1400 10.849576949607039 -22.82774993233437 5.672916523802095
24 1 6 -0.4000 9.749176894452505 -20.938447285235917 6.5178965391176495
25 1 7 0.1400 10.87803213122482 -21.35723528292246 5.822989734283063
26 1 8 0.0300 11.268227350901894 -23.256947098284204 4.775454193541772
27 1 8 0.0300 10.15151900339641 -23.39409188004762 6.260386439621248
28 1 8 0.0300 10.926227666469847 -20.905058432451916 4.802600452547419
29 1 8 0.0300 11.814114336022037 -21.116134918154927 6.3864413470866355
30 1 7 0.1400 9.749195616022089 -20.938501132514645 6.517955642588007
31 1 6 -0.4000 7.567325486259212 -20.971282955898047 5.661974282449722
32 1 7 0.1400 8.378071502315567 -20.39806291419148 6.634960757810336
33 1 8 0.0300 10.32713979706347 -21.062731792496322 7.42098624379758
34 1 8 0.0300 10.015056094360581 -21.487242427128987 5.634015487576028
35 1 8 0.0300 8.005225754155889 -20.617438120624065 7.664932391828435
36 1 8 0.0300 8.462409341503244 -19.291499259974643 6.492619590021719
37 1 7 0.1400 7.56730003121021 -20.97132841816091 5.661998328146527
38 1 6 -0.4000 5.551305767184664 -21.008114414327572 6.857301602592859
39 1 7 0.1400 6.924614148937739 -21.18876339638789 6.975551481608955
40 1 8 0.0300 8.440357127285168 -21.557216445485622 5.418228915728317
41 1 8 0.0300 6.997104477349594 -20.510682968870533 4.877248813711728
42 1 8 0.0300 7.177270762485376 -22.221355320805046 7.318916525343926
43 1 8 0.0300 7.3739126512644875 -20.439036072260087 7.674047576990384
44 1 7 0.1400 5.551240387094646 -21.0081729700482 6.857378300415264
45 1 6 -0.4000 3.584989890403266 -21.997143197478998 6.051070125139595
46 1 7 0.1400 4.198524415063403 -21.499915387953276 7.195156176310709
47 1 8 0.0300 6.329696746512419 -21.10746895246263 7.598366157507659
48 1 8 0.0300 5.8113454616823255 -20.8791328165462 5.82352967079973
49 1 8 0.0300 4.301355485373881 -22.28513772615172 7.983085519953251
50 1 8 0.0300 3.638604388254415 -20.623438911606833 7.607631084625801
51 1 7 0.1400 3.584974962918776 -21.99714908144854 6.051017095122348
52 1 6 -0.4000 2.722406760127678 -21.304951806135875 3.984334964850869
53 1 7 0.1400 3.7316575407497212 -22.052016514172298 4.580908668445195
54 1 8 0.0300 3.8663104531938006 -22.86721373422657 6.624388564501458
55 1 8 0.0300 2.9224170843544184 -21.267706042008548 6.477724148924885
56 1 8 0.0300 3.6922665126740473 -23.123677796530355 4.267904766230187
57 1 8 0.0300 4.741068265649698 -21.628725315596668 4.349021735511683
58 1 7 0.1400 2.722388332845332 -21.304957764010222 3.984400857360579
59 1 6 -0.4000 1.7727720787246266 -23.024828256387078 2.705882003623506
60 1 7 0.1400 2.8469302850252527 -22.144993541061407 2.7742049247028833
61 1 8 0.0300 3.079974067264957 -20.287657928419026 3.9380275132316376
62 1 8 0.0300 2.0132301605964877 -21.587863200016827 4.739522172786513
63 1 8 0.0300 2.8847013553318313 -21.46954607611083 1.8852026365507457
64 1 8 0.0300 3.8164894025198772 -22.694961153051473 2.8708886536596676
65 1 7 0.1400 1.7728189746247163 -23.02481383261642 2.7058669813727487
66 1 6 -0.4000 -0.5621993636781293 -22.854995695659706 2.591031620311936
67 1 7 0.1400 0.5352695507361356 -22.638308890137854 3.4163811282218326
68 1 8 0.0300 2.583390568477035 -23.44208579986633 3.28359944245409
69 1 8 0.0300 1.7292297700298251 -23.194910554333664 1.6464727740524374
70 1 8 0.0300 0.4714004496232317 -23.240644303470976 4.355047089982376
71 1 8 0.0300 0.6437448828511948 -21.554238862067876 3.6711011246156993
72 1 7 0.1400 -0.5622224385434273 -22.855077953176806 2.591095801178387
73 1 6 -0.4000 -1.3803097615124449 -25.043692498163285 2.7782735388263315
74 1 7 0.1400 -0.412115121261293 -24.26113514850948 2.1595683318886874
75 1 8 0.0300 -0.3270602839189629 -22.0761441661853 1.881956945582775
76 1 8 0.0300 -1.189450177129572 -22.637336713811592 3.4350881688143815
77 1 8 0.0300 -0.5034983394151584 -24.294309211767096 1.0466758892120278
78 1 8 0.0300 0.618121966016056 -24.575343942580634 2.462456723423648
79 1 7 0.1400 -1.3803830870106437 -25.043694899242798 2.7783038094901507
80 1 6 -0.4000 -3.556872868300277 -24.978431970376885 1.91056595618557
81 1 7 0.1400 -2.7176058366835747 -24.419503389654547 2.867552210680901
82 1 8 0.0300 -0.8144761303037835 -25.169335294946283 3.6887327234193226
83 1 8 0.0300 -1.1438517006037743 -25.63849209243332 1.9160867821605334
84 1 8 0.0300 -3.1069601726493126 -24.579448408058887 3.9023477422485215
85 1 8 0.0300 -2.567387286604956 -23.32565312950982 2.6864914595679457
86 1 7 0.1400 -3.556795265100443 -24.978371018108632 1.9105106655007562
87 1 6 -0.4000 -3.5741843188146882 -24.985000797089214 -0.4334154568080484
88 1 7 0.1400 -3.5165587390592465 -25.80660013385423 0.6865161582404492
89 1 8 0.0300 -4.052702665689385 -25.379158545275065 2.7813506095254508
90 1 8 0.0300 -3.4035962932104638 -23.91908517080339 1.823375318421269
91 1 8 0.0300 -4.376532607645057 -26.51881001310326 0.7209114086340418
92 1 8 0.0300 -2.5541522597063313 -26.37607405506705 0.722988360779083
93 1 7 0.1400 -3.574220012404675 -24.985014613948675 -0.43336654098874616
94 1 6 -0.4000 -3.905132842293307 -27.026909775865075 -1.5358622764714291
95 1 7 0.1400 -3.346942507325418 -25.760924138547704 -1.6711283699855288
96 1 8 0.0300 -2.817765123914632 -24.278071996143353 -0.12853029509584912
97 1 8 0.0300 -4.281138486366883 -25.354046651931586 0.2858209353434853
98 1 8 0.0300 -2.245635751489869 -25.812265484610684 -1.8513185354647266
99 1 8 0.0300 -3.8374323567623896 -25.187261112490926 -2.4970747605791797
100 1 7 0.1400 -3.9050817304029146 -27.02689022160051 -1.535880398031175
101 1 6 -0.4000 -2.793979152803915 -28.917057497159178 -0.7069927503611326
102 1 7 0.1400 -3.457375234674274 -28.40750212106398 -1.8173314181789912
103 1 8 0.0300 -4.830632488388271 -26.690854011575453 -1.9778673434772251
104 1 8 0.0300 -3.508744489989483 -26.51986214821093 -0.6762360967900646
105 1 8 0.0300 -4.356285181718407 -29.017692859055458 -2.0773490529165786
106 1 8 0.0300 -2.7765208637124608 -28.343526648685657 -2.7028829211849787
107 1 7 0.1400 -2.7939746949539446 -28.917119645343927 -0.707062484182654
108 1 6 -0.4000 -0.9411140835528443 -27.782037273173604 0.17204590680592396
109 1 7 0.1400 -1.3850792777907621 -29.022479609944313 -0.27156508883339764
110 1 8 0.0300 -3.439501865270783 -29.76879987401045 -0.5558921812747285
111 1 8 0.0300 -3.2207169526009105 -27.94154506981126 -0.8459663830214745
112 1 8 0.0300 -1.3276274789380649 -29.794054422322898 0.5342590853581801
113 1 8 0.0300 -0.8043174897459873 -29.365981702334686 -1.164077866372448
114 1 7 0.1400 -0.9411628196579374 -27.78198087988625 0.17213217389114616
115 1 6 -0.4000 -0.3446063706549003 -25.64989665229677 -0.5977205715199891
116 1 7 0.1400 0.15760729314152078 -26.812550858833994 -0.02447574431482452
117 1 8 0.0300 -0.895600492037518 -28.437687243438912 1.0282222620818429
118 1 8 0.0300 -1.881761370476867 -27.60312527680663 -0.31411266098564117
119 1 8 0.0300 0.6269131757399118 -26.613518233961578 0.969566006717264
120 1 8 0.0300 0.8994841333817076 -27.309685401033377 -0.6985180284984263
121 1 7 0.1400 -0.3445641255149393 -25.64990684271777 -0.5977463917906662
122 1 6 -0.4000 -0.2633081362575137 -25.853486833321767 -2.93147487891925
123 1 7 0.1400 0.42194052634906876 -26.150011589693854 -1.7588281549420903
124 1 8 0.0300 0.20441246163559768 -25.292375174709537 0.2599906384999704
125 1 8 0.0300 -1.3646043306910525 -25.347315583780958 -0.743023746665094
126 1 8 0.0300 1.432178857336209 -25.67355550370834 -1.7391022143642207
127 1 8 0.0300 0.5238262427903649 -27.255124165154573 -1.6166926690709698
128 1 7 0.1400 -0.26341167627349116 -25.853513240309294 -2.9314698462862347
129 1 6 -0.4000 1.4961060666856332 -25.107436397901413 -4.288600148591326
130 1 7 0.1400 0.4621888431283003 -26.033152170100816 -4.207000614690982
131 1 8 0.0300 -1.3256396648041018 -26.04430604158456 -2.9178020972487992
132 1 8 0.0300 0.17977286035517553 -25.244971317804858 -2.1656936420020862
133 1 8 0.0300 -0.26903325979498804 -25.91030156028652 -5.0425860165887775
134 1 8 0.0300 0.8549732284814449 -27.080789122981187 -4.201148983953788
135 1 7 0.1400 1.4961817740176264 -25.107433238834243 -4.288607450326939
136 1 5 0.1450 2.621565989787321 -25.74796508348468 -3.604211130286322
137 1 3 -0.6830 3.4909739625308136 -24.743048504822866 -3.1563769568909845
138 1 8 0.0300 0.9441618222042074 -25.648895205500025 -5.035940650080793
139 1 8 0.0300 1.248778095359563 -24.08278531990401 -4.073168219873441
140 1 8 0.0300 3.134870151028484 -26.443685643784615 -4.311496603082454
141 1 8 0.0300 2.2307487038528846 -26.313826112852762 -2.7202370670597285
142 1 4 0.4180 3.359694353619459 -24.542457085440265 -2.193918258164564
143 2 1 -0.1800 -16.954155530354075 16.89840759078043 -10.537952795556935
144 2 6 -0.4000 -15.307285678580135 15.48067737791066 -9.742681310569372
145 2 7 0.1400 -16.393658734983934 16.24775151487074 -9.291279216282229
146 2 2 0.0600 -17.841124613797955 17.51450005508702 -10.346730619961752
147 2 2 0.0600 -17.14112495499676 16.069563563075768 -11.264639118523798
148 2 2 0.0600 -16.121066374850713 17.522131792182506 -10.950454407151408
149 2 8 0.0300 -16.076783562433846 16.97507025695377 -8.528674749709875
150 2 8 0.0300 -17.117061427286746 15.539094467743979 -8.823784045904365
151 2 7 0.1400 -15.307267361310968 15.480678312288633 -9.742704667050925
152 2 6 -0.4000 -14.243791919151606 16.041258320882097 -7.7304656062310375
153 2 7 0.1400 -15.140232288220195 15.151412510118183 -8.311122215398694
154 2 8 0.0300 -16.27320778726549 15.314823900191898 -10.194775908665383
155 2 8 0.0300 -14.61172186818049 16.15760466649146 -10.202200236095447
156 2 8 0.0300 -16.144500258540724 15.200237518860574 -7.8242516347413735
157 2 8 0.0300 -14.753368249079903 14.102279139639355 -8.272232805943265
158 2 7 0.1400 -14.243779330722338 16.041251744618634 -7.730397702838707
159 2 6 -0.4000 -11.914217010378684 15.918099856916804 -7.501686076132596
160 2 7 0.1400 -12.935166564590686 16.233520990795803 -8.39093548774713
161 2 8 0.0300 -15.053650858469599 16.701243876095724 -8.001387545697526
162 2 8 0.0300 -14.279888024690997 15.505410164603742 -6.80049503946634
163 2 8 0.0300 -12.871628710737834 17.29510930311303 -8.732950394263256
164 2 8 0.0300 -12.926470862527877 15.550992599942717 -9.277466017647331
165 2 7 0.1400 -11.914233413165663 15.9180610849614 -7.501738406617314
166 2 6 -0.4000 -11.257871959110629 14.473161210455016 -9.226786230384004
167 2 7 0.1400 -11.733147557124365 15.751956721551222 -8.959600626855526
168 2 8 0.0300 -11.736029194333149 16.89262628563369 -7.073506079452635
169 2 8 0.0300 -11.888882689940157 15.046534568851657 -6.874882863011326
170 2 8 0.0300 -11.023093636710902 16.538649946066034 -9.31303831670758
171 2 8 0.0300 -12.73835129782375 15.916296056621068 -9.422650324655628
172 2 7 0.1400 -11.257831066730624 14.473173399507473 -9.226726157506645
173 2 6 -0.4000 -12.549130304687889 15.555834191956453 -10.856059728800359
174 2 7 0.1400 -11.603150872553199 15.764230945315704 -9.858920467128524
175 2 8 0.0300 -10.246851429965613 14.331127797895535 -8.876497345000892
176 2 8 0.0300 -11.881272150079985 13.620196529240122 -9.418821639965467
177 2 8 0.0300 -10.664950247983114 16.212838066501146 -10.266979579118457
178 2 8 0.0300 -12.008741172968918 16.41532983703593 -9.044412185151366
179 2 7 0.1400 -12.549131947992375 15.555846231179563 -10.85608846268105
180 2 6 -0.4000 -11.801010977990625 15.82480539274196 -13.061153537379592
181 2 7 0.1400 -12.370310893621971 16.494573288705325 -11.984166271160094
182 2 8 0.0300 -12.441973894218213 15.938311794495252 -9.85251771560392
183 2 8 0.0300 -12.450780978804858 14.502349611080321 -11.03944865001557
184 2 8 0.0300 -11.726240036245061 17.337979146540036 -11.635138636655508
185 2 8 0.0300 -13.389704030797345 16.87933009083634 -12.238443354464238
186 2 7 0.1400 -11.80099805009582 15.824896392999346 -13.06121506793393
187 2 6 -0.4000 -12.122015141751362 17.929016841279743 -14.043030308187063
188 2 7 0.1400 -11.70038624372189 17.28910702250068 -12.883143461905668
189 2 8 0.0300 -11.06956661732332 15.200202849275456 -12.571640726712852
190 2 8 0.0300 -12.355974891253494 15.44257433811103 -13.897265037806918
191 2 8 0.0300 -10.639156074231344 17.536763630313 -12.637302594737568
192 2 8 0.0300 -12.358066995352134 17.546854914280274 -12.01545742812487
193 2 7 0.1400 -12.12200345725777 17.928955728466725 -14.043006734479599
194 2 6 -0.4000 -12.26722210820879 19.117194957230687 -12.027731299547098
195 2 7 0.1400 -12.677899953440772 19.114094580085883 -13.355860470635955
196 2 8 0.0300 -11.858215087930402 18.021006953482956 -15.085532162553475
197 2 8 0.0300 -11.694091299669264 17.14155283846933 -13.451367592593519
198 2 8 0.0300 -12.328046942978855 20.02579028239941 -13.898442093485256
199 2 8 0.0300 -13.790821413680519 19.031710974241115 -13.436332607589335
200 2 7 0.1400 -12.267198265003268 19.117210900768594 -12.027746615194959
201 2 6 -0.4000 -12.843807746237632 21.38800266553635 -11.954519112072349
202 2 7 0.1400 -12.712630161352838 20.24223558201439 -11.178243882826063
203 2 8 0.0300 -12.620118058978585 18.12592909562877 -11.787486335874478
204 2 8 0.0300 -11.898358621922052 19.32834567055465 -13.013915174153876
205 2 8 0.0300 -13.680368193912516 19.95424922910062 -10.700197900860994
206 2 8 0.0300 -11.927955516365536 20.372756128138295 -10.391410299052742
207 2 7 0.1400 -12.843853154157392 21.38798342118444 -11.954513643658336
208 2 6 -0.4000 -14.695932425906411 22.226284986836678 -13.121299337855275
209 2 7 0.1400 -13.448079208213809 22.56646393323293 -12.611658649209879
210 2 8 0.0300 -11.771623556140948 21.272975684112907 -11.999390247263994
211 2 8 0.0300 -13.464202583766152 20.535949011651674 -11.748715319670415
212 2 8 0.0300 -12.753039105488343 22.90971744641015 -13.416069788674564
213 2 8 0.0300 -13.532962936032469 23.35707063231693 -11.824516476463996
214 2 7 0.1400 -14.695848324635474 22.22624478330105 -13.121304424073452
215 2 6 -0.4000 -15.827689789261502 23.82445261345319 -11.833281663950954
216 2 7 0.1400 -15.209775328528421 23.611122800005628 -13.060174124564913
217 2 8 0.0300 -14.699998835875805 21.72244836073751 -14.075814213372979
218 2 8 0.0300 -14.646243465720865 21.652597774083443 -12.21487325360999
219 2 8 0.0300 -15.919445737241785 23.7558614019937 -13.910703164687085
220 2 8 0.0300 -14.323842386501804 24.281945035542254 -13.190471287011782
221 2 7 0.1400 -15.827758742293302 23.824430012568218 -11.833230184554301
222 2 6 -0.4000 -14.956798733112645 25.79675880621225 -12.752840858791346
223 2 7 0.1400 -16.1321881849704 25.084275075668703 -12.544467227608617
224 2 8 0.0300 -16.425925700709097 22.95459837088814 -12.057966040598085
225 2 8 0.0300 -14.859890327448092 23.705326909606043 -11.383570110265062
226 2 8 0.0300 -16.63497355465918 24.82611224309113 -13.508074940271008
227 2 8 0.0300 -16.840416549270255 25.652088742707562 -11.890359267463634
228 2 7 0.1400 -14.956818205567446 25.79680893709457 -12.75280287589458
229 2 6 -0.4000 -14.328557510611033 26.242747226229685 -14.966569697729287
230 2 7 0.1400 -14.82290907834443 26.826114263565692 -13.805582003035951
231 2 8 0.0300 -14.785795837078636 26.09002229372033 -11.728256987721323
232 2 8 0.0300 -14.890043870783872 24.76157863628008 -13.030270734375085
233 2 8 0.0300 -14.143481484298356 27.626579900075264 -13.423988096879038
234 2 8 0.0300 -15.84707055844151 27.246684834230674 -13.967046109808598
235 2 7 0.1400 -14.328649908232347 26.242713285497935 -14.966582236094649
236 2 6 -0.4000 -12.042820832648179 26.743810445645167 -15.10157510000387
237 2 7 0.1400 -13.090071291655013 26.113010853473767 -15.76335402882102
238 2 8 0.0300 -15.040677786646997 25.432089521728376 -14.995259997032482
239 2 8 0.0300 -14.348935633161105 26.94279366769741 -14.152564455070454
240 2 8 0.0300 -12.887160291377672 25.024962290252162 -15.914874489610458
241 2 8 0.0300 -13.297802716724641 26.598396403908644 -16.74981513928994
242 2 7 0.1400 -12.042747060195055 26.74378418118044 -15.101567286183727
243 2 6 -0.4000 -11.733598481814102 28.375821876953577 -13.447718406732964
244 2 7 0.1400 -12.560744789472276 27.98904374698063 -14.495966785649946
245 2 8 0.0300 -12.172778150230556 26.600672496864753 -16.163418481708085
246 2 8 0.0300 -11.28921006106895 26.18773748520654 -14.576074124625432
247 2 8 0.0300 -12.608437550240286 28.769383169955237 -15.293949733789805
248 2 8 0.0300 -13.593610236844853 27.757190150426673 -14.133627335149676
249 2 7 0.1400 -11.73354783753293 28.375822001689762 -13.447701305883943
250 2 6 -0.4000 -12.099916431051371 30.226826735953004 -14.838345590889418
251 2 7 0.1400 -12.579877899211914 29.55741102832434 -13.718473902051276
252 2 8 0.0300 -12.203261077881304 27.495752432203933 -13.035677004772403
253 2 8 0.0300 -10.78789368305303 28.291164986350378 -13.94941876608314
254 2 8 0.0300 -13.62991577503777 29.20579971864794 -13.866023711399752
255 2 8 0.0300 -12.523109297018316 30.201485962465934 -12.805346416419894
256 2 7 0.1400 -12.099891770988046 30.226792715436968 -14.838384142358622
257 2 6 -0.4000 -11.910065403431902 29.43802507967769 -17.03750841509974
258 2 7 0.1400 -12.13363063114471 30.57810015975302 -16.27406856760097
259 2 8 0.0300 -11.713080793906256 30.956702465591007 -14.143743210193595
260 2 8 0.0300 -12.137624804679309 29.190745555994376 -14.55850648769612
261 2 8 0.0300 -11.35551424917171 31.35806056694112 -16.458940575553022
262 2 8 0.0300 -13.14904734326313 31.005126890266354 -16.470114664674362
263 2 7 0.1400 -11.910061545796983 29.43805817482769 -17.037503878078784
264 2 6 -0.4000 -13.594958066853922 28.027812424504763 -17.854000440855597
265 2 7 0.1400 -12.937265382553191 29.231439103468745 -18.080531124656787
266 2 8 0.0300 -11.000012004237387 29.94920746405055 -17.312191402429885
267 2 8 0.0300 -11.930311962805863 28.817163291040217 -16.161588092230904
268 2 8 0.0300 -12.429145885085862 29.243546929022244 -19.0753421503566
269 2 8 0.0300 -13.640548427211714 30.098459301674072 -18.006194491696746
270 2 7 0.1400 -13.594996255354232 28.027828431532736 -17.854043625220594
271 2 6 -0.4000 -12.51368577342863 26.187740370722775 -18.823156399949344
272 2 7 0.1400 -13.153575517672946 27.387738838694432 -19.111492648237036
273 2 8 0.0300 -13.590932482834589 29.105869982172305 -17.80182388903263
274 2 8 0.0300 -13.588754621273294 27.44930815772572 -16.949375545316006
275 2 8 0.0300 -12.476669374553847 28.09914665518589 -19.64410694774699
276 2 8 0.0300 -14.07707335471386 27.21917148489872 -19.720256799789233
277 2 7 0.1400 -12.513701747474382 26.187764904732152 -18.823107979966895
278 2 5 0.1450 -13.07617356853348 26.218469699706773 -20.17508862556802
279 2 3 -0.6830 -13.979603680148836 25.153078113702872 -20.297717341204926
280 2 8 0.0300 -12.135098483449507 27.09091892646531 -18.37882610829427
281 2 8 0.0300 -12.51747712045286 25.271002524665267 -18.260028513947248
282 2 8 0.0300 -13.581430025097681 27.200717150663994 -20.341422200615973
283 2 8 0.0300 -12.245850894423288 26.0805043266426 -20.913923392409536
284 2 4 0.4180 -13.575631071673474 24.377809978648738 -20.766293322633015
285 3 1 -0.1800 17.456557340856765 7.766565168314292 -16.809808215666173
286 3 6 -0.4000 16.684592634194455 9.187161383340127 -18.46527578874698
287 3 7 0.1400 17.000334812640478 9.181197484733925 -17.09682984218439
288 3 2 0.0600 17.771407443479276 7.6126826378483745 -15.770558688509196
289 3 2 0.0600 18.26167722390127 7.542281056375833 -17.552433027437488
290 3 2 0.0600 16.581896672842625 7.113670891589853 -17.058655114882402
291 3 8 0.0300 16.13657928841884 9.489143718585325 -16.48850138531808
292 3 8 0.0300 17.817885676918177 9.925769959929541 -16.95095176466806
293 3 7 0.1400 16.684589695798905 9.18716407826457 -18.465211261870728
294 3 6 -0.4000 14.465122029688825 9.934629367397225 -18.36725759612157
295 3 7 0.1400 15.76527985938175 10.328000999773657 -18.662962477260997
296 3 8 0.0300 17.68392583881736 9.392651250124704 -18.1130475279941
297 3 8 0.0300 16.270421344401317 8.202852140022655 -18.35232377392343
298 3 8 0.0300 16.10353662596049 11.16455431888199 -18.004371629957053
299 3 8 0.0300 15.863906516662459 10.629745571890142 -19.735846439146844
300 3 7 0.1400 14.465071997691327 9.934587764729262 -18.367228310125025
301 3 6 -0.4000 13.287836983080608 10.773376011641421 -16.52199445036184
302 3 7 0.1400 13.992639264342678 11.144635338230197 -17.66129829778299
303 3 8 0.0300 15.409824712351098 9.983517615273815 -18.886810043703758
304 3 8 0.0300 14.057869507989027 8.980954237304198 -18.08808994344806
305 3 8 0.0300 14.883561417263605 11.770105791114368 -17.410249637154
306 3 8 0.0300 13.337503732984342 11.694539430295366 -18.38258875597706
307 3 7 0.1400 13.287787941587036 10.773256582192113 -16.52194455546026
308 3 6 -0.4000 14.06332428947747 11.385363529266348 -14.396337710711157
309 3 7 0.1400 13.080954655951187 11.644179619780365 -15.345314598952635
310 3 8 0.0300 12.418209471240058 10.428530584284054 -17.06038143223905
311 3 8 0.0300 14.219053019622052 10.247404574981102 -16.61876408316303
312 3 8 0.0300 12.057069585522072 11.447936885417414 -14.943905640704171
313 3 8 0.0300 13.144025352819154 12.697296474948953 -15.71790549599175
314 3 7 0.1400 14.063367285611271 11.385358818519364 -14.39639532002622
315 3 6 -0.4000 13.581182260766703 10.153909370008869 -12.461100547238663
316 3 7 0.1400 13.300516811253665 10.258417661504886 -13.818634311996737
317 3 8 0.0300 14.41001522781284 11.297603926000825 -15.41475246906897
318 3 8 0.0300 14.529778505128343 12.088545831048455 -13.732213417443042
319 3 8 0.0300 13.581937995055652 9.329230892061553 -14.37125992197057
320 3 8 0.0300 12.21935226977298 10.487580443166237 -13.9930609548759
321 3 7 0.1400 13.581134570984963 10.153831343936035 -12.461127599677488
322 3 6 -0.4000 15.434986453028069 10.648614398899001 -11.11474023789532
323 3 7 0.1400 14.902444854852734 10.813058207672794 -12.388298512953368
324 3 8 0.0300 12.823719493577048 10.597677973887288 -13.089012596787692
325 3 8 0.0300 13.295846491404838 9.479179850955935 -11.675885551217775
326 3 8 0.0300 14.766423317150966 11.892258428779193 -12.642868786247695
327 3 8 0.0300 15.543000735165407 10.321208816130989 -13.162655885383444
328 3 7 0.1400 15.43499679411184 10.648679307293584 -11.114720738481726
329 3 6 -0.4000 16.098453871437435 8.636709429793605 -10.111656474050331
330 3 7 0.1400 15.19546030277586 9.19354584591459 -11.010059958369803
331 3 8 0.0300 14.586492758247553 11.294435157541969 -11.281925053593522
332 3 8 0.0300 16.34261383516769 11.053895223376605 -10.708296861060601
333 3 8 0.0300 14.138603453454722 9.038380382317106 -10.683015192397962
334 3 8 0.0300 15.33662104563542 8.776268879607958 -12.038559145566989
335 3 7 0.1400 16.098464478940766 8.636656974863804 -10.111540085820728
336 3 6 -0.4000 17.954913209916672 7.838965904532813 -11.29965753185548
337 3 7 0.1400 17.251398124665755 8.990795624311723 -10.966569223056696
338 3 8 0.0300 15.195377893736033 9.22014152965772 -10.205866084040748
339 3 8 0.0300 16.056781708324124 7.6539414800929695 -9.680631971519043
340 3 8 0.0300 16.86291073171456 9.514297183943773 -11.873765267239428
341 3 8 0.0300 17.88349716568327 9.69355288764321 -10.367870608410248
342 3 7 0.1400 17.954860795883103 7.838937253428872 -11.29963850829714
343 3 6 -0.4000 18.691131228836927 9.793833851719944 -12.362945208900491
344 3 7 0.1400 18.95324784455086 8.929315124315714 -11.306301820744372
345 3 8 0.0300 17.64829226019967 7.43403810374572 -10.34727859129371
346 3 8 0.0300 17.331031385723165 7.703713645488068 -12.163177993714553
347 3 8 0.0300 18.901301816717197 9.453534727244733 -10.321174205611566
348 3 8 0.0300 19.953075139866264 8.440274948360862 -11.420503772760645
349 3 7 0.1400 18.691146097429606 9.7938499723632 -12.362925116501897
350 3 6 -0.4000 20.22343545024459 10.269242774842601 -10.653999423968537
351 3 7 0.1400 19.236457346840815 10.827953561131565 -11.457933177884778
352 3 8 0.0300 17.646758569605893 9.84894754238417 -12.629638351089268
353 3 8 0.0300 19.220094296740605 8.864895564774425 -12.464937424911426
354 3 8 0.0300 18.39283901093128 11.238158985389118 -10.851286152649422
355 3 8 0.0300 19.65446744756547 11.632095295671128 -12.114043402209832
356 3 7 0.1400 20.223368831979332 10.269230922304226 -10.653981094720303
357 3 6 -0.4000 19.818126442157553 9.51797038844587 -8.470927679029705
358 3 7 0.1400 19.31354419224874 9.514262588037209 -9.76629481049981
359 3 8 0.0300 20.324695652899084 9.942209713439787 -11.67755669247317
360 3 8 0.0300 20.984729980827968 10.884104998655172 -10.211931243170211
361 3 8 0.0300 19.217453955741632 8.47672009674055 -10.169101519979597
362 3 8 0.0300 18.322691265249638 10.031428714631012 -9.817350413143158
363 3 7 0.1400 19.818160442699604 9.517932498667903 -8.470902235550856
364 3 6 -0.4000 20.438984227572927 7.297236205077101 -8.049687563717558
365 3 7 0.1400 20.59343941113455 8.35102459299363 -8.94314524585098
366 3 8 0.0300 20.20988884662445 10.504109445528876 -8.668186008422477
367 3 8 0.0300 19.095976941152095 9.376773907203528 -7.688806178695707
368 3 8 0.0300 21.662985262476962 8.659721966256052 -9.036732657489098
369 3 8 0.0300 20.186940956275308 8.090279495082541 -9.952416269963129
370 3 7 0.1400 20.43896034659112 7.297224902404325 -8.049713550376728
371 3 6 -0.4000 21.88326863333791 6.534984517341458 -6.368256096792555
372 3 7 0.1400 20.560494377781744 6.523601507108261 -6.795727377600829
373 3 8 0.0300 19.525934306258478 7.845786843657185 -8.224012851245641
374 3 8 0.0300 21.333099778201408 7.566143636536926 -8.580134507044308
375 3 8 0.0300 19.877845398203238 6.980370400113615 -6.0385394557062115
376 3 8 0.0300 20.21935615788715 5.484594282921372 -7.032255817782142
377 3 7 0.1400 21.88329007147914 6.5349808482889715 -6.368301403746041
378 3 6 -0.4000 21.986401196368572 7.565638011536955 -4.265577002458593
379 3 7 0.1400 21.376889692126618 7.629693045877468 -5.513369324430622
380 3 8 0.0300 21.207033347900392 6.09186743543165 -7.083314933100887
381 3 8 0.0300 22.75701933979273 5.995468757503669 -6.054179023790913
382 3 8 0.0300 20.26727706778034 7.52538534567257 -5.436813935532581
383 3 8 0.0300 21.630094277809373 8.583720324927732 -6.0402245119510365
384 3 7 0.1400 21.98639441813393 7.565675564980423 -4.2655849344591585
385 3 6 -0.4000 21.57155533750449 5.756174655600721 -2.8345185502069983
386 3 7 0.1400 21.595439454859346 6.143115974606578 -4.169546252011042
387 3 8 0.0300 22.566469533774914 7.878522198055054 -5.120311115401318
388 3 8 0.0300 21.984031320088874 8.163949294360814 -3.3738383558277016
389 3 8 0.0300 22.327559019729232 5.541248257547675 -4.7609320769147425
390 3 8 0.0300 20.580394698581678 6.063365181536739 -4.6334222632014646
391 3 7 0.1400 21.571566999010173 5.756067619035921 -2.8344936306578727
392 3 6 -0.4000 22.85890407364147 3.808670605592619 -3.0460217099093985
393 3 7 0.1400 22.852056167473318 5.176681242778188 -3.2931916974245605
394 3 8 0.0300 21.57884765963869 6.760291903234077 -2.4390222928753307
395 3 8 0.0300 20.760413269838743 5.094037586181986 -2.595967189250005
396 3 8 0.0300 23.681166977899846 5.697657011503179 -2.755473823037562
397 3 8 0.0300 22.920351572053487 5.3914236416699 -4.389128940076467
398 3 7 0.1400 22.858848684694426 3.8086984530864427 -3.0460160102114
399 3 6 -0.4000 20.9852464104905 2.546408938947394 -3.670976569440938
400 3 7 0.1400 21.62147981806882 3.7688039433135674 -3.854144537115165
401 3 8 0.0300 23.164961439756844 4.75577026211397 -2.628563055097388
402 3 8 0.0300 23.23054300368487 2.8939035249461025 -2.623946617008174
403 3 8 0.0300 20.973681055608356 4.622792120022302 -3.5394352150473494
404 3 8 0.0300 21.93604885213587 3.9070648437137914 -4.9189389990779615
405 3 7 0.1400 20.985211236077816 2.5464117144743628 -3.6709452012923673
406 3 6 -0.4000 19.864430422204038 2.381288364016275 -1.6188924128909772
407 3 7 0.1400 20.049779103113423 3.1972317412588565 -2.7290614412912118
408 3 8 0.0300 21.646427275367326 3.1742241924753682 -4.248493330760839
409 3 8 0.0300 21.22175227189878 1.5084020864173635 -3.5304697570548904
410 3 8 0.0300 20.477202948854764 4.1896318308267855 -2.445456225688168
411 3 8 0.0300 19.092049018278967 3.3454835993829497 -3.2881960146863323
412 3 7 0.1400 19.8645505494315 2.3813259206642745 -1.6188974524909074
413 3 6 -0.4000 21.762091072052726 3.1766801325918617 -0.4959158664533606
414 3 7 0.1400 21.315006656638673 2.6545248562169945 -1.7042462818810944
415 3 8 0.0300 19.268317690967198 2.509025629663213 -2.5094681475000535
416 3 8 0.0300 19.392543728506176 2.390224083334525 -0.6543875335677971
417 3 8 0.0300 21.485259696984972 3.364979042543121 -2.549379260402536
418 3 8 0.0300 21.80721485915367 1.67547836070552 -1.9302021293461553
419 3 7 0.1400 21.76195923499672 3.1766795771764036 -0.49599388172404923
420 3 5 0.1450 22.549275977234334 2.0036752882629396 -0.10951970977594622
421 3 3 -0.6830 22.019723905902264 1.4952065074593537 1.085184062167555
422 3 8 0.0300 22.202461556658648 3.938807306627723 -1.1136774808359489
423 3 8 0.0300 20.757949590168614 3.2952248093482264 -0.127975321021641
424 3 8 0.0300 23.618393150079935 2.302510575142155 0.014766017652611707
425 3 8 0.0300 22.45535360953301 1.22683273241054 -0.9107944643152921
426 3 4 0.4180 21.425490071349305 0.7174276212751094 0.9247342130604772
427 4 1 -0.1800 13.806533589844149 16.299320312138068 15.778126644357203
428 4 6 -0.4000 12.397183733873364 15.878614685318249 17.56455765590992
429 4 7 0.1400 13.134304404602602 15.203757761818109 16.57784885915801
430 4 2 0.0600 14.40262682479818 15.92250133689255 14.938168124466515
431 4 2 0.0600 12.99316648663983 16.998740935684708 15.463074669625025
432 4 2 0.0600 14.454339756924346 16.848085752707917 16.50780510856527
433 4 8 0.0300 13.847475688555448 14.49715708345424 17.028481970547716
434 4 8 0.0300 12.40206835030091 14.62472051698731 15.967435695899347
435 4 7 0.1400 12.397151370988132 15.878675584177728 17.564607828482018
436 4 6 -0.4000 10.494510344590184 14.544763752566507 17.256431985569307
437 4 7 0.1400 11.85311740649141 14.636187737859764 16.976393584157616
438 4 8 0.0300 13.412498370818872 15.867661820348921 17.930485085142006
439 4 8 0.0300 11.712361887520926 16.62928533948889 17.91216697246248
440 4 8 0.0300 12.421326583563374 13.773257485211682 17.40121202791438
441 4 8 0.0300 12.036844139064982 14.70245503045491 15.874708450523713
442 4 7 0.1400 10.494445817966998 14.54475408510421 17.256411327243413
443 4 6 -0.4000 8.986377941715915 15.032125880700896 18.98341335777969
444 4 7 0.1400 10.045456474475266 15.547929590599809 18.2452452236105
445 4 8 0.0300 11.54415127010865 14.507830649111733 17.00807259965829
446 4 8 0.0300 9.869878472195923 13.692639692810658 17.06414668399701
447 4 8 0.0300 10.915380902971327 15.806853404330294 18.896529299409274
448 4 8 0.0300 9.731732205209203 16.44852756946218 17.660132103485438
449 4 7 0.1400 8.986471067254199 15.03219224066662 18.98339476501025
450 4 6 -0.4000 7.4507352341916135 16.425798966673202 17.890823602899157
451 4 7 0.1400 8.790437766980942 16.293643448056784 18.23770260563222
452 4 8 0.0300 9.735641981739887 15.01006221459006 19.76003509543002
453 4 8 0.0300 8.199520105606597 14.301547211292903 18.979518553793923
454 4 8 0.0300 9.134521342678983 17.136586176580746 18.885031771793784
455 4 8 0.0300 9.440183000694617 16.226822468146715 17.329284701851023
456 4 7 0.1400 7.450711497489761 16.425775653306037 17.890828503875642
457 4 6 -0.4000 6.601986427930853 15.315209064489625 16.00916870250163
458 4 7 0.1400 7.657483937045879 16.097109854421813 16.46430512485804
459 4 8 0.0300 7.795585024855285 17.383900572786093 18.248565682253567
460 4 8 0.0300 6.7030885866431165 15.887327215418171 18.442446363370156
461 4 8 0.0300 7.7369992587195835 17.05520787628912 15.895353023084013
462 4 8 0.0300 8.627673405281172 15.54284706526086 16.40614881585518
463 4 7 0.1400 6.60207605328153 15.315252953272175 16.009147989594457
464 4 6 -0.4000 7.866174067662352 13.670612526097504 14.917566533476235
465 4 7 0.1400 7.391957030846599 14.074696179989495 16.16031654963032
466 4 8 0.0300 5.758164809659177 15.465562325833531 16.66499698548298
467 4 8 0.0300 6.6629367193412445 15.857573644090035 15.084305707019958
468 4 8 0.0300 6.734889758635916 13.29913975647689 16.623734108358892
469 4 8 0.0300 8.233497776249024 14.319829703564805 16.85571264499402
470 4 7 0.1400 7.866125035037705 13.670593997010341 14.917623631025492
471 4 6 -0.4000 8.058852169671319 11.711675458385853 16.190349214413054
472 4 7 0.1400 8.166747567001241 13.096523047286658 16.24646283798741
473 4 8 0.0300 7.376923288341151 14.63178177669797 14.876190513737436
474 4 8 0.0300 7.829003752004188 13.015384610227256 14.067640296002223
475 4 8 0.0300 7.452856629083712 13.536813177211616 16.98435533032616
476 4 8 0.0300 9.21035272721865 13.412447671290176 16.49733511926981
477 4 7 0.1400 8.058883006686347 11.711692801618037 16.19038191165051
478 4 6 -0.4000 7.255869624415431 12.085591247430925 18.36056749360255
479 4 7 0.1400 7.593433612472797 12.71728721801634 17.169096237250574
480 4 8 0.0300 7.842190875895876 11.877948478017018 15.14619774661131
481 4 8 0.0300 8.29145181789804 10.722141265742485 16.53657334120635
482 4 8 0.0300 6.7208574742958005 13.25555335509414 16.725405524299013
483 4 8 0.0300 8.442237283958193 13.431552627968792 17.314747366385813
484 4 7 0.1400 7.255921375318214 12.085610903617834 18.36059536719486
485 4 6 -0.4000 7.097444084247573 10.615361245545646 20.179272603857136
486 4 7 0.1400 7.888810424505431 11.604847831192686 19.607216127334542
487 4 8 0.0300 7.377115133024999 13.12469885670443 18.095029370043083
488 4 8 0.0300 6.449322979841808 11.51682855133073 17.937470487116133
489 4 8 0.0300 8.016045192829441 12.478804968893272 20.291314976326216
490 4 8 0.0300 8.89244675921473 11.204496313237556 19.31688912252392
491 4 7 0.1400 7.097395158669431 10.61537374421483 20.17925001342548
492 4 6 -0.4000 9.098398472743224 10.24004669393314 21.340908888652002
493 4 7 0.1400 7.977434645185144 9.610192088517897 20.812405082285817
494 4 8 0.0300 6.535384682170474 10.322951060069292 19.30543641882848
495 4 8 0.0300 7.275491950648988 11.655886653045519 20.376134292237403
496 4 8 0.0300 8.255021713994488 8.85471167345024 20.03769496767582
497 4 8 0.0300 7.370512957740232 9.12109031032053 21.615077192099776
498 4 7 0.1400 9.098383580918515 10.240100948613858 21.3408661332439
499 4 6 -0.4000 8.545647704177146 10.461170177554123 23.608011352804986
500 4 7 0.1400 8.937586635094709 11.170520836336848 22.478498839675666
501 4 8 0.0300 8.856300145119658 10.597508496552102 20.35163792156138
502 4 8 0.0300 9.1239848187299 9.184416101523684 21.535861210737465
503 4 8 0.0300 8.181638143578288 11.941569447511071 22.192130340394847
504 4 8 0.0300 9.93340517132539 11.657487303540437 22.630374126403428
505 4 7 0.1400 8.545606486634798 10.461112351909595 23.60804120747414
506 4 6 -0.4000 9.586273554120806 12.551231800839961 23.814798901050697
507 4 7 0.1400 9.743830224259476 11.270031721248213 23.298760867811954
508 4 8 0.0300 8.235172611046664 9.71528933590779 22.892292761657245
509 4 8 0.0300 7.843759315845606 10.832109332153252 24.331173829823108
510 4 8 0.0300 9.875754189314266 11.284913929152076 22.189546917605714
511 4 8 0.0300 10.609842426124132 10.744724380504566 23.774083983158107
512 4 7 0.1400 9.586301658437543 12.551251024039146 23.814807316435925
513 4 6 -0.4000 11.820408932950324 13.094442830145951 23.358689625760036
514 4 7 0.1400 10.967609656447255 12.043126405642841 23.675012513907323
515 4 8 0.0300 8.773348467721963 11.90714825337665 23.51621774774631
516 4 8 0.0300 9.429841762287342 13.61135788280939 23.88439717837683
517 4 8 0.0300 10.969539248936263 11.25673402247826 22.881561635545243
518 4 8 0.0300 11.235981966789122 11.585130004192136 24.659935150107735
519 4 7 0.1400 11.820406532468457 13.094471632661271 23.35869776897423
520 4 6 -0.4000 12.508531675024205 14.27643495395392 25.262321286191195
521 4 7 0.1400 12.651628406133076 13.07306308849773 24.581136671733088
522 4 8 0.0300 11.375551318399669 12.168287716907633 23.028237192331467
523 4 8 0.0300 11.413019978073432 14.030937378436604 23.026708157257847
524 4 8 0.0300 12.32899540522769 12.204407887603473 25.20509747874435
525 4 8 0.0300 13.707020437396212 12.921788308543238 24.24184240226189
526 4 7 0.1400 12.508544752394606 14.276421986782843 25.262267611927033
527 4 6 -0.4000 11.791045357574081 13.867481208885177 27.455962681576555
528 4 7 0.1400 11.69535243224959 14.763059885320652 26.39701287239912
529 4 8 0.0300 12.160584636096758 14.480228606090016 24.2611164648006
530 4 8 0.0300 13.210282611047914 13.481562143700389 25.43229939597815
531 4 8 0.0300 10.641004262390693 14.875673956709033 26.04537526400018
532 4 8 0.0300 12.109031931974974 15.76500011512553 26.67421685398219
533 4 7 0.1400 11.790991773598913 13.867427547441311 27.455967271900565
534 4 6 -0.4000 11.123485894293834 11.690545655382492 26.899229336135843
535 4 7 0.1400 12.139878706248467 12.431200125507983 27.491656215750602
536 4 8 0.0300 12.114273190578583 14.491243633375516 28.275271620946356
537 4 8 0.0300 10.979816946175438 14.187108022200634 26.829110993785598
538 4 8 0.0300 12.29636221241877 12.138413714425186 28.55831925053802
539 4 8 0.0300 13.100339043530969 12.32621565455702 26.927430018763676
540 4 7 0.1400 11.123623842581418 11.690525615138121 26.899262362257222
541 4 6 -0.4000 10.338975641060342 11.033557285539278 29.00806671870043
542 4 7 0.1400 10.009404368761889 11.758548227095519 27.868608991912385
543 4 8 0.0300 10.884446967034119 11.687649248140175 25.846787588822572
544 4 8 0.0300 12.076299229608438 11.322801649854307 27.231433541483938
545 4 8 0.0300 9.093096271202254 11.355064294493637 27.37306768538107
546 4 8 0.0300 9.863445659911049 12.842316913313988 28.105248992932687
547 4 7 0.1400 10.339019484057424 11.033635825122676 29.00809777534415
548 4 6 -0.4000 12.252410693838343 11.230921827887205 30.347630645954762
549 4 7 0.1400 11.52386353961823 10.344741809196346 29.562457404847525
550 4 8 0.0300 9.995181783009901 10.746460110770991 28.026149332489357
551 4 8 0.0300 10.057651143288254 11.986801093736002 29.414861622707818
552 4 8 0.0300 12.12988778029236 9.955109244487833 28.70869977868304
553 4 8 0.0300 11.135317737464117 9.489268815701193 30.16995647236027
554 4 7 0.1400 12.252389219798932 11.230882636153304 30.347584425820724
555 4 6 -0.4000 13.615957222478606 9.369706388389758 29.93401305733764
556 4 7 0.1400 13.55713141944519 10.585355544660658 30.60582378496509
557 4 8 0.0300 12.218192915588748 12.308335170900964 30.29425855832469
558 4 8 0.0300 11.466341117815613 10.649016642208322 29.90406515176509
559 4 8 0.0300 14.362173003510188 11.2827678788228 30.268918629046343
560 4 8 0.0300 13.623281871014672 10.44062057233362 31.71331324565654
561 4 7 0.1400 13.615931125000058 9.369746464502375 29.934009293229465
562 4 5 0.1450 14.197975808655627 9.54593179189436 31.266432543041653
563 4 3 -0.6830 14.237755747480321 8.293550617500077 31.895910064872183
564 4 8 0.0300 13.84887726637466 10.068055341502419 29.15009934462464
565 4 8 0.0300 12.989309497755983 8.519474778663644 29.729291447082755
566 4 8 0.0300 15.221079637672377 9.98298613121731 31.166417246560343
567 4 8 0.0300 13.540380824583245 10.23211443863941 31.858943481530382
568 4 4 0.4180 13.483233295575056 8.173524257888717 32.528434801597406
569 5 1 -0.1800 -17.694707960281594 -10.72475705350751 13.832183229924233
570 5 6 -0.4000 -19.741358862091314 -10.665804468711698 14.91030227662889
571 5 7 0.1400 -18.37816675516829 -10.876324807009345 15.17442623765064
572 5 2 0.0600 -16.604503626401787 -10.832700004305318 13.883688858381234
573 5 2 0.0600 -18.02132632327469 -9.73550077682456 13.426344020385407
574 5 2 0.0600 -18.13992208223225 -11.516977001930362 13.178425676287873
575 5 8 0.0300 -18.210501947499473 -11.860788209141925 15.636690579916973
576 5 8 0.0300 -18.064311474855373 -10.088447937557222 15.898859051375984
577 5 7 0.1400 -19.74129862809369 -10.665901195031092 14.910317588773648
578 5 6 -0.4000 -20.577247013451807 -10.077218380113033 17.01957784783067
579 5 7 0.1400 -20.9435864060165 -10.542313968336174 15.761772400525444
580 5 8 0.0300 -19.84267980363326 -10.471507250218629 13.853506417624107
581 5 8 0.0300 -18.773153339906887 -10.615377465439773 15.372152032822457
582 5 8 0.0300 -21.657075733079044 -9.847181946880163 15.256099133569084
583 5 8 0.0300 -21.393188995802536 -11.565076854157802 15.822357800115661
584 5 7 0.1400 -20.57727248827347 -10.07713245651034 17.01953273842017
585 5 6 -0.4000 -22.774004734011395 -10.3683455375116 17.783665175886977
586 5 7 0.1400 -21.789147829573213 -10.922735374446159 16.974158050233278
587 5 8 0.0300 -19.615122499835845 -10.560460980435803 16.94484714603776
588 5 8 0.0300 -20.649052208945164 -9.092873303858529 17.442889080195553
589 5 8 0.0300 -21.50818624871007 -11.950313180756284 17.31049930856736
590 5 8 0.0300 -22.112844194093995 -10.952156547331166 15.903545114489411
591 5 7 0.1400 -22.773971417208415 -10.368334954453687 17.783709669027626
592 5 6 -0.4000 -23.96429814507004 -9.338004966819874 16.047081212068353
593 5 7 0.1400 -22.689358194305996 -9.536279456020187 16.564583239965962
594 5 8 0.0300 -21.96408770865741 -11.050463290015943 17.99277021635
595 5 8 0.0300 -23.734662585546126 -10.524947495652277 18.237244663286337
596 5 8 0.0300 -22.023638775379784 -10.05728010977002 15.834270311108208
597 5 8 0.0300 -22.222558615699423 -8.56819947241374 16.875672132010124
598 5 7 0.1400 -23.96428526095322 -9.337998212968674 16.04704512752936
599 5 6 -0.4000 -26.267592858719695 -9.772341848428393 16.06839264276774
600 5 7 0.1400 -25.084286598737858 -10.047136936408238 15.392473302380186
601 5 8 0.0300 -22.993867296843696 -9.810434461464892 16.050202031130887
602 5 8 0.0300 -24.186865440514904 -8.570338716228532 16.76419640915058
603 5 8 0.0300 -24.851762099615478 -11.139798691249766 15.394382965837666
604 5 8 0.0300 -25.122067703448533 -9.671898808529303 14.339085465203036
605 5 7 0.1400 -26.267557087281347 -9.77240167180444 16.06838054800685
606 5 6 -0.4000 -26.879522738082443 -11.961077966500513 15.494333407716907
607 5 7 0.1400 -26.653096867638276 -11.108945920718913 16.569133529481725
608 5 8 0.0300 -25.565389310885003 -9.193467548623543 16.648650049882818
609 5 8 0.0300 -26.414744138067103 -9.547456145522801 15.028724603818166
610 5 8 0.0300 -25.83157534934928 -11.483368641727655 17.22707807196274
611 5 8 0.0300 -27.582977287197735 -10.96258771953572 17.173913392131222
612 5 7 0.1400 -26.879548621831894 -11.960980055922123 15.494265835386473
613 5 6 -0.4000 -25.48670725768067 -13.65045550126102 14.657604820454926
614 5 7 0.1400 -25.85997394712666 -12.981565384887954 15.817713001086567
615 5 8 0.0300 -26.882918632937262 -11.044814456619376 16.0648324289401
616 5 8 0.0300 -27.35634007834098 -11.992978890161298 14.532603222196546
617 5 8 0.0300 -24.991428198323483 -12.465580757563773 16.294545410430825
618 5 8 0.0300 -26.334237436262143 -13.67857250316997 16.553316304462268
619 5 7 0.1400 -25.486706161022333 -13.650577579375893 14.657613446404754
620 5 6 -0.4000 -24.61521257157799 -12.928575510275975 12.60492059656753
621 5 7 0.1400 -24.42200470220282 -12.879861129058396 13.980744214722886
622 5 8 0.0300 -25.830831261143416 -13.307117345765644 15.621216052978152
623 5 8 0.0300 -26.10608558399179 -14.302436785708306 14.070588995873345
624 5 8 0.0300 -24.454294406312147 -11.831557512393065 14.365449169584293
625 5 8 0.0300 -23.453312921440908 -13.358220081560656 14.271718348358947
626 5 7 0.1400 -24.61517095863774 -12.928657938934682 12.604954628875046
627 5 6 -0.4000 -22.589305678000606 -14.091114573860496 12.802186564995914
628 5 7 0.1400 -23.60781799898155 -13.488063471035096 13.531264763402012
629 5 8 0.0300 -25.124942705065347 -12.021969835261261 12.892993600545967
630 5 8 0.0300 -24.58532463189283 -13.219329255272237 11.571625841586881
631 5 8 0.0300 -23.222291962291504 -12.655605213892047 14.168731566575655
632 5 8 0.0300 -24.146000910533033 -14.233011082813766 14.169441235405818
633 5 7 0.1400 -22.589297391303166 -14.0911185280566 12.802170608336555
634 5 6 -0.4000 -21.49500735488645 -13.833083746014937 10.745405340384034
635 5 7 0.1400 -21.33682967188176 -13.701190841396125 12.12024245157593
636 5 8 0.0300 -22.85681032463538 -13.574970972493976 13.7115360636881
637 5 8 0.0300 -23.343495909489437 -14.61036030575868 12.241170099019122
638 5 8 0.0300 -21.09726508447006 -12.649041910148975 12.409331425654404
639 5 8 0.0300 -20.541692041076374 -14.3879017029237 12.505003859122551
640 5 7 0.1400 -21.495007986706515 -13.833087926511874 10.745411311641554
641 5 6 -0.4000 -22.955405608960827 -12.132822305392798 10.059356209951822
642 5 7 0.1400 -22.593892734852076 -12.926890739693487 11.141648575027398
643 5 8 0.0300 -21.458033898389385 -14.815232183313618 11.191441103947481
644 5 8 0.0300 -20.976552426064533 -13.64514517960389 9.823982879518859
645 5 8 0.0300 -23.44797340803827 -13.552328318631094 11.498516952083264
646 5 8 0.0300 -22.201929235811573 -12.307143118848067 11.986713366553094
647 5 7 0.1400 -22.9554327937754 -12.132784479387533 10.059378382222226
648 5 6 -0.4000 -23.408314450925225 -11.422372942494162 7.87201703739005
649 5 7 0.1400 -22.44634864244356 -12.023495375629555 8.675675300393426
650 5 8 0.0300 -22.653645109950833 -12.985714295058656 10.647895096879532
651 5 8 0.0300 -23.834770104691458 -11.579995978314681 10.332031580832737
652 5 8 0.0300 -22.191919669522637 -13.050535631969476 8.31729671621793
653 5 8 0.0300 -21.517197178095465 -11.402540103517875 8.729980975386901
654 5 7 0.1400 -23.40828360669053 -11.422424602625991 7.871946174732477
655 5 6 -0.4000 -21.23860662229918 -10.755338348250433 7.287280704035224
656 5 7 0.1400 -22.122348061816698 -10.874714893844077 8.353743693754806
657 5 8 0.0300 -24.315851671840107 -11.091578399625153 8.353379448489683
658 5 8 0.0300 -23.45138309835363 -11.852257231114693 6.888820879917581
659 5 8 0.0300 -22.32432700781338 -9.887125218089226 8.835253961263712
660 5 8 0.0300 -21.739818299837548 -11.595708373620244 9.119051725412929
661 5 7 0.1400 -21.238599633476447 -10.755354320327847 7.2873382950970065
662 5 6 -0.4000 -20.219795429204375 -8.90640887516825 8.30605058724878
663 5 7 0.1400 -20.428564097081715 -10.275470576310006 8.42720627956061
664 5 8 0.0300 -21.050799414444253 -11.749320591032777 6.910935411961938
665 5 8 0.0300 -21.7354360755782 -10.034046044211022 6.666035695227148
666 5 8 0.0300 -19.465367495299134 -10.84134838961615 8.43115681399865
667 5 8 0.0300 -21.011104839763938 -10.516945104333509 9.351432082831145
668 5 7 0.1400 -20.219843108289908 -8.906437792136389 8.305954751939433
669 5 6 -0.4000 -20.07492934285132 -6.817735149628672 7.252077495439566
670 5 7 0.1400 -19.392981497862106 -7.701811817899744 8.080297623988303
671 5 8 0.0300 -19.718148054594558 -9.855133118162605 8.420829690344792
672 5 8 0.0300 -21.257131742584015 -8.880907508650646 8.029315105848353
673 5 8 0.0300 -18.42351593713876 -8.025702416132669 7.629506755682732
674 5 8 0.0300 -19.20833496356338 -7.253075304898852 9.088463383807227
675 5 7 0.1400 -20.074909496094676 -6.8177419162289326 7.252015866756263
676 5 6 -0.4000 -20.38940681547215 -5.518295788584737 9.17733848841085
677 5 7 0.1400 -20.276559268847723 -6.825041946688339 8.71660764561614
678 5 8 0.0300 -19.45523173207381 -7.587927219584834 6.818736433511765
679 5 8 0.0300 -20.253521960666227 -5.908114624264751 6.709959802115725
680 5 8 0.0300 -19.410618668386334 -7.354252978054278 9.183580407940847
681 5 8 0.0300 -21.216150069078786 -7.403421940416541 8.90235669938524
682 5 7 0.1400 -20.38931906238508 -5.518330565233455 9.177310901725685
683 5 6 -0.4000 -21.891351839095517 -3.7188214283903864 9.176675208526719
684 5 7 0.1400 -20.949706335253246 -4.38884771892452 9.949308054765282
685 5 8 0.0300 -19.355673551100463 -5.783531630791637 9.339058704888402
686 5 8 0.0300 -20.883911716373575 -5.823367323319414 8.274271764790287
687 5 8 0.0300 -20.106454689318937 -3.7187560588402007 10.245761809530704
688 5 8 0.0300 -21.41700126726046 -4.833279516323903 10.86362354953759
689 5 7 0.1400 -21.891373333862653 -3.7187145329814317 9.176675309501958
690 5 6 -0.4000 -22.527234334947934 -2.2897076608659273 10.922514977611685
691 5 7 0.1400 -22.22629032125956 -3.6110713104977243 10.612637895437365
692 5 8 0.0300 -21.15168740002824 -4.446031046397935 8.87869475879575
693 5 8 0.0300 -22.119598591777898 -2.89302355142231 8.52914412521702
694 5 8 0.0300 -21.35371347128243 -3.984933987701713 11.201549891815304
695 5 8 0.0300 -23.108323698266297 -4.2784784464511425 10.781284972864022
696 5 7 0.1400 -22.527240876976308 -2.289712535729425 10.922499807499834
697 5 6 -0.4000 -22.7119177803199 -0.04901446439168189 10.259549888972996
698 5 7 0.1400 -22.84200028925071 -0.9082371957412155 11.34463414321435
699 5 8 0.0300 -23.06256007118289 -3.1008616956113086 11.391954172413964
700 5 8 0.0300 -22.04852473011812 -2.4441359555434796 9.973746278836998
701 5 8 0.0300 -23.880434944020248 -0.899194250309034 11.756401908965362
702 5 8 0.0300 -22.113454217616066 -0.652547456651198 12.154387425905941
703 5 7 0.1400 -22.711914291674752 -0.049000506084459716 10.259554366470743
704 5 5 0.1450 -21.51898238714623 -0.17865493809797228 11.099359224409307
705 5 3 -0.6830 -21.081292260364936 1.1092378962239775 11.44000919170763
706 5 8 0.0300 -23.42878520192856 -0.8495146770837936 10.218479312470471
707 5 8 0.0300 -22.890924632143367 0.8627247091879766 9.717116877130506
708 5 8 0.0300 -21.77219538717257 -0.7754866929233972 12.008994334247129
709 5 8 0.0300 -20.717596347578507 -0.6930546296535498 10.50985063845531
710 5 4 0.4180 -20.32651603664685 1.4062865929639607 10.869156387672346

Bonds

1 1 1 3
2 4 2 3
3 2 1 4
4 2 1 5
5 2 1 6
6 2 3 7
7 2 3 8
8 1 9 11
9 4 10 11
10 2 9 12
11 2 9 13
12 2 11 14
13 2 11 15
14 1 16 18
15 4 17 18
16 2 16 19
17 2 16 20
18 2 18 21
19 2 18 22
20 1 23 25
21 4 24 25
22 2 23 26
23 2 23 27
24 2 25 28
25 2 25 29
26 1 30 32
27 4 31 32
28 2 30 33
29 2 30 34
30 2 32 35
31 2 32 36
32 1 37 39
33 4 38 39
34 2 37 40
35 2 37 41
36 2 39 42
37 2 39 43
38 1 44 46
39 4 45 46
40 2 44 47
41 2 44 48
42 2 46 49
43 2 46 50
44 1 51 53
45 4 52 53
46 2 51 54
47 2 51 55
48 2 53 56
49 2 53 57
50 1 58 60
51 4 59 60
52 2 58 61
53 2 58 62
54 2 60 63
55 2 60 64
56 1 65 67
57 4 66 67
58 2 65 68
59 2 65 69
60 2 67 70
61 2 67 71
62 1 72 74
63 4 73 74
64 2 72 75
65 2 72 76
66 2 74 77
67 2 74 78
68 1 79 81
69 4 80 81
70 2 79 82
71 2 79 83
72 2 81 84
73 2 81 85
74 1 86 88
75 4 87 88
76 2 86 89
77 2 86 90
78 2 88 91
79 2 88 92
80 1 93 95
81 4 94 95
82 2 93 96
83 2 93 97
84 2 95 98
85 2 95 99
86 1 100 102
87 4 101 102
88 2 100 103
89 2 100 104
90 2 102 105
91 2 102 106
92 1 107 109
93 4 108 109
94 2 107 110
95 2 107 111
96 2 109 112
97 2 109 113
98 1 114 116
99 4 115 116
100 2 114 117
101 2 114 118
102 2 116 119
103 2 116 120
104 1 121 123
105 4 122 123
106 2 121 124
107 2 121 125
108 2 123 126
109 2 123 127
110 1 128 130
111 4 129 130
112 2 128 131
113 2 128 132
114 2 130 133
115 2 130 134
116 1 135 136
117 3 136 137
118 2 135 138
119 2 135 139
120 2 136 140
121 2 136 141
122 6 137 142
123 4 2 9
124 4 10 16
125 4 17 23
126 4 24 30
127 4 31 37
128 4 38 44
129 4 45 51
130 4 52 58
131 4 59 65
132 4 66 72
133 4 73 79
134 4 80 86
135 4 87 93
136 4 94 100
137 4 101 107
138 4 108 114
139 4 115 121
140 4 122 128
141 4 129 135
142 1 143 145
143 4 144 145
144 2 143 146
145 2 143 147
146 2 143 148
147 2 145 149
148 2 145 150
149 1 151 153
150 4 152 153
151 2 151 154
152 2 151 155
153 2 153 156
154 2 153 157
155 1 158 160
156 4 159 160
157 2 158 161
158 2 158 162
159 2 160 163
160 2 160 164
161 1 165 167
162 4 166 167
163 2 165 168
164 2 165 169
165 2 167 170
166 2 167 171
167 1 172 174
168 4 173 174
169 2 172 175
170 2 172 176
171 2 174 177
172 2 174 178
173 1 179 181
174 4 180 181
175 2 179 182
176 2 179 183
177 2 181 184
178 2 181 185
179 1 186 188
180 4 187 188
181 2 186 189
182 2 186 190
183 2 188 191
184 2 188 192
185 1 193 195
186 4 194 195
187 2 193 196
188 2 193 197
189 2 195 198
190 2 195 199
191 1 200 202
192 4 201 202
193 2 200 203
194 2 200 204
195 2 202 205
196 2 202 206
197 1 207 209
198 4 208 209
199 2 207 210
200 2 207 211
201 2 209 212
202 2 209 213
203 1 214 216
204 4 215 216
205 2 214 217
206 2 214 218
207 2 216 219
208 2 216 220
209 1 221 223
210 4 222 223
211 2 221 224
212 2 221 225
213 2 223 226
214 2 223 227
215 1 228 230
216 4 229 230
217 2 228 231
218 2 228 232
219 2 230 233
220 2 230 234
221 1 235 237
222 4 236 237
223 2 235 238
224 2 235 239
225 2 237 240
226 2 237 241
227 1 242 244
228 4 243 244
229 2 242 245
230 2 242 246
231 2 244 247
232 2 244 248
233 1 249 251
234 4 250 251
235 2 249 252
236 2 249 253
237 2 251 254
238 2 251 255
239 1 256 258
240 4 257 258
241 2 256 259
242 2 256 260
243 2 258 261
244 2 258 262
245 1 263 265
246 4 264 265
247 2 263 266
248 2 263 267
249 2 265 268
250 2 265 269
251 1 270 272
252 4 271 272
253 2 270 273
254 2 270 274
255 2 272 275
256 2 272 276
257 1 277 278
258 3 278 279
259 2 277 280
260 2 277 281
261 2 278 282
262 2 278 283
263 6 279 284
264 4 144 151
265 4 152 158
266 4 159 165
267 4 166 172
268 4 173 179
269 4 180 186
270 4 187 193
271 4 194 200
272 4 201 207
273 4 208 214
274 4 215 221
275 4 222 228
276 4 229 235
277 4 236 242
278 4 243 249
279 4 250 256
280 4 257 263
281 4 264 270
282 4 271 277
283 1 285 287
284 4 286 287
285 2 285 288
286 2 285 289
287 2 285 290
288 2 287 291
289 2 287 292
290 1 293 295
291 4 294 295
292 2 293 296
293 2 293 297
294 2 295 298
295 2 295 299
296 1 300 302
297 4 301 302
298 2 300 303
299 2 300 304
300 2 302 305
301 2 302 306
302 1 307 309
303 4 308 309
304 2 307 310
305 2 307 311
306 2 309 312
307 2 309 313
308 1 314 316
309 4 315 316
310 2 314 317
311 2 314 318
312 2 316 319
313 2 316 320
314 1 321 323
315 4 322 323
316 2 321 324
317 2 321 325
318 2 323 326
319 2 323 327
320 1 328 330
321 4 329 330
322 2 328 331
323 2 328 332
324 2 330 333
325 2 330 334
326 1 335 337
327 4 336 337
328 2 335 338
329 2 335 339
330 2 337 340
331 2 337 341
332 1 342 344
333 4 343 344
334 2 342 345
335 2 342 346
336 2 344 347
337 2 344 348
338 1 349 351
339 4 350 351
340 2 349 352
341 2 349 353
342 2 351 354
343 2 351 355
344 1 356 358
345 4 357 358
346 2 356 359
347 2 356 360
348 2 358 361
349 2 358 362
350 1 363 365
351 4 364 365
352 2 363 366
353 2 363 367
354 2 365 368
355 2 365 369
356 1 370 372
357 4 371 372
358 2 370 373
359 2 370 374
360 2 372 375
361 2 372 376
362 1 377 379
363 4 378 379
364 2 377 380
365 2 377 381
366 2 379 382
367 2 379 383
368 1 384 386
369 4 385 386
370 2 384 387
371 2 384 388
372 2 386 389
373 2 386 390
374 1 391 393
375 4 392 393
376 2 391 394
377 2 391 395
378 2 393 396
379 2 393 397
380 1 398 400
381 4 399 400
382 2 398 401
383 2 398 402
384 2 400 403
385 2 400 404
386 1 405 407
387 4 406 407
388 2 405 408
389 2 405 409
390 2 407 410
391 2 407 411
392 1 412 414
393 4 413 414
394 2 412 415
395 2 412 416
396 2 414 417
397 2 414 418
398 1 419 420
399 3 420 421
400 2 419 422
401 2 419 423
402 2 420 424
403 2 420 425
404 6 421 426
405 4 286 293
406 4 294 300
407 4 301 307
408 4 308 314
409 4 315 321
410 4 322 328
411 4 329 335
412 4 336 342
413 4 343 349
414 4 350 356
415 4 357 363
416 4 364 370
417 4 371 377
418 4 378 384
419 4 385 391
420 4 392 398
421 4 399 405
422 4 406 412
423 4 413 419
424 1 427 429
425 4 428 429
426 2 427 430
427 2 427 431
428 2 427 432
429 2 429 433
430 2 429 434
431 1 435 437
432 4 436 437
433 2 435 438
434 2 435 439
435 2 437 440
436 2 437 441
437 1 442 444
438 4 443 444
439 2 442 445
440 2 442 446
441 2 444 447
442 2 444 448
443 1 449 451
444 4 450 451
445 2 449 452
446 2 449 453
447 2 451 454
448 2 451 455
449 1 456 458
450 4 457 458
451 2 456 459
452 2 456 460
453 2 458 461
454 2 458 462
455 1 463 465
456 4 464 465
457 2 463 466
458 2 463 467
459 2 465 468
460 2 465 469
461 1 470 472
462 4 471 472
463 2 470 473
464 2 470 474
465 2 472 475
466 2 472 476
467 1 477 479
468 4 478 479
469 2 477 480
470 2 477 481
471 2 479 482
472 2 479 483
473 1 484 486
474 4 485 486
475 2 484 487
476 2 484 488
477 2 486 489
478 2 486 490
479 1 491 493
480 4 492 493
481 2 491 494
482 2 491 495
483 2 493 496
484 2 493 497
485 1 498 500
486 4 499 500
487 2 498 501
488 2 498 502
489 2 500 503
490 2 500 504
491 1 505 507
492 4 506 507
493 2 505 508
494 2 505 509
495 2 507 510
496 2 507 511
497 1 512 514
498 4 513 514
499 2 512 515
500 2 512 516
501 2 514 517
502 2 514 518
503 1 519 521
504 4 520 521
505 2 519 522
506 2 519 523
507 2 521 524
508 2 521 525
509 1 526 528
510 4 527 528
511 2 526 529
512 2 526 530
513 2 528 531
514 2 528 532
515 1 533 535
516 4 534 535
517 2 533 536
518 2 533 537
519 2 535 538
520 2 535 539
521 1 540 542
522 4 541 542
523 2 540 543
524 2 540 544
525 2 542 545
526 2 542 546
527 1 547 549
528 4 548 549
529 2 547 550
530 2 547 551
531 2 549 552
532 2 549 553
533 1 554 556
534 4 555 556
535 2 554 557
536 2 554 558
537 2 556 559
538 2 556 560
539 1 561 562
540 3 562 563
541 2 561 564
542 2 561 565
543 2 562 566
544 2 562 567
545 6 563 568
546 4 428 435
547 4 436 442
548 4 443 449
549 4 450 456
550 4 457 463
551 4 464 470
552 4 471 477
553 4 478 484
554 4 485 491
555 4 492 498
556 4 499 505
557 4 506 512
558 4 513 519
559 4 520 526
560 4 527 533
561 4 534 540
562 4 541 547
563 4 548 554
564 4 555 561
565 1 569 571
566 4 570 571
567 2 569 572
568 2 569 573
569 2 569 574
570 2 571 575
571 2 571 576
572 1 577 579
573 4 578 579
574 2 577 580
575 2 577 581
576 2 579 582
577 2 579 583
578 1 584 586
579 4 585 586
580 2 584 587
581 2 584 588
582 2 586 589
583 2 586 590
584 1 591 593
585 4 592 593
586 2 591 594
587 2 591 595
588 2 593 596
589 2 593 597
590 1 598 600
591 4 599 600
592 2 598 601
593 2 598 602
594 2 600 603
595 2 600 604
596 1 605 607
597 4 606 607
598 2 605 608
599 2 605 609
600 2 607 610
601 2 607 611
602 1 612 614
603 4 613 614
604 2 612 615
605 2 612 616
606 2 614 617
607 2 614 618
608 1 619 621
609 4 620 621
610 2 619 622
611 2 619 623
612 2 621 624
613 2 621 625
614 1 626 628
615 4 627 628
616 2 626 629
617 2 626 630
618 2 628 631
619 2 628 632
620 1 633 635
621 4 634 635
622 2 633 636
623 2 633 637
624 2 635 638
625 2 635 639
626 1 640 642
627 4 641 642
628 2 640 643
629 2 640 644
630 2 642 645
631 2 642 646
632 1 647 649
633 4 648 649
634 2 647 650
635 2 647 651
636 2 649 652
637 2 649 653
638 1 654 656
639 4 655 656
640 2 654 657
641 2 654 658
642 2 656 659
643 2 656 660
644 1 661 663
645 4 662 663
646 2 661 664
647 2 661 665
648 2 663 666
649 2 663 667
650 1 668 670
651 4 669 670
652 2 668 671
653 2 668 672
654 2 670 673
655 2 670 674
656 1 675 677
657 4 676 677
658 2 675 678
659 2 675 679
660 2 677 680
661 2 677 681
662 1 682 684
663 4 683 684
664 2 682 685
665 2 682 686
666 2 684 687
667 2 684 688
668 1 689 691
669 4 690 691
670 2 689 692
671 2 689 693
672 2 691 694
673 2 691 695
674 1 696 698
675 4 697 698
676 2 696 699
677 2 696 700
678 2 698 701
679 2 698 702
680 1 703 704
681 3 704 705
682 2 703 706
683 2 703 707
684 2 704 708
685 2 704 709
686 6 705 710
687 4 570 577
688 4 578 584
689 4 585 591
690 4 592 598
691 4 599 605
692 4 606 612
693 4 613 619
694 4 620 626
695 4 627 633
696 4 634 640
697 4 641 647
698 4 648 654
699 4 655 661
700 4 662 668
701 4 669 675
702 4 676 682
703 4 683 689
704 4 690 696
705 4 697 703

Angles

1 2 1 3 7
2 2 1 3 8
3 2 143 145 149
4 2 143 145 150
5 2 285 287 291
6 2 285 287 292
7 2 427 429 433
8 2 427 429 434
9 2 569 571 575
10 2 569 571 576
11 2 3 1 4
12 2 3 1 5
13 2 3 1 6
14 2 145 143 146
15 2 145 143 147
16 2 145 143 148
17 2 287 285 288
18 2 287 285 289
19 2 287 285 290
20 2 429 427 430
21 2 429 427 431
22 2 429 427 432
23 2 571 569 572
24 2 571 569 573
25 2 571 569 574
26 2 9 11 14
27 2 9 11 15
28 2 11 9 12
29 2 11 9 13
30 2 16 18 21
31 2 16 18 22
32 2 18 16 19
33 2 18 16 20
34 2 23 25 28
35 2 23 25 29
36 2 25 23 26
37 2 25 23 27
38 2 30 32 35
39 2 30 32 36
40 2 32 30 33
41 2 32 30 34
42 2 37 39 42
43 2 37 39 43
44 2 39 37 40
45 2 39 37 41
46 2 44 46 49
47 2 44 46 50
48 2 46 44 47
49 2 46 44 48
50 2 51 53 56
51 2 51 53 57
52 2 53 51 54
53 2 53 51 55
54 2 58 60 63
55 2 58 60 64
56 2 60 58 61
57 2 60 58 62
58 2 65 67 70
59 2 65 67 71
60 2 67 65 68
61 2 67 65 69
62 2 72 74 77
63 2 72 74 78
64 2 74 72 75
65 2 74 72 76
66 2 79 81 84
67 2 79 81 85
68 2 81 79 82
69 2 81 79 83
70 2 86 88 91
71 2 86 88 92
72 2 88 86 89
73 2 88 86 90
74 2 93 95 98
75 2 93 95 99
76 2 95 93 96
77 2 95 93 97
78 2 100 102 105
79 2 100 102 106
80 2 102 100 103
81 2 102 100 104
82 2 107 109 112
83 2 107 109 113
84 2 109 107 110
85 2 109 107 111
86 2 114 116 119
87 2 114 116 120
88 2 116 114 117
89 2 116 114 118
90 2 121 123 126
91 2 121 123 127
92 2 123 121 124
93 2 123 121 125
94 2 128 130 133
95 2 128 130 134
96 2 130 128 131
97 2 130 128 132
98 2 151 153 156
99 2 151 153 157
100 2 153 151 154
101 2 153 151 155
102 2 158 160 163
103 2 158 160 164
104 2 160 158 161
105 2 160 158 162
106 2 165 167 170
107 2 165 167 171
108 2 167 165 168
109 2 167 165 169
110 2 172 174 177
111 2 172 174 178
112 2 174 172 175
113 2 174 172 176
114 2 179 181 184
115 2 179 181 185
116 2 181 179 182
117 2 181 179 183
118 2 186 188 191
119 2 186 188 192
120 2 188 186 189
121 2 188 186 190
122 2 193 195 198
123 2 193 195 199
124 2 195 193 196
125 2 195 193 197
126 2 200 202 205
127 2 200 202 206
128 2 202 200 203
129 2 202 200 204
130 2 207 209 212
131 2 207 209 213
132 2 209 207 210
133 2 209 207 211
134 2 214 216 219
135 2 214 216 220
136 2 216 214 217
137 2 216 214 218
138 2 221 223 226
139 2 221 223 227
140 2 223 221 224
141 2 223 221 225
142 2 228 230 233
143 2 228 230 234
144 2 230 228 231
145 2 230 228 232
146 2 235 237 240
147 2 235 237 241
148 2 237 235 238
149 2 237 235 239
150 2 242 244 247
151 2 242 244 248
152 2 244 242 245
153 2 244 242 246
154 2 249 251 254
155 2 249 251 255
156 2 251 249 252
157 2 251 249 253
158 2 256 258 261
159 2 256 258 262
160 2 258 256 259
161 2 258 256 260
162 2 263 265 268
163 2 263 265 269
164 2 265 263 266
165 2 265 263 267
166 2 270 272 275
167 2 270 272 276
168 2 272 270 273
169 2 272 270 274
170 2 293 295 298
171 2 293 295 299
172 2 295 293 296
173 2 295 293 297
174 2 300 302 305
175 2 300 302 306
176 2 302 300 303
177 2 302 300 304
178 2 307 309 312
179 2 307 309 313
180 2 309 307 310
181 2 309 307 311
182 2 314 316 319
183 2 314 316 320
184 2 316 314 317
185 2 316 314 318
186 2 321 323 326
187 2 321 323 327
188 2 323 321 324
189 2 323 321 325
190 2 328 330 333
191 2 328 330 334
192 2 330 328 331
193 2 330 328 332
194 2 335 337 340
195 2 335 337 341
196 2 337 335 338
197 2 337 335 339
198 2 342 344 347
199 2 342 344 348
200 2 344 342 345
201 2 344 342 346
202 2 349 351 354
203 2 349 351 355
204 2 351 349 352
205 2 351 349 353
206 2 356 358 361
207 2 356 358 362
208 2 358 356 359
209 2 358 356 360
210 2 363 365 368
211 2 363 365 369
212 2 365 363 366
213 2 365 363 367
214 2 370 372 375
215 2 370 372 376
216 2 372 370 373
217 2 372 370 374
218 2 377 379 382
219 2 377 379 383
220 2 379 377 380
221 2 379 377 381
222 2 384 386 389
223 2 384 386 390
224 2 386 384 387
225 2 386 384 388
226 2 391 393 396
227 2 391 393 397
228 2 393 391 394
229 2 393 391 395
230 2 398 400 403
231 2 398 400 404
232 2 400 398 401
233 2 400 398 402
234 2 405 407 410
235 2 405 407 411
236 2 407 405 408
237 2 407 405 409
238 2 412 414 417
239 2 412 414 418
240 2 414 412 415
241 2 414 412 416
242 2 435 437 440
243 2 435 437 441
244 2 437 435 438
245 2 437 435 439
246 2 442 444 447
247 2 442 444 448
248 2 444 442 445
249 2 444 442 446
250 2 449 451 454
251 2 449 451 455
252 2 451 449 452
253 2 451 449 453
254 2 456 458 461
255 2 456 458 462
256 2 458 456 459
257 2 458 456 460
258 2 463 465 468
259 2 463 465 469
260 2 465 463 466
261 2 465 463 467
262 2 470 472 475
263 2 470 472 476
264 2 472 470 473
265 2 472 470 474
266 2 477 479 482
267 2 477 479 483
268 2 479 477 480
269 2 479 477 481
270 2 484 486 489
271 2 484 486 490
272 2 486 484 487
273 2 486 484 488
274 2 491 493 496
275 2 491 493 497
276 2 493 491 494
277 2 493 491 495
278 2 498 500 503
279 2 498 500 504
280 2 500 498 501
281 2 500 498 502
282 2 505 507 510
283 2 505 507 511
284 2 507 505 508
285 2 507 505 509
286 2 512 514 517
287 2 512 514 518
288 2 514 512 515
289 2 514 512 516
290 2 519 521 524
291 2 519 521 525
292 2 521 519 522
293 2 521 519 523
294 2 526 528 531
295 2 526 528 532
296 2 528 526 529
297 2 528 526 530
298 2 533 535 538
299 2 533 535 539
300 2 535 533 536
301 2 535 533 537
302 2 540 542 545
303 2 540 542 546
304 2 542 540 543
305 2 542 540 544
306 2 547 549 552
307 2 547 549 553
308 2 549 547 550
309 2 549 547 551
310 2 554 556 559
311 2 554 556 560
312 2 556 554 557
313 2 556 554 558
314 2 577 579 582
315 2 577 579 583
316 2 579 577 580
317 2 579 577 581
318 2 584 586 589
319 2 584 586 590
320 2 586 584 587
321 2 586 584 588
322 2 591 593 596
323 2 591 593 597
324 2 593 591 594
325 2 593 591 595
326 2 598 600 603
327 2 598 600 604
328 2 600 598 601
329 2 600 598 602
330 2 605 607 610
331 2 605 607 611
332 2 607 605 608
333 2 607 605 609
334 2 612 614 617
335 2 612 614 618
336 2 614 612 615
337 2 614 612 616
338 2 619 621 624
339 2 619 621 625
340 2 621 619 622
341 2 621 619 623
342 2 626 628 631
343 2 626 628 632
344 2 628 626 629
345 2 628 626 630
346 2 633 635 638
347 2 633 635 639
348 2 635 633 636
349 2 635 633 637
350 2 640 642 645
351 2 640 642 646
352 2 642 640 643
353 2 642 640 644
354 2 647 649 652
355 2 647 649 653
356 2 649 647 650
357 2 649 647 651
358 2 654 656 659
359 2 654 656 660
360 2 656 654 657
361 2 656 654 658
362 2 661 663 666
363 2 661 663 667
364 2 663 661 664
365 2 663 661 665
366 2 668 670 673
367 2 668 670 674
368 2 670 668 671
369 2 670 668 672
370 2 675 677 680
371 2 675 677 681
372 2 677 675 678
373 2 677 675 679
374 2 682 684 687
375 2 682 684 688
376 2 684 682 685
377 2 684 682 686
378 2 689 691 694
379 2 689 691 695
380 2 691 689 692
381 2 691 689 693
382 2 696 698 701
383 2 696 698 702
384 2 698 696 699
385 2 698 696 700
386 2 135 136 140
387 2 135 136 141
388 2 277 278 282
389 2 277 278 283
390 2 419 420 424
391 2 419 420 425
392 2 561 562 566
393 2 561 562 567
394 2 703 704 708
395 2 703 704 709
396 2 136 135 138
397 2 136 135 139
398 2 278 277 280
399 2 278 277 281
400 2 420 419 422
401 2 420 419 423
402 2 562 561 564
403 2 562 561 565
404 2 704 703 706
405 2 704 703 707
406 3 135 136 137
407 3 277 278 279
408 3 419 420 421
409 3 561 562 563
410 3 703 704 705
411 4 1 3 2
412 4 143 145 144
413 4 285 287 286
414 4 427 429 428
415 4 569 571 570
416 4 9 11 10
417 4 2 9 11
418 4 16 18 17
419 4 10 16 18
420 4 23 25 24
421 4 17 23 25
422 4 30 32 31
423 4 24 30 32
424 4 37 39 38
425 4 31 37 39
426 4 44 46 45
427 4 38 44 46
428 4 51 53 52
429 4 45 51 53
430 4 58 60 59
431 4 52 58 60
432 4 65 67 66
433 4 59 65 67
434 4 72 74 73
435 4 66 72 74
436 4 79 81 80
437 4 73 79 81
438 4 86 88 87
439 4 80 86 88
440 4 93 95 94
441 4 87 93 95
442 4 100 102 101
443 4 94 100 102
444 4 107 109 108
445 4 101 107 109
446 4 114 116 115
447 4 108 114 116
448 4 121 123 122
449 4 115 121 123
450 4 128 130 129
451 4 122 128 130
452 4 151 153 152
453 4 144 151 153
454 4 158 160 159
455 4 152 158 160
456 4 165 167 166
457 4 159 165 167
458 4 172 174 173
459 4 166 172 174
460 4 179 181 180
461 4 173 179 181
462 4 186 188 187
463 4 180 186 188
464 4 193 195 194
465 4 187 193 195
466 4 200 202 201
467 4 194 200 202
468 4 207 209 208
469 4 201 207 209
470 4 214 216 215
471 4 208 214 216
472 4 221 223 222
473 4 215 221 223
474 4 228 230 229
475 4 222 228 230
476 4 235 237 236
477 4 229 235 237
478 4 242 244 243
479 4 236 242 244
480 4 249 251 250
481 4 243 249 251
482 4 256 258 257
483 4 250 256 258
484 4 263 265 264
485 4 257 263 265
486 4 270 272 271
487 4 264 270 272
488 4 293 295 294
489 4 286 293 295
490 4 300 302 301
491 4 294 300 302
492 4 307 309 308
493 4 301 307 309
494 4 314 316 315
495 4 308 314 316
496 4 321 323 322
497 4 315 321 323
498 4 328 330 329
499 4 322 328 330
500 4 335 337 336
501 4 329 335 337
502 4 342 344 343
503 4 336 342 344
504 4 349 351 350
505 4 343 349 351
506 4 356 358 357
507 4 350 356 358
508 4 363 365 364
509 4 357 363 365
510 4 370 372 371
511 4 364 370 372
512 4 377 379 378
513 4 371 377 379
514 4 384 386 385
515 4 378 384 386
516 4 391 393 392
517 4 385 391 393
518 4 398 400 399
519 4 392 398 400
520 4 405 407 406
521 4 399 405 407
522 4 412 414 413
523 4 406 412 414
524 4 435 437 436
525 4 428 435 437
526 4 442 444 443
527 4 436 442 444
528 4 449 451 450
529 4 443 449 451
530 4 456 458 457
531 4 450 456 458
532 4 463 465 464
533 4 457 463 465
534 4 470 472 471
535 4 464 470 472
536 4 477 479 478
537 4 471 477 479
538 4 484 486 485
539 4 478 484 486
540 4 491 493 492
541 4 485 491 493
542 4 498 500 499
543 4 492 498 500
544 4 505 507 506
545 4 499 505 507
546 4 512 514 513
547 4 506 512 514
548 4 519 521 520
549 4 513 519 521
550 4 526 528 527
551 4 520 526 528
552 4 533 535 534
553 4 527 533 535
554 4 540 542 541
555 4 534 540 542
556 4 547 549 548
557 4 541 547 549
558 4 554 556 555
559 4 548 554 556
560 4 577 579 578
561 4 570 577 579
562 4 584 586 585
563 4 578 584 586
564 4 591 593 592
565 4 585 591 593
566 4 598 600 599
567 4 592 598 600
568 4 605 607 606
569 4 599 605 607
570 4 612 614 613
571 4 606 612 614
572 4 619 621 620
573 4 613 619 621
574 4 626 628 627
575 4 620 626 628
576 4 633 635 634
577 4 627 633 635
578 4 640 642 641
579 4 634 640 642
580 4 647 649 648
581 4 641 647 649
582 4 654 656 655
583 4 648 654 656
584 4 661 663 662
585 4 655 661 663
586 4 668 670 669
587 4 662 668 670
588 4 675 677 676
589 4 669 675 677
590 4 682 684 683
591 4 676 682 684
592 4 689 691 690
593 4 683 689 691
594 4 696 698 697
595 4 690 696 698
596 4 129 135 136
597 4 271 277 278
598 4 413 419 420
599 4 555 561 562
600 4 697 703 704
601 6 136 137 142
602 6 278 279 284
603 6 420 421 426
604 6 562 563 568
605 6 704 705 710
606 7 3 2 9
607 7 11 10 16
608 7 18 17 23
609 7 25 24 30
610 7 32 31 37
611 7 39 38 44
612 7 46 45 51
613 7 53 52 58
614 7 60 59 65
615 7 67 66 72
616 7 74 73 79
617 7 81 80 86
618 7 88 87 93
619 7 95 94 100
620 7 102 101 107
621 7 109 108 114
622 7 116 115 121
623 7 123 122 128
624 7 130 129 135
625 7 145 144 151
626 7 153 152 158
627 7 160 159 165
628 7 167 166 172
629 7 174 173 179
630 7 181 180 186
631 7 188 187 193
632 7 195 194 200
633 7 202 201 207
634 7 209 208 214
635 7 216 215 221
636 7 223 222 228
637 7 230 229 235
638 7 237 236 242
639 7 244 243 249
640 7 251 250 256
641 7 258 257 263
642 7 265 264 270
643 7 272 271 277
644 7 287 286 293
645 7 295 294 300
646 7 302 301 307
647 7 309 308 314
648 7 316 315 321
649 7 323 322 328
650 7 330 329 335
651 7 337 336 342
652 7 344 343 349
653 7 351 350 356
654 7 358 357 363
655 7 365 364 370
656 7 372 371 377
657 7 379 378 384
658 7 386 385 391
659 7 393 392 398
660 7 400 399 405
661 7 407 406 412
662 7 414 413 419
663 7 429 428 435
664 7 437 436 442
665 7 444 443 449
666 7 451 450 456
667 7 458 457 463
668 7 465 464 470
669 7 472 471 477
670 7 479 478 484
671 7 486 485 491
672 7 493 492 498
673 7 500 499 505
674 7 507 506 512
675 7 514 513 519
676 7 521 520 526
677 7 528 527 533
678 7 535 534 540
679 7 542 541 547
680 7 549 548 554
681 7 556 555 561
682 7 571 570 577
683 7 579 578 584
684 7 586 585 591
685 7 593 592 598
686 7 600 599 605
687 7 607 606 612
688 7 614 613 619
689 7 621 620 626
690 7 628 627 633
691 7 635 634 640
692 7 642 641 647
693 7 649 648 654
694 7 656 655 661
695 7 663 662 668
696 7 670 669 675
697 7 677 676 682
698 7 684 683 689
699 7 691 690 696
700 7 698 697 703
701 8 4 1 5
702 8 4 1 6
703 8 5 1 6
704 8 146 143 147
705 8 146 143 148
706 8 147 143 148
707 8 288 285 289
708 8 288 285 290
709 8 289 285 290
710 8 430 427 431
711 8 430 427 432
712 8 431 427 432
713 8 572 569 573
714 8 572 569 574
715 8 573 569 574
716 8 7 3 8
717 8 12 9 13
718 8 14 11 15
719 8 19 16 20
720 8 21 18 22
721 8 26 23 27
722 8 28 25 29
723 8 33 30 34
724 8 35 32 36
725 8 40 37 41
726 8 42 39 43
727 8 47 44 48
728 8 49 46 50
729 8 54 51 55
730 8 56 53 57
731 8 61 58 62
732 8 63 60 64
733 8 68 65 69
734 8 70 67 71
735 8 75 72 76
736 8 77 74 78
737 8 82 79 83
738 8 84 81 85
739 8 89 86 90
740 8 91 88 92
741 8 96 93 97
742 8 98 95 99
743 8 103 100 104
744 8 105 102 106
745 8 110 107 111
746 8 112 109 113
747 8 117 114 118
748 8 119 116 120
749 8 124 121 125
750 8 126 123 127
751 8 131 128 132
752 8 133 130 134
753 8 138 135 139
754 8 149 145 150
755 8 154 151 155
756 8 156 153 157
757 8 161 158 162
758 8 163 160 164
759 8 168 165 169
760 8 170 167 171
761 8 175 172 176
762 8 177 174 178
763 8 182 179 183
764 8 184 181 185
765 8 189 186 190
766 8 191 188 192
767 8 196 193 197
768 8 198 195 199
769 8 203 200 204
770 8 205 202 206
771 8 210 207 211
772 8 212 209 213
773 8 217 214 218
774 8 219 216 220
775 8 224 221 225
776 8 226 223 227
777 8 231 228 232
778 8 233 230 234
779 8 238 235 239
780 8 240 237 241
781 8 245 242 246
782 8 247 244 248
783 8 252 249 253
784 8 254 251 255
785 8 259 256 260
786 8 261 258 262
787 8 266 263 267
788 8 268 265 269
789 8 273 270 274
790 8 275 272 276
791 8 280 277 281
792 8 291 287 292
793 8 296 293 297
794 8 298 295 299
795 8 303 300 304
796 8 305 302 306
797 8 310 307 311
798 8 312 309 313
799 8 317 314 318
800 8 319 316 320
801 8 324 321 325
802 8 326 323 327
803 8 331 328 332
804 8 333 330 334
805 8 338 335 339
806 8 340 337 341
807 8 345 342 346
808 8 347 344 348
809 8 352 349 353
810 8 354 351 355
811 8 359 356 360
812 8 361 358 362
813 8 366 363 367
814 8 368 365 369
815 8 373 370 374
816 8 375 372 376
817 8 380 377 381
818 8 382 379 383
819 8 387 384 388
820 8 389 386 390
821 8 394 391 395
822 8 396 393 397
823 8 401 398 402
824 8 403 400 404
825 8 408 405 409
826 8 410 407 411
827 8 415 412 416
828 8 417 414 418
829 8 422 419 423
830 8 433 429 434
831 8 438 435 439
832 8 440 437 441
833 8 445 442 446
834 8 447 444 448
835 8 452 449 453
836 8 454 451 455
837 8 459 456 460
838 8 461 458 462
839 8 466 463 467
840 8 468 465 469
841 8 473 470 474
842 8 475 472 476
843 8 480 477 481
844 8 482 479 483
845 8 487 484 488
846 8 489 486 490
847 8 494 491 495
848 8 496 493 497
849 8 501 498 502
850 8 503 500 504
851 8 508 505 509
852 8 510 507 511
853 8 515 512 516
854 8 517 514 518
855 8 522 519 523
856 8 524 521 525
857 8 529 526 530
858 8 531 528 532
859 8 536 533 537
860 8 538 535 539
861 8 543 540 544
862 8 545 542 546
863 8 550 547 551
864 8 552 549 553
865 8 557 554 558
866 8 559 556 560
867 8 564 561 565
868 8 575 571 576
869 8 580 577 581
870 8 582 579 583
871 8 587 584 588
872 8 589 586 590
873 8 594 591 595
874 8 596 593 597
875 8 601 598 602
876 8 603 600 604
877 8 608 605 609
878 8 610 607 611
879 8 615 612 616
880 8 617 614 618
881 8 622 619 623
882 8 624 621 625
883 8 629 626 630
884 8 631 628 632
885 8 636 633 637
886 8 638 635 639
887 8 643 640 644
888 8 645 642 646
889 8 650 647 651
890 8 652 649 653
891 8 657 654 658
892 8 659 656 660
893 8 664 661 665
894 8 666 663 667
895 8 671 668 672
896 8 673 670 674
897 8 678 675 679
898 8 680 677 681
899 8 685 682 686
900 8 687 684 688
901 8 692 689 693
902 8 694 691 695
903 8 699 696 700
904 8 701 698 702
905 8 706 703 707
906 8 140 136 141
907 8 282 278 283
908 8 424 420 425
909 8 566 562 567
910 8 708 704 709
911 9 137 136 140
912 9 137 136 141
913 9 279 278 282
914 9 279 278 283
915 9 421 420 424
916 9 421 420 425
917 9 563 562 566
918 9 563 562 567
919 9 705 704 708
920 9 705 704 709
921 10 2 3 7
922 10 2 3 8
923 10 2 9 12
924 10 2 9 13
925 10 10 11 14
926 10 10 11 15
927 10 10 16 19
928 10 10 16 20
929 10 17 18 21
930 10 17 18 22
931 10 17 23 26
932 10 17 23 27
933 10 24 25 28
934 10 24 25 29
935 10 24 30 33
936 10 24 30 34
937 10 31 32 35
938 10 31 32 36
939 10 31 37 40
940 10 31 37 41
941 10 38 39 42
942 10 38 39 43
943 10 38 44 47
944 10 38 44 48
945 10 45 46 49
946 10 45 46 50
947 10 45 51 54
948 10 45 51 55
949 10 52 53 56
950 10 52 53 57
951 10 52 58 61
952 10 52 58 62
953 10 59 60 63
954 10 59 60 64
955 10 59 65 68
956 10 59 65 69
957 10 66 67 70
958 10 66 67 71
959 10 66 72 75
960 10 66 72 76
961 10 73 74 77
962 10 73 74 78
963 10 73 79 82
964 10 73 79 83
965 10 80 81 84
966 10 80 81 85
967 10 80 86 89
968 10 80 86 90
969 10 87 88 91
970 10 87 88 92
971 10 87 93 96
972 10 87 93 97
973 10 94 95 98
974 10 94 95 99
975 10 94 100 103
976 10 94 100 104
977 10 101 102 105
978 10 101 102 106
979 10 101 107 110
980 10 101 107 111
981 10 108 109 112
982 10 108 109 113
983 10 108 114 117
984 10 108 114 118
985 10 115 116 119
986 10 115 116 120
987 10 115 121 124
988 10 115 121 125
989 10 122 123 126
990 10 122 123 127
991 10 122 128 131
992 10 122 128 132
993 10 129 130 133
994 10 129 130 134
995 10 129 135 138
996 10 129 135 139
997 10 144 145 149
998 10 144 145 150
999 10 144 151 154
1000 10 144 151 155
1001 10 152 153 156
1002 10 152 153 157
1003 10 152 158 161
1004 10 152 158 162
1005 10 159 160 163
1006 10 159 160 164
1007 10 159 165 168
1008 10 159 165 169
1009 10 166 167 170
1010 10 166 167 171
1011 10 166 172 175
1012 10 166 172 176
1013 10 173 174 177
1014 10 173 174 178
1015 10 173 179 182
1016 10 173 179 183
1017 10 180 181 184
1018 10 180 181 185
1019 10 180 186 189
1020 10 180 186 190
1021 10 187 188 191
1022 10 187 188 192
1023 10 187 193 196
1024 10 187 193 197
1025 10 194 195 198
1026 10 194 195 199
1027 10 194 200 203
1028 10 194 200 204
1029 10 201 202 205
1030 10 201 202 206
1031 10 201 207 210
1032 10 201 207 211
1033 10 208 209 212
1034 10 208 209 213
1035 10 208 214 217
1036 10 208 214 218
1037 10 215 216 219
1038 10 215 216 220
1039 10 215 221 224
1040 10 215 221 225
1041 10 222 223 226
1042 10 222 223 227
1043 10 222 228 231
1044 10 222 228 232
1045 10 229 230 233
1046 10 229 230 234
1047 10 229 235 238
1048 10 229 235 239
1049 10 236 237 240
1050 10 236 237 241
1051 10 236 242 245
1052 10 236 242 246
1053 10 243 244 247
1054 10 243 244 248
1055 10 243 249 252
1056 10 243 249 253
1057 10 250 251 254
1058 10 250 251 255
1059 10 250 256 259
1060 10 250 256 260
1061 10 257 258 261
1062 10 257 258 262
1063 10 257 263 266
1064 10 257 263 267
1065 10 264 265 268
1066 10 264 265 269
1067 10 264 270 273
1068 10 264 270 274
1069 10 271 272 275
1070 10 271 272 276
1071 10 271 277 280
1072 10 271 277 281
1073 10 286 287 291
1074 10 286 287 292
1075 10 286 293 296
1076 10 286 293 297
1077 10 294 295 298
1078 10 294 295 299
1079 10 294 300 303
1080 10 294 300 304
1081 10 301 302 305
1082 10 301 302 306
1083 10 301 307 310
1084 10 301 307 311
1085 10 308 309 312
1086 10 308 309 313
1087 10 308 314 317
1088 10 308 314 318
1089 10 315 316 319
1090 10 315 316 320
1091 10 315 321 324
1092 10 315 321 325
1093 10 322 323 326
1094 10 322 323 327
1095 10 322 328 331
1096 10 322 328 332
1097 10 329 330 333
1098 10 329 330 334
1099 10 329 335 338
1100 10 329 335 339
1101 10 336 337 340
1102 10 336 337 341
1103 10 336 342 345
1104 10 336 342 346
1105 10 343 344 347
1106 10 343 344 348
1107 10 343 349 352
1108 10 343 349 353
1109 10 350 351 354
1110 10 350 351 355
1111 10 350 356 359
1112 10 350 356 360
1113 10 357 358 361
1114 10 357 358 362
1115 10 357 363 366
1116 10 357 363 367
1117 10 364 365 368
1118 10 364 365 369
1119 10 364 370 373
1120 10 364 370 374
1121 10 371 372 375
1122 10 371 372 376
1123 10 371 377 380
1124 10 371 377 381
1125 10 378 379 382
1126 10 378 379 383
1127 10 378 384 387
1128 10 378 384 388
1129 10 385 386 389
1130 10 385 386 390
1131 10 385 391 394
1132 10 385 391 395
1133 10 392 393 396
1134 10 392 393 397
1135 10 392 398 401
1136 10 392 398 402
1137 10 399 400 403
1138 10 399 400 404
1139 10 399 405 408
1140 10 399 405 409
1141 10 406 407 410
1142 10 406 407 411
1143 10 406 412 415
1144 10 406 412 416
1145 10 413 414 417
1146 10 413 414 418
1147 10 413 419 422
1148 10 413 419 423
1149 10 428 429 433
1150 10 428 429 434
1151 10 428 435 438
1152 10 428 435 439
1153 10 436 437 440
1154 10 436 437 441
1155 10 436 442 445
1156 10 436 442 446
1157 10 443 444 447
1158 10 443 444 448
1159 10 443 449 452
1160 10 443 449 453
1161 10 450 451 454
1162 10 450 451 455
1163 10 450 456 459
1164 10 450 456 460
1165 10 457 458 461
1166 10 457 458 462
1167 10 457 463 466
1168 10 457 463 467
1169 10 464 465 468
1170 10 464 465 469
1171 10 464 470 473
1172 10 464 470 474
1173 10 471 472 475
1174 10 471 472 476
1175 10 471 477 480
1176 10 471 477 481
1177 10 478 479 482
1178 10 478 479 483
1179 10 478 484 487
1180 10 478 484 488
1181 10 485 486 489
1182 10 485 486 490
1183 10 485 491 494
1184 10 485 491 495
1185 10 492 493 496
1186 10 492 493 497
1187 10 492 498 501
1188 10 492 498 502
1189 10 499 500 503
1190 10 499 500 504
1191 10 499 505 508
1192 10 499 505 509
1193 10 506 507 510
1194 10 506 507 511
1195 10 506 512 515
1196 10 506 512 516
1197 10 513 514 517
1198 10 513 514 518
1199 10 513 519 522
1200 10 513 519 523
1201 10 520 521 524
1202 10 520 521 525
1203 10 520 526 529
1204 10 520 526 530
1205 10 527 528 531
1206 10 527 528 532
1207 10 527 533 536
1208 10 527 533 537
1209 10 534 535 538
1210 10 534 535 539
1211 10 534 540 543
1212 10 534 540 544
1213 10 541 542 545
1214 10 541 542 546
1215 10 541 547 550
1216 10 541 547 551
1217 10 548 549 552
1218 10 548 549 553
1219 10 548 554 557
1220 10 548 554 558
1221 10 555 556 559
1222 10 555 556 560
1223 10 555 561 564
1224 10 555 561 565
1225 10 570 571 575
1226 10 570 571 576
1227 10 570 577 580
1228 10 570 577 581
1229 10 578 579 582
1230 10 578 579 583
1231 10 578 584 587
1232 10 578 584 588
1233 10 585 586 589
1234 10 585 586 590
1235 10 585 591 594
1236 10 585 591 595
1237 10 592 593 596
1238 10 592 593 597
1239 10 592 598 601
1240 10 592 598 602
1241 10 599 600 603
1242 10 599 600 604
1243 10 599 605 608
1244 10 599 605 609
1245 10 606 607 610
1246 10 606 607 611
1247 10 606 612 615
1248 10 606 612 616
1249 10 613 614 617
1250 10 613 614 618
1251 10 613 619 622
1252 10 613 619 623
1253 10 620 621 624
1254 10 620 621 625
1255 10 620 626 629
1256 10 620 626 630
1257 10 627 628 631
1258 10 627 628 632
1259 10 627 633 636
1260 10 627 633 637
1261 10 634 635 638
1262 10 634 635 639
1263 10 634 640 643
1264 10 634 640 644
1265 10 641 642 645
1266 10 641 642 646
1267 10 641 647 650
1268 10 641 647 651
1269 10 648 649 652
1270 10 648 649 653
1271 10 648 654 657
1272 10 648 654 658
1273 10 655 656 659
1274 10 655 656 660
1275 10 655 661 664
1276 10 655 661 665
1277 10 662 663 666
1278 10 662 663 667
1279 10 662 668 671
1280 10 662 668 672
1281 10 669 670 673
1282 10 669 670 674
1283 10 669 675 678
1284 10 669 675 679
1285 10 676 677 680
1286 10 676 677 681
1287 10 676 682 685
1288 10 676 682 686
1289 10 683 684 687
1290 10 683 684 688
1291 10 683 689 692
1292 10 683 689 693
1293 10 690 691 694
1294 10 690 691 695
1295 10 690 696 699
1296 10 690 696 700
1297 10 697 698 701
1298 10 697 698 702
1299 10 697 703 706
1300 10 697 703 707

Dihedrals

1 8 3 2 9 11
2 8 11 10 16 18
3 8 9 11 10 16
4 8 18 17 23 25
5 8 16 18 17 23
6 8 25 24 30 32
7 8 23 25 24 30
8 8 32 31 37 39
9 8 30 32 31 37
10 8 39 38 44 46
11 8 37 39 38 44
12 8 46 45 51 53
13 8 44 46 45 51
14 8 53 52 58 60
15 8 51 53 52 58
16 8 60 59 65 67
17 8 58 60 59 65
18 8 67 66 72 74
19 8 65 67 66 72
20 8 74 73 79 81
21 8 72 74 73 79
22 8 81 80 86 88
23 8 79 81 80 86
24 8 88 87 93 95
25 8 86 88 87 93
26 8 95 94 100 102
27 8 93 95 94 100
28 8 102 101 107 109
29 8 100 102 101 107
30 8 109 108 114 116
31 8 107 109 108 114
32 8 116 115 121 123
33 8 114 116 115 121
34 8 123 122 128 130
35 8 121 123 122 128
36 8 128 130 129 135
37 8 145 144 151 153
38 8 153 152 158 160
39 8 151 153 152 158
40 8 160 159 165 167
41 8 158 160 159 165
42 8 167 166 172 174
43 8 165 167 166 172
44 8 174 173 179 181
45 8 172 174 173 179
46 8 181 180 186 188
47 8 179 181 180 186
48 8 188 187 193 195
49 8 186 188 187 193
50 8 195 194 200 202
51 8 193 195 194 200
52 8 202 201 207 209
53 8 200 202 201 207
54 8 209 208 214 216
55 8 207 209 208 214
56 8 216 215 221 223
57 8 214 216 215 221
58 8 223 222 228 230
59 8 221 223 222 228
60 8 230 229 235 237
61 8 228 230 229 235
62 8 237 236 242 244
63 8 235 237 236 242
64 8 244 243 249 251
65 8 242 244 243 249
66 8 251 250 256 258
67 8 249 251 250 256
68 8 258 257 263 265
69 8 256 258 257 263
70 8 265 264 270 272
71 8 263 265 264 270
72 8 270 272 271 277
73 8 287 286 293 295
74 8 295 294 300 302
75 8 293 295 294 300
76 8 302 301 307 309
77 8 300 302 301 307
78 8 309 308 314 316
79 8 307 309 308 314
80 8 316 315 321 323
81 8 314 316 315 321
82 8 323 322 328 330
83 8 321 323 322 328
84 8 330 329 335 337
85 8 328 330 329 335
86 8 337 336 342 344
87 8 335 337 336 342
88 8 344 343 349 351
89 8 342 344 343 349
90 8 351 350 356 358
91 8 349 351 350 356
92 8 358 357 363 365
93 8 356 358 357 363
94 8 365 364 370 372
95 8 363 365 364 370
96 8 372 371 377 379
97 8 370 372 371 377
98 8 379 378 384 386
99 8 377 379 378 384
100 8 386 385 391 393
101 8 384 386 385 391
102 8 393 392 398 400
103 8 391 393 392 398
104 8 400 399 405 407
105 8 398 400 399 405
106 8 407 406 412 414
107 8 405 407 406 412
108 8 412 414 413 419
109 8 429 428 435 437
110 8 437 436 442 444
111 8 435 437 436 442
112 8 444 443 449 451
113 8 442 444 443 449
114 8 451 450 456 458
115 8 449 451 450 456
116 8 458 457 463 465
117 8 456 458 457 463
118 8 465 464 470 472
119 8 463 465 464 470
120 8 472 471 477 479
121 8 470 472 471 477
122 8 479 478 484 486
123 8 477 479 478 484
124 8 486 485 491 493
125 8 484 486 485 491
126 8 493 492 498 500
127 8 491 493 492 498
128 8 500 499 505 507
129 8 498 500 499 505
130 8 507 506 512 514
131 8 505 507 506 512
132 8 514 513 519 521
133 8 512 514 513 519
134 8 521 520 526 528
135 8 519 521 520 526
136 8 528 527 533 535
137 8 526 528 527 533
138 8 535 534 540 542
139 8 533 535 534 540
140 8 542 541 547 549
141 8 540 542 541 547
142 8 549 548 554 556
143 8 547 549 548 554
144 8 554 556 555 561
145 8 571 570 577 579
146 8 579 578 584 586
147 8 577 579 578 584
148 8 586 585 591 593
149 8 584 586 585 591
150 8 593 592 598 600
151 8 591 593 592 598
152 8 600 599 605 607
153 8 598 600 599 605
154 8 607 606 612 614
155 8 605 607 606 612
156 8 614 613 619 621
157 8 612 614 613 619
158 8 621 620 626 628
159 8 619 621 620 626
160 8 628 627 633 635
161 8 626 628 627 633
162 8 635 634 640 642
163 8 633 635 634 640
164 8 642 641 647 649
165 8 640 642 641 647
166 8 649 648 654 656
167 8 647 649 648 654
168 8 656 655 661 663
169 8 654 656 655 661
170 8 663 662 668 670
171 8 661 663 662 668
172 8 670 669 675 677
173 8 668 670 669 675
174 8 677 676 682 684
175 8 675 677 676 682
176 8 684 683 689 691
177 8 682 684 683 689
178 8 691 690 696 698
179 8 689 691 690 696
180 8 696 698 697 703
181 8 1 3 2 9
182 8 143 145 144 151
183 8 285 287 286 293
184 8 427 429 428 435
185 8 569 571 570 577
186 8 130 129 135 136
187 8 272 271 277 278
188 8 414 413 419 420
189 8 556 555 561 562
190 8 698 697 703 704
191 10 4 1 3 7
192 10 4 1 3 8
193 10 5 1 3 7
194 10 5 1 3 8
195 10 6 1 3 7
196 10 6 1 3 8
197 10 146 143 145 149
198 10 146 143 145 150
199 10 147 143 145 149
200 10 147 143 145 150
201 10 148 143 145 149
202 10 148 143 145 150
203 10 288 285 287 291
204 10 288 285 287 292
205 10 289 285 287 291
206 10 289 285 287 292
207 10 290 285 287 291
208 10 290 285 287 292
209 10 430 427 429 433
210 10 430 427 429 434
211 10 431 427 429 433
212 10 431 427 429 434
213 10 432 427 429 433
214 10 432 427 429 434
215 10 572 569 571 575
216 10 572 569 571 576
217 10 573 569 571 575
218 10 573 569 571 576
219 10 574 569 571 575
220 10 574 569 571 576
221 10 12 9 11 14
222 10 12 9 11 15
223 10 13 9 11 14
224 10 13 9 11 15
225 10 19 16 18 21
226 10 19 16 18 22
227 10 20 16 18 21
228 10 20 16 18 22
229 10 26 23 25 28
230 10 26 23 25 29
231 10 27 23 25 28
232 10 27 23 25 29
233 10 33 30 32 35
234 10 33 30 32 36
235 10 34 30 32 35
236 10 34 30 32 36
237 10 40 37 39 42
238 10 40 37 39 43
239 10 41 37 39 42
240 10 41 37 39 43
241 10 47 44 46 49
242 10 47 44 46 50
243 10 48 44 46 49
244 10 48 44 46 50
245 10 54 51 53 56
246 10 54 51 53 57
247 10 55 51 53 56
248 10 55 51 53 57
249 10 61 58 60 63
250 10 61 58 60 64
251 10 62 58 60 63
252 10 62 58 60 64
253 10 68 65 67 70
254 10 68 65 67 71
255 10 69 65 67 70
256 10 69 65 67 71
257 10 75 72 74 77
258 10 75 72 74 78
259 10 76 72 74 77
260 10 76 72 74 78
261 10 82 79 81 84
262 10 82 79 81 85
263 10 83 79 81 84
264 10 83 79 81 85
265 10 89 86 88 91
266 10 89 86 88 92
267 10 90 86 88 91
268 10 90 86 88 92
269 10 96 93 95 98
270 10 96 93 95 99
271 10 97 93 95 98
272 10 97 93 95 99
273 10 103 100 102 105
274 10 103 100 102 106
275 10 104 100 102 105
276 10 104 100 102 106
277 10 110 107 109 112
278 10 110 107 109 113
279 10 111 107 109 112
280 10 111 107 109 113
281 10 117 114 116 119
282 10 117 114 116 120
283 10 118 114 116 119
284 10 118 114 116 120
285 10 124 121 123 126
286 10 124 121 123 127
287 10 125 121 123 126
288 10 125 121 123 127
289 10 131 128 130 133
290 10 131 128 130 134
291 10 132 128 130 133
292 10 132 128 130 134
293 10 154 151 153 156
294 10 154 151 153 157
295 10 155 151 153 156
296 10 155 151 153 157
297 10 161 158 160 163
298 10 161 158 160 164
299 10 162 158 160 163
300 10 162 158 160 164
301 10 168 165 167 170
302 10 168 165 167 171
303 10 169 165 167 170
304 10 169 165 167 171
305 10 175 172 174 177
306 10 175 172 174 178
307 10 176 172 174 177
308 10 176 172 174 178
309 10 182 179 181 184
310 10 182 179 181 185
311 10 183 179 181 184
312 10 183 179 181 185
313 10 189 186 188 191
314 10 189 186 188 192
315 10 190 186 188 191
316 10 190 186 188 192
317 10 196 193 195 198
318 10 196 193 195 199
319 10 197 193 195 198
320 10 197 193 195 199
321 10 203 200 202 205
322 10 203 200 202 206
323 10 204 200 202 205
324 10 204 200 202 206
325 10 210 207 209 212
326 10 210 207 209 213
327 10 211 207 209 212
328 10 211 207 209 213
329 10 217 214 216 219
330 10 217 214 216 220
331 10 218 214 216 219
332 10 218 214 216 220
333 10 224 221 223 226
334 10 224 221 223 227
335 10 225 221 223 226
336 10 225 221 223 227
337 10 231 228 230 233
338 10 231 228 230 234
339 10 232 228 230 233
340 10 232 228 230 234
341 10 238 235 237 240
342 10 238 235 237 241
343 10 239 235 237 240
344 10 239 235 237 241
345 10 245 242 244 247
346 10 245 242 244 248
347 10 246 242 244 247
348 10 246 242 244 248
349 10 252 249 251 254
350 10 252 249 251 255
351 10 253 249 251 254
352 10 253 249 251 255
353 10 259 256 258 261
354 10 259 256 258 262
355 10 260 256 258 261
356 10 260 256 258 262
357 10 266 263 265 268
358 10 266 263 265 269
359 10 267 263 265 268
360 10 267 263 265 269
361 10 273 270 272 275
362 10 273 270 272 276
363 10 274 270 272 275
364 10 274 270 272 276
365 10 296 293 295 298
366 10 296 293 295 299
367 10 297 293 295 298
368 10 297 293 295 299
369 10 303 300 302 305
370 10 303 300 302 306
371 10 304 300 302 305
372 10 304 300 302 306
373 10 310 307 309 312
374 10 310 307 309 313
375 10 311 307 309 312
376 10 311 307 309 313
377 10 317 314 316 319
378 10 317 314 316 320
379 10 318 314 316 319
380 10 318 314 316 320
381 10 324 321 323 326
382 10 324 321 323 327
383 10 325 321 323 326
384 10 325 321 323 327
385 10 331 328 330 333
386 10 331 328 330 334
387 10 332 328 330 333
388 10 332 328 330 334
389 10 338 335 337 340
390 10 338 335 337 341
391 10 339 335 337 340
392 10 339 335 337 341
393 10 345 342 344 347
394 10 345 342 344 348
395 10 346 342 344 347
396 10 346 342 344 348
397 10 352 349 351 354
398 10 352 349 351 355
399 10 353 349 351 354
400 10 353 349 351 355
401 10 359 356 358 361
402 10 359 356 358 362
403 10 360 356 358 361
404 10 360 356 358 362
405 10 366 363 365 368
406 10 366 363 365 369
407 10 367 363 365 368
408 10 367 363 365 369
409 10 373 370 372 375
410 10 373 370 372 376
411 10 374 370 372 375
412 10 374 370 372 376
413 10 380 377 379 382
414 10 380 377 379 383
415 10 381 377 379 382
416 10 381 377 379 383
417 10 387 384 386 389
418 10 387 384 386 390
419 10 388 384 386 389
420 10 388 384 386 390
421 10 394 391 393 396
422 10 394 391 393 397
423 10 395 391 393 396
424 10 395 391 393 397
425 10 401 398 400 403
426 10 401 398 400 404
427 10 402 398 400 403
428 10 402 398 400 404
429 10 408 405 407 410
430 10 408 405 407 411
431 10 409 405 407 410
432 10 409 405 407 411
433 10 415 412 414 417
434 10 415 412 414 418
435 10 416 412 414 417
436 10 416 412 414 418
437 10 438 435 437 440
438 10 438 435 437 441
439 10 439 435 437 440
440 10 439 435 437 441
441 10 445 442 444 447
442 10 445 442 444 448
443 10 446 442 444 447
444 10 446 442 444 448
445 10 452 449 451 454
446 10 452 449 451 455
447 10 453 449 451 454
448 10 453 449 451 455
449 10 459 456 458 461
450 10 459 456 458 462
451 10 460 456 458 461
452 10 460 456 458 462
453 10 466 463 465 468
454 10 466 463 465 469
455 10 467 463 465 468
456 10 467 463 465 469
457 10 473 470 472 475
458 10 473 470 472 476
459 10 474 470 472 475
460 10 474 470 472 476
461 10 480 477 479 482
462 10 480 477 479 483
463 10 481 477 479 482
464 10 481 477 479 483
465 10 487 484 486 489
466 10 487 484 486 490
467 10 488 484 486 489
468 10 488 484 486 490
469 10 494 491 493 496
470 10 494 491 493 497
471 10 495 491 493 496
472 10 495 491 493 497
473 10 501 498 500 503
474 10 501 498 500 504
475 10 502 498 500 503
476 10 502 498 500 504
477 10 508 505 507 510
478 10 508 505 507 511
479 10 509 505 507 510
480 10 509 505 507 511
481 10 515 512 514 517
482 10 515 512 514 518
483 10 516 512 514 517
484 10 516 512 514 518
485 10 522 519 521 524
486 10 522 519 521 525
487 10 523 519 521 524
488 10 523 519 521 525
489 10 529 526 528 531
490 10 529 526 528 532
491 10 530 526 528 531
492 10 530 526 528 532
493 10 536 533 535 538
494 10 536 533 535 539
495 10 537 533 535 538
496 10 537 533 535 539
497 10 543 540 542 545
498 10 543 540 542 546
499 10 544 540 542 545
500 10 544 540 542 546
501 10 550 547 549 552
502 10 550 547 549 553
503 10 551 547 549 552
504 10 551 547 549 553
505 10 557 554 556 559
506 10 557 554 556 560
507 10 558 554 556 559
508 10 558 554 556 560
509 10 580 577 579 582
510 10 580 577 579 583
511 10 581 577 579 582
512 10 581 577 579 583
513 10 587 584 586 589
514 10 587 584 586 590
515 10 588 584 586 589
516 10 588 584 586 590
517 10 594 591 593 596
518 10 594 591 593 597
519 10 595 591 593 596
520 10 595 591 593 597
521 10 601 598 600 603
522 10 601 598 600 604
523 10 602 598 600 603
524 10 602 598 600 604
525 10 608 605 607 610
526 10 608 605 607 611
527 10 609 605 607 610
528 10 609 605 607 611
529 10 615 612 614 617
530 10 615 612 614 618
531 10 616 612 614 617
532 10 616 612 614 618
533 10 622 619 621 624
534 10 622 619 621 625
535 10 623 619 621 624
536 10 623 619 621 625
537 10 629 626 628 631
538 10 629 626 628 632
539 10 630 626 628 631
540 10 630 626 628 632
541 10 636 633 635 638
542 10 636 633 635 639
543 10 637 633 635 638
544 10 637 633 635 639
545 10 643 640 642 645
546 10 643 640 642 646
547 10 644 640 642 645
548 10 644 640 642 646
549 10 650 647 649 652
550 10 650 647 649 653
551 10 651 647 649 652
552 10 651 647 649 653
553 10 657 654 656 659
554 10 657 654 656 660
555 10 658 654 656 659
556 10 658 654 656 660
557 10 664 661 663 666
558 10 664 661 663 667
559 10 665 661 663 666
560 10 665 661 663 667
561 10 671 668 670 673
562 10 671 668 670 674
563 10 672 668 670 673
564 10 672 668 670 674
565 10 678 675 677 680
566 10 678 675 677 681
567 10 679 675 677 680
568 10 679 675 677 681
569 10 685 682 684 687
570 10 685 682 684 688
571 10 686 682 684 687
572 10 686 682 684 688
573 10 692 689 691 694
574 10 692 689 691 695
575 10 693 689 691 694
576 10 693 689 691 695
577 10 699 696 698 701
578 10 699 696 698 702
579 10 700 696 698 701
580 10 700 696 698 702
581 10 138 135 136 140
582 10 138 135 136 141
583 10 139 135 136 140
584 10 139 135 136 141
585 10 280 277 278 282
586 10 280 277 278 283
587 10 281 277 278 282
588 10 281 277 278 283
589 10 422 419 420 424
590 10 422 419 420 425
591 10 423 419 420 424
592 10 423 419 420 425
593 10 564 561 562 566
594 10 564 561 562 567
595 10 565 561 562 566
596 10 565 561 562 567
597 10 706 703 704 708
598 10 706 703 704 709
599 10 707 703 704 708
600 10 707 703 704 709
601 11 137 136 135 138
602 11 137 136 135 139
603 11 279 278 277 280
604 11 279 278 277 281
605 11 421 420 419 422
606 11 421 420 419 423
607 11 563 562 561 564
608 11 563 562 561 565
609 11 705 704 703 706
610 11 705 704 703 707
611 12 2 3 1 4
612 12 2 3 1 5
613 12 2 3 1 6
614 12 144 145 143 146
615 12 144 145 143 147
616 12 144 145 143 148
617 12 286 287 285 288
618 12 286 287 285 289
619 12 286 287 285 290
620 12 428 429 427 430
621 12 428 429 427 431
622 12 428 429 427 432
623 12 570 571 569 572
624 12 570 571 569 573
625 12 570 571 569 574
626 12 10 11 9 12
627 12 10 11 9 13
628 12 2 9 11 14
629 12 2 9 11 15
630 12 17 18 16 19
631 12 17 18 16 20
632 12 10 16 18 21
633 12 10 16 18 22
634 12 24 25 23 26
635 12 24 25 23 27
636 12 17 23 25 28
637 12 17 23 25 29
638 12 31 32 30 33
639 12 31 32 30 34
640 12 24 30 32 35
641 12 24 30 32 36
642 12 38 39 37 40
643 12 38 39 37 41
644 12 31 37 39 42
645 12 31 37 39 43
646 12 45 46 44 47
647 12 45 46 44 48
648 12 38 44 46 49
649 12 38 44 46 50
650 12 52 53 51 54
651 12 52 53 51 55
652 12 45 51 53 56
653 12 45 51 53 57
654 12 59 60 58 61
655 12 59 60 58 62
656 12 52 58 60 63
657 12 52 58 60 64
658 12 66 67 65 68
659 12 66 67 65 69
660 12 59 65 67 70
661 12 59 65 67 71
662 12 73 74 72 75
663 12 73 74 72 76
664 12 66 72 74 77
665 12 66 72 74 78
666 12 80 81 79 82
667 12 80 81 79 83
668 12 73 79 81 84
669 12 73 79 81 85
670 12 87 88 86 89
671 12 87 88 86 90
672 12 80 86 88 91
673 12 80 86 88 92
674 12 94 95 93 96
675 12 94 95 93 97
676 12 87 93 95 98
677 12 87 93 95 99
678 12 101 102 100 103
679 12 101 102 100 104
680 12 94 100 102 105
681 12 94 100 102 106
682 12 108 109 107 110
683 12 108 109 107 111
684 12 101 107 109 112
685 12 101 107 109 113
686 12 115 116 114 117
687 12 115 116 114 118
688 12 108 114 116 119
689 12 108 114 116 120
690 12 122 123 121 124
691 12 122 123 121 125
692 12 115 121 123 126
693 12 115 121 123 127
694 12 129 130 128 131
695 12 129 130 128 132
696 12 122 128 130 133
697 12 122 128 130 134
698 12 152 153 151 154
699 12 152 153 151 155
700 12 144 151 153 156
701 12 144 151 153 157
702 12 159 160 158 161
703 12 159 160 158 162
704 12 152 158 160 163
705 12 152 158 160 164
706 12 166 167 165 168
707 12 166 167 165 169
708 12 159 165 167 170
709 12 159 165 167 171
710 12 173 174 172 175
711 12 173 174 172 176
712 12 166 172 174 177
713 12 166 172 174 178
714 12 180 181 179 182
715 12 180 181 179 183
716 12 173 179 181 184
717 12 173 179 181 185
718 12 187 188 186 189
719 12 187 188 186 190
720 12 180 186 188 191
721 12 180 186 188 192
722 12 194 195 193 196
723 12 194 195 193 197
724 12 187 193 195 198
725 12 187 193 195 199
726 12 201 202 200 203
727 12 201 202 200 204
728 12 194 200 202 205
729 12 194 200 202 206
730 12 208 209 207 210
731 12 208 209 207 211
732 12 201 207 209 212
733 12 201 207 209 213
734 12 215 216 214 217
735 12 215 216 214 218
736 12 208 214 216 219
737 12 208 214 216 220
738 12 222 223 221 224
739 12 222 223 221 225
740 12 215 221 223 226
741 12 215 221 223 227
742 12 229 230 228 231
743 12 229 230 228 232
744 12 222 228 230 233
745 12 222 228 230 234
746 12 236 237 235 238
747 12 236 237 235 239
748 12 229 235 237 240
749 12 229 235 237 241
750 12 243 244 242 245
751 12 243 244 242 246
752 12 236 242 244 247
753 12 236 242 244 248
754 12 250 251 249 252
755 12 250 251 249 253
756 12 243 249 251 254
757 12 243 249 251 255
758 12 257 258 256 259
759 12 257 258 256 260
760 12 250 256 258 261
761 12 250 256 258 262
762 12 264 265 263 266
763 12 264 265 263 267
764 12 257 263 265 268
765 12 257 263 265 269
766 12 271 272 270 273
767 12 271 272 270 274
768 12 264 270 272 275
769 12 264 270 272 276
770 12 294 295 293 296
771 12 294 295 293 297
772 12 286 293 295 298
773 12 286 293 295 299
774 12 301 302 300 303
775 12 301 302 300 304
776 12 294 300 302 305
777 12 294 300 302 306
778 12 308 309 307 310
779 12 308 309 307 311
780 12 301 307 309 312
781 12 301 307 309 313
782 12 315 316 314 317
783 12 315 316 314 318
784 12 308 314 316 319
785 12 308 314 316 320
786 12 322 323 321 324
787 12 322 323 321 325
788 12 315 321 323 326
789 12 315 321 323 327
790 12 329 330 328 331
791 12 329 330 328 332
792 12 322 328 330 333
793 12 322 328 330 334
794 12 336 337 335 338
795 12 336 337 335 339
796 12 329 335 337 340
797 12 329 335 337 341
798 12 343 344 342 345
799 12 343 344 342 346
800 12 336 342 344 347
801 12 336 342 344 348
802 12 350 351 349 352
803 12 350 351 349 353
804 12 343 349 351 354
805 12 343 349 351 355
806 12 357 358 356 359
807 12 357 358 356 360
808 12 350 356 358 361
809 12 350 356 358 362
810 12 364 365 363 366
811 12 364 365 363 367
812 12 357 363 365 368
813 12 357 363 365 369
814 12 371 372 370 373
815 12 371 372 370 374
816 12 364 370 372 375
817 12 364 370 372 376
818 12 378 379 377 380
819 12 378 379 377 381
820 12 371 377 379 382
821 12 371 377 379 383
822 12 385 386 384 387
823 12 385 386 384 388
824 12 378 384 386 389
825 12 378 384 386 390
826 12 392 393 391 394
827 12 392 393 391 395
828 12 385 391 393 396
829 12 385 391 393 397
830 12 399 400 398 401
831 12 399 400 398 402
832 12 392 398 400 403
833 12 392 398 400 404
834 12 406 407 405 408
835 12 406 407 405 409
836 12 399 405 407 410
837 12 399 405 407 411
838 12 413 414 412 415
839 12 413 414 412 416
840 12 406 412 414 417
841 12 406 412 414 418
842 12 436 437 435 438
843 12 436 437 435 439
844 12 428 435 437 440
845 12 428 435 437 441
846 12 443 444 442 445
847 12 443 444 442 446
848 12 436 442 444 447
849 12 436 442 444 448
850 12 450 451 449 452
851 12 450 451 449 453
852 12 443 449 451 454
853 12 443 449 451 455
854 12 457 458 456 459
855 12 457 458 456 460
856 12 450 456 458 461
857 12 450 456 458 462
858 12 464 465 463 466
859 12 464 465 463 467
860 12 457 463 465 468
861 12 457 463 465 469
862 12 471 472 470 473
863 12 471 472 470 474
864 12 464 470 472 475
865 12 464 470 472 476
866 12 478 479 477 480
867 12 478 479 477 481
868 12 471 477 479 482
869 12 471 477 479 483
870 12 485 486 484 487
871 12 485 486 484 488
872 12 478 484 486 489
873 12 478 484 486 490
874 12 492 493 491 494
875 12 492 493 491 495
876 12 485 491 493 496
877 12 485 491 493 497
878 12 499 500 498 501
879 12 499 500 498 502
880 12 492 498 500 503
881 12 492 498 500 504
882 12 506 507 505 508
883 12 506 507 505 509
884 12 499 505 507 510
885 12 499 505 507 511
886 12 513 514 512 515
887 12 513 514 512 516
888 12 506 512 514 517
889 12 506 512 514 518
890 12 520 521 519 522
891 12 520 521 519 523
892 12 513 519 521 524
893 12 513 519 521 525
894 12 527 528 526 529
895 12 527 528 526 530
896 12 520 526 528 531
897 12 520 526 528 532
898 12 534 535 533 536
899 12 534 535 533 537
900 12 527 533 535 538
901 12 527 533 535 539
902 12 541 542 540 543
903 12 541 542 540 544
904 12 534 540 542 545
905 12 534 540 542 546
906 12 548 549 547 550
907 12 548 549 547 551
908 12 541 547 549 552
909 12 541 547 549 553
910 12 555 556 554 557
911 12 555 556 554 558
912 12 548 554 556 559
913 12 548 554 556 560
914 12 578 579 577 580
915 12 578 579 577 581
916 12 570 577 579 582
917 12 570 577 579 583
918 12 585 586 584 587
919 12 585 586 584 588
920 12 578 584 586 589
921 12 578 584 586 590
922 12 592 593 591 594
923 12 592 593 591 595
924 12 585 591 593 596
925 12 585 591 593 597
926 12 599 600 598 601
927 12 599 600 598 602
928 12 592 598 600 603
929 12 592 598 600 604
930 12 606 607 605 608
931 12 606 607 605 609
932 12 599 605 607 610
933 12 599 605 607 611
934 12 613 614 612 615
935 12 613 614 612 616
936 12 606 612 614 617
937 12 606 612 614 618
938 12 620 621 619 622
939 12 620 621 619 623
940 12 613 619 621 624
941 12 613 619 621 625
942 12 627 628 626 629
943 12 627 628 626 630
944 12 620 626 628 631
945 12 620 626 628 632
946 12 634 635 633 636
947 12 634 635 633 637
948 12 627 633 635 638
949 12 627 633 635 639
950 12 641 642 640 643
951 12 641 642 640 644
952 12 634 640 642 645
953 12 634 640 642 646
954 12 648 649 647 650
955 12 648 649 647 651
956 12 641 647 649 652
957 12 641 647 649 653
958 12 655 656 654 657
959 12 655 656 654 658
960 12 648 654 656 659
961 12 648 654 656 660
962 12 662 663 661 664
963 12 662 663 661 665
964 12 655 661 663 666
965 12 655 661 663 667
966 12 669 670 668 671
967 12 669 670 668 672
968 12 662 668 670 673
969 12 662 668 670 674
970 12 676 677 675 678
971 12 676 677 675 679
972 12 669 675 677 680
973 12 669 675 677 681
974 12 683 684 682 685
975 12 683 684 682 686
976 12 676 682 684 687
977 12 676 682 684 688
978 12 690 691 689 692
979 12 690 691 689 693
980 12 683 689 691 694
981 12 683 689 691 695
982 12 697 698 696 699
983 12 697 698 696 700
984 12 690 696 698 701
985 12 690 696 698 702
986 12 129 135 136 140
987 12 129 135 136 141
988 12 271 277 278 282
989 12 271 277 278 283
990 12 413 419 420 424
991 12 413 419 420 425
992 12 555 561 562 566
993 12 555 561 562 567
994 12 697 703 704 708
995 12 697 703 704 709
996 15 140 136 137 142
997 15 141 136 137 142
998 15 282 278 279 284
999 15 283 278 279 284
1000 15 424 420 421 426
1001 15 425 420 421 426
1002 15 566 562 563 568
1003 15 567 562 563 568
1004 15 708 704 705 710
1005 15 709 704 705 710
1006 16 135 136 137 142
1007 16 277 278 279 284
1008 16 419 420 421 426
1009 16 561 562 563 568
1010 16 703 704 705 710
1011 20 129 135 136 137
1012 20 271 277 278 279
1013 20 413 419 420 421
1014 20 555 561 562 563
1015 20 697 703 704 705
1016 21 2 9 11 10
1017 21 10 16 18 17
1018 21 17 23 25 24
1019 21 24 30 32 31
1020 21 31 37 39 38
1021 21 38 44 46 45
1022 21 45 51 53 52
1023 21 52 58 60 59
1024 21 59 65 67 66
1025 21 66 72 74 73
1026 21 73 79 81 80
1027 21 80 86 88 87
1028 21 87 93 95 94
1029 21 94 100 102 101
1030 21 101 107 109 108
1031 21 108 114 116 115
1032 21 115 121 123 122
1033 21 122 128 130 129
1034 21 144 151 153 152
1035 21 152 158 160 159
1036 21 159 165 167 166
1037 21 166 172 174 173
1038 21 173 179 181 180
1039 21 180 186 188 187
1040 21 187 193 195 194
1041 21 194 200 202 201
1042 21 201 207 209 208
1043 21 208 214 216 215
1044 21 215 221 223 222
1045 21 222 228 230 229
1046 21 229 235 237 236
1047 21 236 242 244 243
1048 21 243 249 251 250
1049 21 250 256 258 257
1050 21 257 263 265 264
1051 21 264 270 272 271
1052 21 286 293 295 294
1053 21 294 300 302 301
1054 21 301 307 309 308
1055 21 308 314 316 315
1056 21 315 321 323 322
1057 21 322 328 330 329
1058 21 329 335 337 336
1059 21 336 342 344 343
1060 21 343 349 351 350
1061 21 350 356 358 357
1062 21 357 363 365 364
1063 21 364 370 372 371
1064 21 371 377 379 378
1065 21 378 384 386 385
1066 21 385 391 393 392
1067 21 392 398 400 399
1068 21 399 405 407 406
1069 21 406 412 414 413
1070 21 428 435 437 436
1071 21 436 442 444 443
1072 21 443 449 451 450
1073 21 450 456 458 457
1074 21 457 463 465 464
1075 21 464 470 472 471
1076 21 471 477 479 478
1077 21 478 484 486 485
1078 21 485 491 493 492
1079 21 492 498 500 499
1080 21 499 505 507 506
1081 21 506 512 514 513
1082 21 513 519 521 520
1083 21 520 526 528 527
1084 21 527 533 535 534
1085 21 534 540 542 541
1086 21 541 547 549 548
1087 21 548 554 556 555
1088 21 570 577 579 578
1089 21 578 584 586 585
1090 21 585 591 593 592
1091 21 592 598 600 599
1092 21 599 605 607 606
1093 21 606 612 614 613
1094 21 613 619 621 620
1095 21 620 626 628 627
1096 21 627 633 635 634
1097 21 634 640 642 641
1098 21 641 647 649 648
1099 21 648 654 656 655
1100 21 655 661 663 662
1101 21 662 668 670 669
1102 21 669 675 677 676
1103 21 676 682 684 683
1104 21 683 689 691 690
1105 21 690 696 698 697

