    pair_coeff 1 1 0.07 3.55 
    pair_coeff 2 2 0.03 2.42 
    pair_coeff 3 3 0.07 3.55 
    bond_coeff 1 harmonic 469.0 1.4
    bond_coeff 2 harmonic 469.0 1.4
    bond_coeff 3 harmonic 469.0 1.4
    bond_coeff 4 harmonic 469.0 1.4
    bond_coeff 5 harmonic 367.0 1.08
    bond_coeff 6 harmonic 367.0 1.08
    angle_coeff 1 harmonic 63.0 120.0
    angle_coeff 2 harmonic 63.0 120.0
    angle_coeff 3 harmonic 63.0 120.0
    angle_coeff 4 harmonic 63.0 120.0
    angle_coeff 5 harmonic 63.0 120.0
    angle_coeff 6 harmonic 63.0 120.0
    angle_coeff 7 harmonic 63.0 120.0
    angle_coeff 8 harmonic 63.0 120.0
    angle_coeff 9 harmonic 35.0 120.0
    angle_coeff 10 harmonic 35.0 120.0
    angle_coeff 11 harmonic 35.0 120.0
    angle_coeff 12 harmonic 35.0 120.0
    dihedral_coeff 1 opls 0.0 7.25 0.0 0.0
    dihedral_coeff 2 opls 0.0 7.25 0.0 0.0
    dihedral_coeff 3 opls 0.0 7.25 0.0 0.0
    dihedral_coeff 4 opls 0.0 7.25 0.0 0.0
    dihedral_coeff 5 opls 0.0 7.25 0.0 0.0
    dihedral_coeff 6 opls 0.0 7.25 0.0 0.0
    dihedral_coeff 7 opls 0.0 7.25 0.0 0.0
    dihedral_coeff 8 opls 0.0 7.25 0.0 0.0
    dihedral_coeff 9 opls 0.0 7.25 0.0 0.0
    dihedral_coeff 10 opls 0.0 7.25 0.0 0.0
    dihedral_coeff 11 opls 0.0 7.25 0.0 0.0
    dihedral_coeff 12 opls 0.0 7.25 0.0 0.0
    dihedral_coeff 13 opls 0.0 7.25 0.0 0.0
    dihedral_coeff 14 opls 0.0 7.25 0.0 0.0
    dihedral_coeff 15 opls 0.0 7.25 0.0 0.0
    dihedral_coeff 16 opls 0.0 7.25 0.0 0.0
    dihedral_coeff 17 opls 0.0 7.25 0.0 0.0
    dihedral_coeff 18 opls 0.0 7.25 0.0 0.0
    dihedral_coeff 19 opls 0.0 7.25 0.0 0.0
    dihedral_coeff 20 opls 0.0 7.25 0.0 0.0
    dihedral_coeff 21 opls 0.0 7.25 0.0 0.0
    dihedral_coeff 22 opls 0.0 7.25 0.0 0.0
    dihedral_coeff 23 opls 0.0 7.25 0.0 0.0
    dihedral_coeff 24 opls 0.0 7.25 0.0 0.0
    dihedral_coeff 25 opls 0.0 7.25 0.0 0.0
    dihedral_coeff 26 opls 0.0 7.25 0.0 0.0
    dihedral_coeff 27 opls 0.0 7.25 0.0 0.0
    dihedral_coeff 28 opls 0.0 7.25 0.0 0.0
    dihedral_coeff 29 opls 0.0 7.25 0.0 0.0
    dihedral_coeff 30 opls 0.0 7.25 0.0 0.0
    dihedral_coeff 31 opls 0.0 7.25 0.0 0.0
    dihedral_coeff 32 opls 0.0 7.25 0.0 0.0
    dihedral_coeff 33 opls 0.0 7.25 0.0 0.0
    dihedral_coeff 34 opls 0.0 7.25 0.0 0.0
    dihedral_coeff 35 opls 0.0 7.25 0.0 0.0
    dihedral_coeff 36 opls 0.0 7.25 0.0 0.0
    dihedral_coeff 37 opls 0.0 7.25 0.0 0.0
    dihedral_coeff 38 opls 0.0 7.25 0.0 0.0
    dihedral_coeff 39 opls 0.0 7.25 0.0 0.0
    dihedral_coeff 40 opls 0.0 7.25 0.0 0.0
    dihedral_coeff 41 opls 0.0 7.25 0.0 0.0
    dihedral_coeff 42 opls 0.0 7.25 0.0 0.0
    dihedral_coeff 43 opls 0.0 7.25 0.0 0.0
    dihedral_coeff 44 opls 0.0 7.25 0.0 0.0
    improper_coeff 1 harmonic 2.5 180 
    improper_coeff 2 harmonic 2.5 180 

