LAMMPS Description

     3020  atoms
     3010  bonds
     5020  angles
     4000  dihedrals
     0  impropers

     3  atom types
     6  bond types
     6  angle types
     4  dihedral types

  -439.4404 439.4404 xlo xhi
  -439.4404 439.4404 ylo yhi
  -439.4404 439.4404 zlo zhi

Masses

    1 12.011 #CT "Alkane CH3-" 6 partial charge=-0.18
    2 12.011 #CT "Alkane -CH2-" 6 partial charge=-0.12
    3 1.008 #HC "Alkane H-C" 1 partial charge=0.06

Atoms # full

1 1 1 -0.1800 -0.752 0.0 0.0
2 1 2 -0.1200 0.752 0.0 0.0
3 1 3 0.0600 -1.103 0.47 -0.954
4 1 3 0.0600 -1.133 0.634 0.836
5 1 3 0.0600 -1.172 -1.023 0.096
6 1 3 0.0600 1.118 0.978 0.354
7 1 3 0.0600 1.201 -0.849 0.533
8 1 2 -0.1200 2.75 0.0 0.0
9 1 2 -0.1200 4.258 0.0 0.0
10 1 3 0.0600 2.411 -0.07000000000000008 -1.061
11 1 3 0.0600 2.3280000000000003 0.888 0.509
12 1 3 0.0600 4.633 0.933 -0.4580000000000001
13 1 3 0.0600 4.541 -0.06999999999999994 1.082
14 1 2 -0.1200 6.257999999999999 0.0 0.0
15 1 2 -0.1200 7.766 0.0 0.0
16 1 3 0.0600 5.919 -1.061 0.07
17 1 3 0.0600 5.835999999999999 0.509 -0.888
18 1 3 0.0600 8.141 -0.458 -0.933
19 1 3 0.0600 8.049 1.082 0.07
20 1 2 -0.1200 9.766 0.0 0.0
21 1 2 -0.1200 11.274 0.0 0.0
22 1 3 0.0600 9.427 0.06999999999999994 -1.061
23 1 3 0.0600 9.344 -0.888 0.509
24 1 3 0.0600 11.649 -0.933 -0.45799999999999996
25 1 3 0.0600 11.556999999999999 0.07000000000000008 1.082
26 1 2 -0.1200 13.274000000000001 0.0 0.0
27 1 2 -0.1200 14.782 0.0 0.0
28 1 3 0.0600 12.935 -1.061 -0.07
29 1 3 0.0600 12.852 0.509 0.888
30 1 3 0.0600 15.157 -0.458 0.933
31 1 3 0.0600 15.065000000000001 1.082 -0.07
32 1 2 -0.1200 16.782 0.0 0.0
33 1 2 -0.1200 18.290000000000003 0.0 0.0
34 1 3 0.0600 16.443 0.06999999999999994 -1.061
35 1 3 0.0600 16.360000000000003 -0.888 0.509
36 1 3 0.0600 18.665000000000003 -0.933 -0.45799999999999996
37 1 3 0.0600 18.573 0.07000000000000008 1.082
38 1 2 -0.1200 20.29 0.0 0.0
39 1 2 -0.1200 21.798000000000002 0.0 0.0
40 1 3 0.0600 19.951 -1.061 0.07
41 1 3 0.0600 19.868000000000002 0.509 -0.888
42 1 3 0.0600 22.173000000000002 -0.458 -0.933
43 1 3 0.0600 22.081 1.082 0.07
44 1 2 -0.1200 23.798 0.0 0.0
45 1 2 -0.1200 25.306 0.0 0.0
46 1 3 0.0600 23.459 -0.07000000000000008 -1.061
47 1 3 0.0600 23.376 0.888 0.509
48 1 3 0.0600 25.681 0.933 -0.4580000000000001
49 1 3 0.0600 25.589 -0.06999999999999994 1.082
50 1 2 -0.1200 27.305999999999997 0.0 0.0
51 1 2 -0.1200 28.814 0.0 0.0
52 1 3 0.0600 26.967 -1.061 -0.07
53 1 3 0.0600 26.884 0.509 0.888
54 1 3 0.0600 29.189 -0.458 0.933
55 1 3 0.0600 29.096999999999998 1.082 -0.07
56 1 2 -0.1200 30.814 0.0 0.0
57 1 2 -0.1200 32.322 0.0 0.0
58 1 3 0.0600 30.475 0.06999999999999994 -1.061
59 1 3 0.0600 30.392000000000003 -0.888 0.509
60 1 3 0.0600 32.697 -0.933 -0.45799999999999996
61 1 3 0.0600 32.605000000000004 0.07000000000000008 1.082
62 1 2 -0.1200 34.322 0.0 0.0
63 1 2 -0.1200 35.83 0.0 0.0
64 1 3 0.0600 33.983000000000004 -1.061 0.07
65 1 3 0.0600 33.9 0.509 -0.888
66 1 3 0.0600 36.205 -0.458 -0.933
67 1 3 0.0600 36.113 1.082 0.07
68 1 2 -0.1200 37.830000000000005 0.0 0.0
69 1 2 -0.1200 39.338 0.0 0.0
70 1 3 0.0600 37.491 0.06999999999999994 -1.061
71 1 3 0.0600 37.408 -0.888 0.509
72 1 3 0.0600 39.713 -0.933 -0.45799999999999996
73 1 3 0.0600 39.621 0.07000000000000008 1.082
74 1 2 -0.1200 41.338 0.0 0.0
75 1 2 -0.1200 42.846 0.0 0.0
76 1 3 0.0600 40.998999999999995 -1.061 -0.07
77 1 3 0.0600 40.916 0.509 0.888
78 1 3 0.0600 43.221 -0.458 0.933
79 1 3 0.0600 43.129 1.082 -0.07
80 1 2 -0.1200 44.846000000000004 0.0 0.0
81 1 2 -0.1200 46.354 0.0 0.0
82 1 3 0.0600 44.507000000000005 -0.07000000000000008 -1.061
83 1 3 0.0600 44.424 0.888 0.509
84 1 3 0.0600 46.729 0.933 -0.4580000000000001
85 1 3 0.0600 46.637 -0.06999999999999994 1.082
86 1 2 -0.1200 48.354 0.0 0.0
87 1 2 -0.1200 49.861999999999995 0.0 0.0
88 1 3 0.0600 48.015 -1.061 -0.07
89 1 3 0.0600 47.931999999999995 0.509 0.888
90 1 3 0.0600 50.236999999999995 -0.458 0.933
91 1 3 0.0600 50.144999999999996 1.082 -0.07
92 1 2 -0.1200 51.862 0.0 0.0
93 1 2 -0.1200 53.37 0.0 0.0
94 1 3 0.0600 51.522999999999996 -0.07000000000000008 -1.061
95 1 3 0.0600 51.44 0.888 0.509
96 1 3 0.0600 53.745 0.933 -0.4580000000000001
97 1 3 0.0600 53.653 -0.06999999999999994 1.082
98 1 2 -0.1200 55.370000000000005 0.0 0.0
99 1 2 -0.1200 56.878 0.0 0.0
100 1 3 0.0600 55.031000000000006 -1.061 -0.07
101 1 3 0.0600 54.948 0.509 0.888
102 1 3 0.0600 57.253 -0.458 0.933
103 1 3 0.0600 57.161 1.082 -0.07
104 1 2 -0.1200 58.878 0.0 0.0
105 1 2 -0.1200 60.385999999999996 0.0 0.0
106 1 3 0.0600 58.539 -0.07000000000000008 -1.061
107 1 3 0.0600 58.455999999999996 0.888 0.509
108 1 3 0.0600 60.760999999999996 0.933 -0.4580000000000001
109 1 3 0.0600 60.669 -0.06999999999999994 1.082
110 1 2 -0.1200 62.386 0.0 0.0
111 1 2 -0.1200 63.894 0.0 0.0
112 1 3 0.0600 62.047 -1.061 0.07
113 1 3 0.0600 61.964 0.509 -0.888
114 1 3 0.0600 64.269 -0.458 -0.933
115 1 3 0.0600 64.177 1.082 0.07
116 1 2 -0.1200 65.89399999999999 0.0 0.0
117 1 2 -0.1200 67.402 0.0 0.0
118 1 3 0.0600 65.55499999999999 -0.07000000000000008 -1.061
119 1 3 0.0600 65.472 0.888 0.509
120 1 3 0.0600 67.777 0.933 -0.4580000000000001
121 1 3 0.0600 67.685 -0.06999999999999994 1.082
122 1 2 -0.1200 69.402 0.0 0.0
123 1 2 -0.1200 70.91000000000001 0.0 0.0
124 1 3 0.0600 69.063 -1.061 -0.07
125 1 3 0.0600 68.98 0.509 0.888
126 1 3 0.0600 71.28500000000001 -0.458 0.933
127 1 3 0.0600 71.19300000000001 1.082 -0.07
128 1 2 -0.1200 72.91 0.0 0.0
129 1 2 -0.1200 74.418 0.0 0.0
130 1 3 0.0600 72.571 0.06999999999999994 -1.061
131 1 3 0.0600 72.488 -0.888 0.509
132 1 3 0.0600 74.793 -0.933 -0.45799999999999996
133 1 3 0.0600 74.70100000000001 0.07000000000000008 1.082
134 1 2 -0.1200 76.41799999999999 0.0 0.0
135 1 2 -0.1200 77.926 0.0 0.0
136 1 3 0.0600 76.079 -1.061 0.07
137 1 3 0.0600 75.996 0.509 -0.888
138 1 3 0.0600 78.301 -0.458 -0.933
139 1 3 0.0600 78.209 1.082 0.07
140 1 2 -0.1200 79.926 0.0 0.0
141 1 2 -0.1200 81.43400000000001 0.0 0.0
142 1 3 0.0600 79.587 0.06999999999999994 -1.061
143 1 3 0.0600 79.504 -0.888 0.509
144 1 3 0.0600 81.80900000000001 -0.933 -0.45799999999999996
145 1 3 0.0600 81.71700000000001 0.07000000000000008 1.082
146 1 2 -0.1200 83.434 0.0 0.0
147 1 2 -0.1200 84.94200000000001 0.0 0.0
148 1 3 0.0600 83.095 -1.061 0.07
149 1 3 0.0600 83.012 0.509 -0.888
150 1 3 0.0600 85.31700000000001 -0.458 -0.933
151 1 3 0.0600 85.22500000000001 1.082 0.07
152 1 2 -0.1200 86.942 0.0 0.0
153 1 2 -0.1200 88.45 0.0 0.0
154 1 3 0.0600 86.603 -0.07000000000000008 -1.061
155 1 3 0.0600 86.52 0.888 0.509
156 1 3 0.0600 88.825 0.933 -0.4580000000000001
157 1 3 0.0600 88.733 -0.06999999999999994 1.082
158 1 2 -0.1200 90.44999999999999 0.0 0.0
159 1 2 -0.1200 91.958 0.0 0.0
160 1 3 0.0600 90.11099999999999 -1.061 -0.07
161 1 3 0.0600 90.02799999999999 0.509 0.888
162 1 3 0.0600 92.333 -0.458 0.933
163 1 3 0.0600 92.241 1.082 -0.07
164 1 2 -0.1200 93.958 0.0 0.0
165 1 2 -0.1200 95.46600000000001 0.0 0.0
166 1 3 0.0600 93.619 0.06999999999999994 -1.061
167 1 3 0.0600 93.536 -0.888 0.509
168 1 3 0.0600 95.84100000000001 -0.933 -0.45799999999999996
169 1 3 0.0600 95.74900000000001 0.07000000000000008 1.082
170 1 2 -0.1200 97.466 0.0 0.0
171 1 2 -0.1200 98.974 0.0 0.0
172 1 3 0.0600 97.127 -1.061 0.07
173 1 3 0.0600 97.044 0.509 -0.888
174 1 3 0.0600 99.349 -0.458 -0.933
175 1 3 0.0600 99.257 1.082 0.07
176 1 2 -0.1200 100.97399999999999 0.0 0.0
177 1 2 -0.1200 102.482 0.0 0.0
178 1 3 0.0600 100.63499999999999 0.06999999999999994 -1.061
179 1 3 0.0600 100.55199999999999 -0.888 0.509
180 1 3 0.0600 102.857 -0.933 -0.45799999999999996
181 1 3 0.0600 102.765 0.07000000000000008 1.082
182 1 2 -0.1200 104.482 0.0 0.0
183 1 2 -0.1200 105.99000000000001 0.0 0.0
184 1 3 0.0600 104.143 -1.061 -0.07
185 1 3 0.0600 104.06 0.509 0.888
186 1 3 0.0600 106.36500000000001 -0.458 0.933
187 1 3 0.0600 106.27300000000001 1.082 -0.07
188 1 2 -0.1200 107.99 0.0 0.0
189 1 2 -0.1200 109.498 0.0 0.0
190 1 3 0.0600 107.651 0.06999999999999994 -1.061
191 1 3 0.0600 107.568 -0.888 0.509
192 1 3 0.0600 109.873 -0.933 -0.45799999999999996
193 1 3 0.0600 109.781 0.07000000000000008 1.082
194 1 2 -0.1200 111.49799999999999 0.0 0.0
195 1 2 -0.1200 113.006 0.0 0.0
196 1 3 0.0600 111.15899999999999 -1.061 -0.07
197 1 3 0.0600 111.076 0.509 0.888
198 1 3 0.0600 113.381 -0.458 0.933
199 1 3 0.0600 113.289 1.082 -0.07
200 1 2 -0.1200 115.006 0.0 0.0
201 1 2 -0.1200 116.51400000000001 0.0 0.0
202 1 3 0.0600 114.667 0.06999999999999994 -1.061
203 1 3 0.0600 114.584 -0.888 0.509
204 1 3 0.0600 116.88900000000001 -0.933 -0.45799999999999996
205 1 3 0.0600 116.79700000000001 0.07000000000000008 1.082
206 1 2 -0.1200 118.514 0.0 0.0
207 1 2 -0.1200 120.022 0.0 0.0
208 1 3 0.0600 118.175 -1.061 0.07
209 1 3 0.0600 118.092 0.509 -0.888
210 1 3 0.0600 120.397 -0.458 -0.933
211 1 3 0.0600 120.305 1.082 0.07
212 1 2 -0.1200 122.02199999999999 0.0 0.0
213 1 2 -0.1200 123.53 0.0 0.0
214 1 3 0.0600 121.68299999999999 -0.07000000000000008 -1.061
215 1 3 0.0600 121.6 0.888 0.509
216 1 3 0.0600 123.905 0.933 -0.4580000000000001
217 1 3 0.0600 123.813 -0.06999999999999994 1.082
218 1 2 -0.1200 125.53 0.0 0.0
219 1 2 -0.1200 127.03800000000001 0.0 0.0
220 1 3 0.0600 125.191 -1.061 -0.07
221 1 3 0.0600 125.108 0.509 0.888
222 1 3 0.0600 127.41300000000001 -0.458 0.933
223 1 3 0.0600 127.32100000000001 1.082 -0.07
224 1 2 -0.1200 129.038 0.0 0.0
225 1 2 -0.1200 130.546 0.0 0.0
226 1 3 0.0600 128.699 -0.07000000000000008 -1.061
227 1 3 0.0600 128.616 0.888 0.509
228 1 3 0.0600 130.921 0.933 -0.4580000000000001
229 1 3 0.0600 130.829 -0.06999999999999994 1.082
230 1 2 -0.1200 132.54600000000002 0.0 0.0
231 1 2 -0.1200 134.054 0.0 0.0
232 1 3 0.0600 132.20700000000002 -1.061 -0.07
233 1 3 0.0600 132.12400000000002 0.509 0.888
234 1 3 0.0600 134.429 -0.458 0.933
235 1 3 0.0600 134.33700000000002 1.082 -0.07
236 1 2 -0.1200 136.054 0.0 0.0
237 1 2 -0.1200 137.56199999999998 0.0 0.0
238 1 3 0.0600 135.715 -0.07000000000000008 -1.061
239 1 3 0.0600 135.632 0.888 0.509
240 1 3 0.0600 137.93699999999998 0.933 -0.4580000000000001
241 1 3 0.0600 137.845 -0.06999999999999994 1.082
242 1 2 -0.1200 139.562 0.0 0.0
243 1 2 -0.1200 141.07 0.0 0.0
244 1 3 0.0600 139.223 -1.061 -0.07
245 1 3 0.0600 139.14000000000001 0.509 0.888
246 1 3 0.0600 141.445 -0.458 0.933
247 1 3 0.0600 141.353 1.082 -0.07
248 1 2 -0.1200 143.07000000000002 0.0 0.0
249 1 2 -0.1200 144.578 0.0 0.0
250 1 3 0.0600 142.73100000000002 -0.07000000000000008 -1.061
251 1 3 0.0600 142.64800000000002 0.888 0.509
252 1 3 0.0600 144.953 0.933 -0.4580000000000001
253 1 3 0.0600 144.86100000000002 -0.06999999999999994 1.082
254 1 2 -0.1200 146.578 0.0 0.0
255 1 2 -0.1200 148.08599999999998 0.0 0.0
256 1 3 0.0600 146.239 -1.061 -0.07
257 1 3 0.0600 146.156 0.509 0.888
258 1 3 0.0600 148.46099999999998 -0.458 0.933
259 1 3 0.0600 148.369 1.082 -0.07
260 1 2 -0.1200 150.086 0.0 0.0
261 1 2 -0.1200 151.594 0.0 0.0
262 1 3 0.0600 149.747 -0.07000000000000008 -1.061
263 1 3 0.0600 149.66400000000002 0.888 0.509
264 1 3 0.0600 151.969 0.933 -0.4580000000000001
265 1 3 0.0600 151.877 -0.06999999999999994 1.082
266 1 2 -0.1200 153.59400000000002 0.0 0.0
267 1 2 -0.1200 155.102 0.0 0.0
268 1 3 0.0600 153.25500000000002 -1.061 0.07
269 1 3 0.0600 153.17200000000003 0.509 -0.888
270 1 3 0.0600 155.477 -0.458 -0.933
271 1 3 0.0600 155.38500000000002 1.082 0.07
272 1 2 -0.1200 157.102 0.0 0.0
273 1 2 -0.1200 158.60999999999999 0.0 0.0
274 1 3 0.0600 156.763 -0.07000000000000008 -1.061
275 1 3 0.0600 156.68 0.888 0.509
276 1 3 0.0600 158.98499999999999 0.933 -0.4580000000000001
277 1 3 0.0600 158.893 -0.06999999999999994 1.082
278 1 2 -0.1200 160.61 0.0 0.0
279 1 2 -0.1200 162.118 0.0 0.0
280 1 3 0.0600 160.27100000000002 -1.061 0.07
281 1 3 0.0600 160.18800000000002 0.509 -0.888
282 1 3 0.0600 162.493 -0.458 -0.933
283 1 3 0.0600 162.401 1.082 0.07
284 1 2 -0.1200 164.11800000000002 0.0 0.0
285 1 2 -0.1200 165.626 0.0 0.0
286 1 3 0.0600 163.77900000000002 -0.07000000000000008 -1.061
287 1 3 0.0600 163.69600000000003 0.888 0.509
288 1 3 0.0600 166.001 0.933 -0.4580000000000001
289 1 3 0.0600 165.90900000000002 -0.06999999999999994 1.082
290 1 2 -0.1200 167.626 0.0 0.0
291 1 2 -0.1200 169.134 0.0 0.0
292 1 3 0.0600 167.287 -1.061 -0.07
293 1 3 0.0600 167.204 0.509 0.888
294 1 3 0.0600 169.509 -0.458 0.933
295 1 3 0.0600 169.417 1.082 -0.07
296 1 2 -0.1200 170.805 0.0 0.0
297 1 1 -0.1800 172.139 -0.731 0.0010000000000000447
298 1 3 0.0600 170.144 -0.46299999999999997 0.776
299 1 3 0.0600 170.321 -0.24100000000000005 -0.969
300 1 3 0.0600 172.196 -1.401 0.8770000000000001
301 1 3 0.0600 172.266 -1.38 -0.8919999999999999
302 1 3 0.0600 172.971 0.0 0.0
303 2 1 -0.1800 182.3482 0.0 0.0
304 2 2 -0.1200 183.8522 0.0 0.0
305 2 3 0.0600 181.9972 0.47 0.954
306 2 3 0.0600 181.9672 0.634 -0.836
307 2 3 0.0600 181.9282 -1.023 -0.096
308 2 3 0.0600 184.2182 0.978 -0.354
309 2 3 0.0600 184.3012 -0.849 -0.533
310 2 2 -0.1200 185.8502 0.0 0.0
311 2 2 -0.1200 187.35819999999998 0.0 0.0
312 2 3 0.0600 185.5112 0.06999999999999994 -1.061
313 2 3 0.0600 185.4282 -0.888 0.509
314 2 3 0.0600 187.73319999999998 -0.933 -0.45799999999999996
315 2 3 0.0600 187.6412 0.07000000000000008 1.082
316 2 2 -0.1200 189.3582 0.0 0.0
317 2 2 -0.1200 190.8662 0.0 0.0
318 2 3 0.0600 189.0192 -1.061 0.07
319 2 3 0.0600 188.9362 0.509 -0.888
320 2 3 0.0600 191.2412 -0.458 -0.933
321 2 3 0.0600 191.1492 1.082 0.07
322 2 2 -0.1200 192.86620000000002 0.0 0.0
323 2 2 -0.1200 194.3742 0.0 0.0
324 2 3 0.0600 192.52720000000002 -0.07000000000000008 -1.061
325 2 3 0.0600 192.44420000000002 0.888 0.509
326 2 3 0.0600 194.7492 0.933 -0.4580000000000001
327 2 3 0.0600 194.65720000000002 -0.06999999999999994 1.082
328 2 2 -0.1200 196.3742 0.0 0.0
329 2 2 -0.1200 197.88219999999998 0.0 0.0
330 2 3 0.0600 196.0352 -1.061 -0.07
331 2 3 0.0600 195.9522 0.509 0.888
332 2 3 0.0600 198.25719999999998 -0.458 0.933
333 2 3 0.0600 198.1652 1.082 -0.07
334 2 2 -0.1200 199.8822 0.0 0.0
335 2 2 -0.1200 201.3902 0.0 0.0
336 2 3 0.0600 199.5432 -0.07000000000000008 -1.061
337 2 3 0.0600 199.46020000000001 0.888 0.509
338 2 3 0.0600 201.7652 0.933 -0.4580000000000001
339 2 3 0.0600 201.6732 -0.06999999999999994 1.082
340 2 2 -0.1200 203.39020000000002 0.0 0.0
341 2 2 -0.1200 204.8982 0.0 0.0
342 2 3 0.0600 203.05120000000002 -1.061 -0.07
343 2 3 0.0600 202.96820000000002 0.509 0.888
344 2 3 0.0600 205.2732 -0.458 0.933
345 2 3 0.0600 205.18120000000002 1.082 -0.07
346 2 2 -0.1200 206.8982 0.0 0.0
347 2 2 -0.1200 208.40619999999998 0.0 0.0
348 2 3 0.0600 206.5592 0.06999999999999994 -1.061
349 2 3 0.0600 206.4762 -0.888 0.509
350 2 3 0.0600 208.78119999999998 -0.933 -0.45799999999999996
351 2 3 0.0600 208.6892 0.07000000000000008 1.082
352 2 2 -0.1200 210.4062 0.0 0.0
353 2 2 -0.1200 211.9142 0.0 0.0
354 2 3 0.0600 210.0672 -1.061 -0.07
355 2 3 0.0600 209.98420000000002 0.509 0.888
356 2 3 0.0600 212.2892 -0.458 0.933
357 2 3 0.0600 212.1972 1.082 -0.07
358 2 2 -0.1200 213.91420000000002 0.0 0.0
359 2 2 -0.1200 215.4222 0.0 0.0
360 2 3 0.0600 213.57520000000002 0.06999999999999994 -1.061
361 2 3 0.0600 213.49220000000003 -0.888 0.509
362 2 3 0.0600 215.7972 -0.933 -0.45799999999999996
363 2 3 0.0600 215.70520000000002 0.07000000000000008 1.082
364 2 2 -0.1200 217.4222 0.0 0.0
365 2 2 -0.1200 218.93019999999999 0.0 0.0
366 2 3 0.0600 217.0832 -1.061 -0.07
367 2 3 0.0600 217.0002 0.509 0.888
368 2 3 0.0600 219.30519999999999 -0.458 0.933
369 2 3 0.0600 219.2132 1.082 -0.07
370 2 2 -0.1200 220.9302 0.0 0.0
371 2 2 -0.1200 222.4382 0.0 0.0
372 2 3 0.0600 220.59120000000001 -0.07000000000000008 -1.061
373 2 3 0.0600 220.50820000000002 0.888 0.509
374 2 3 0.0600 222.8132 0.933 -0.4580000000000001
375 2 3 0.0600 222.7212 -0.06999999999999994 1.082
376 2 2 -0.1200 224.43820000000002 0.0 0.0
377 2 2 -0.1200 225.9462 0.0 0.0
378 2 3 0.0600 224.09920000000002 -1.061 0.07
379 2 3 0.0600 224.01620000000003 0.509 -0.888
380 2 3 0.0600 226.3212 -0.458 -0.933
381 2 3 0.0600 226.22920000000002 1.082 0.07
382 2 2 -0.1200 227.9462 0.0 0.0
383 2 2 -0.1200 229.4542 0.0 0.0
384 2 3 0.0600 227.6072 0.06999999999999994 -1.061
385 2 3 0.0600 227.5242 -0.888 0.509
386 2 3 0.0600 229.8292 -0.933 -0.45799999999999996
387 2 3 0.0600 229.7372 0.07000000000000008 1.082
388 2 2 -0.1200 231.45420000000001 0.0 0.0
389 2 2 -0.1200 232.9622 0.0 0.0
390 2 3 0.0600 231.11520000000002 -1.061 0.07
391 2 3 0.0600 231.03220000000002 0.509 -0.888
392 2 3 0.0600 233.3372 -0.458 -0.933
393 2 3 0.0600 233.2452 1.082 0.07
394 2 2 -0.1200 234.96220000000002 0.0 0.0
395 2 2 -0.1200 236.4702 0.0 0.0
396 2 3 0.0600 234.62320000000003 0.06999999999999994 -1.061
397 2 3 0.0600 234.54020000000003 -0.888 0.509
398 2 3 0.0600 236.8452 -0.933 -0.45799999999999996
399 2 3 0.0600 236.75320000000002 0.07000000000000008 1.082
400 2 2 -0.1200 238.4702 0.0 0.0
401 2 2 -0.1200 239.9782 0.0 0.0
402 2 3 0.0600 238.1312 -1.061 -0.07
403 2 3 0.0600 238.0482 0.509 0.888
404 2 3 0.0600 240.3532 -0.458 0.933
405 2 3 0.0600 240.2612 1.082 -0.07
406 2 2 -0.1200 241.97820000000002 0.0 0.0
407 2 2 -0.1200 243.4862 0.0 0.0
408 2 3 0.0600 241.63920000000002 -0.07000000000000008 -1.061
409 2 3 0.0600 241.55620000000002 0.888 0.509
410 2 3 0.0600 243.8612 0.933 -0.4580000000000001
411 2 3 0.0600 243.7692 -0.06999999999999994 1.082
412 2 2 -0.1200 245.48620000000003 0.0 0.0
413 2 2 -0.1200 246.9942 0.0 0.0
414 2 3 0.0600 245.14720000000003 -1.061 -0.07
415 2 3 0.0600 245.06420000000003 0.509 0.888
416 2 3 0.0600 247.3692 -0.458 0.933
417 2 3 0.0600 247.27720000000002 1.082 -0.07
418 2 2 -0.1200 248.9942 0.0 0.0
419 2 2 -0.1200 250.5022 0.0 0.0
420 2 3 0.0600 248.6552 0.06999999999999994 -1.061
421 2 3 0.0600 248.5722 -0.888 0.509
422 2 3 0.0600 250.8772 -0.933 -0.45799999999999996
423 2 3 0.0600 250.7852 0.07000000000000008 1.082
424 2 2 -0.1200 252.50220000000002 0.0 0.0
425 2 2 -0.1200 254.0102 0.0 0.0
426 2 3 0.0600 252.16320000000002 -1.061 -0.07
427 2 3 0.0600 252.08020000000002 0.509 0.888
428 2 3 0.0600 254.3852 -0.458 0.933
429 2 3 0.0600 254.2932 1.082 -0.07
430 2 2 -0.1200 256.0102 0.0 0.0
431 2 2 -0.1200 257.51820000000004 0.0 0.0
432 2 3 0.0600 255.67120000000003 0.06999999999999994 -1.061
433 2 3 0.0600 255.58820000000003 -0.888 0.509
434 2 3 0.0600 257.89320000000004 -0.933 -0.45799999999999996
435 2 3 0.0600 257.8012 0.07000000000000008 1.082
436 2 2 -0.1200 259.5182 0.0 0.0
437 2 2 -0.1200 261.0262 0.0 0.0
438 2 3 0.0600 259.1792 -1.061 -0.07
439 2 3 0.0600 259.0962 0.509 0.888
440 2 3 0.0600 261.4012 -0.458 0.933
441 2 3 0.0600 261.3092 1.082 -0.07
442 2 2 -0.1200 263.0262 0.0 0.0
443 2 2 -0.1200 264.53420000000006 0.0 0.0
444 2 3 0.0600 262.6872 -0.07000000000000008 -1.061
445 2 3 0.0600 262.60420000000005 0.888 0.509
446 2 3 0.0600 264.90920000000006 0.933 -0.4580000000000001
447 2 3 0.0600 264.8172 -0.06999999999999994 1.082
448 2 2 -0.1200 266.5342 0.0 0.0
449 2 2 -0.1200 268.04220000000004 0.0 0.0
450 2 3 0.0600 266.1952 -1.061 -0.07
451 2 3 0.0600 266.11220000000003 0.509 0.888
452 2 3 0.0600 268.41720000000004 -0.458 0.933
453 2 3 0.0600 268.3252 1.082 -0.07
454 2 2 -0.1200 270.0422 0.0 0.0
455 2 2 -0.1200 271.5502 0.0 0.0
456 2 3 0.0600 269.7032 0.06999999999999994 -1.061
457 2 3 0.0600 269.6202 -0.888 0.509
458 2 3 0.0600 271.9252 -0.933 -0.45799999999999996
459 2 3 0.0600 271.8332 0.07000000000000008 1.082
460 2 2 -0.1200 273.55019999999996 0.0 0.0
461 2 2 -0.1200 275.0582 0.0 0.0
462 2 3 0.0600 273.21119999999996 -1.061 0.07
463 2 3 0.0600 273.1282 0.509 -0.888
464 2 3 0.0600 275.4332 -0.458 -0.933
465 2 3 0.0600 275.34119999999996 1.082 0.07
466 2 2 -0.1200 277.0582 0.0 0.0
467 2 2 -0.1200 278.56620000000004 0.0 0.0
468 2 3 0.0600 276.7192 -0.07000000000000008 -1.061
469 2 3 0.0600 276.63620000000003 0.888 0.509
470 2 3 0.0600 278.94120000000004 0.933 -0.4580000000000001
471 2 3 0.0600 278.8492 -0.06999999999999994 1.082
472 2 2 -0.1200 280.5662 0.0 0.0
473 2 2 -0.1200 282.0742 0.0 0.0
474 2 3 0.0600 280.2272 -1.061 -0.07
475 2 3 0.0600 280.1442 0.509 0.888
476 2 3 0.0600 282.4492 -0.458 0.933
477 2 3 0.0600 282.3572 1.082 -0.07
478 2 2 -0.1200 284.07419999999996 0.0 0.0
479 2 2 -0.1200 285.5822 0.0 0.0
480 2 3 0.0600 283.73519999999996 -0.07000000000000008 -1.061
481 2 3 0.0600 283.6522 0.888 0.509
482 2 3 0.0600 285.9572 0.933 -0.4580000000000001
483 2 3 0.0600 285.86519999999996 -0.06999999999999994 1.082
484 2 2 -0.1200 287.5822 0.0 0.0
485 2 2 -0.1200 289.09020000000004 0.0 0.0
486 2 3 0.0600 287.2432 -1.061 -0.07
487 2 3 0.0600 287.16020000000003 0.509 0.888
488 2 3 0.0600 289.46520000000004 -0.458 0.933
489 2 3 0.0600 289.3732 1.082 -0.07
490 2 2 -0.1200 291.0902 0.0 0.0
491 2 2 -0.1200 292.5982 0.0 0.0
492 2 3 0.0600 290.7512 0.06999999999999994 -1.061
493 2 3 0.0600 290.6682 -0.888 0.509
494 2 3 0.0600 292.9732 -0.933 -0.45799999999999996
495 2 3 0.0600 292.8812 0.07000000000000008 1.082
496 2 2 -0.1200 294.59819999999996 0.0 0.0
497 2 2 -0.1200 296.1062 0.0 0.0
498 2 3 0.0600 294.25919999999996 -1.061 -0.07
499 2 3 0.0600 294.1762 0.509 0.888
500 2 3 0.0600 296.4812 -0.458 0.933
501 2 3 0.0600 296.38919999999996 1.082 -0.07
502 2 2 -0.1200 298.1062 0.0 0.0
503 2 2 -0.1200 299.61420000000004 0.0 0.0
504 2 3 0.0600 297.7672 0.06999999999999994 -1.061
505 2 3 0.0600 297.68420000000003 -0.888 0.509
506 2 3 0.0600 299.98920000000004 -0.933 -0.45799999999999996
507 2 3 0.0600 299.8972 0.07000000000000008 1.082
508 2 2 -0.1200 301.6142 0.0 0.0
509 2 2 -0.1200 303.1222 0.0 0.0
510 2 3 0.0600 301.2752 -1.061 -0.07
511 2 3 0.0600 301.1922 0.509 0.888
512 2 3 0.0600 303.4972 -0.458 0.933
513 2 3 0.0600 303.4052 1.082 -0.07
514 2 2 -0.1200 305.12219999999996 0.0 0.0
515 2 2 -0.1200 306.6302 0.0 0.0
516 2 3 0.0600 304.78319999999997 -0.07000000000000008 -1.061
517 2 3 0.0600 304.7002 0.888 0.509
518 2 3 0.0600 307.0052 0.933 -0.4580000000000001
519 2 3 0.0600 306.91319999999996 -0.06999999999999994 1.082
520 2 2 -0.1200 308.6302 0.0 0.0
521 2 2 -0.1200 310.13820000000004 0.0 0.0
522 2 3 0.0600 308.2912 -1.061 -0.07
523 2 3 0.0600 308.20820000000003 0.509 0.888
524 2 3 0.0600 310.51320000000004 -0.458 0.933
525 2 3 0.0600 310.4212 1.082 -0.07
526 2 2 -0.1200 312.1382 0.0 0.0
527 2 2 -0.1200 313.6462 0.0 0.0
528 2 3 0.0600 311.7992 -0.07000000000000008 -1.061
529 2 3 0.0600 311.7162 0.888 0.509
530 2 3 0.0600 314.0212 0.933 -0.4580000000000001
531 2 3 0.0600 313.9292 -0.06999999999999994 1.082
532 2 2 -0.1200 315.6462 0.0 0.0
533 2 2 -0.1200 317.15420000000006 0.0 0.0
534 2 3 0.0600 315.3072 -1.061 -0.07
535 2 3 0.0600 315.22420000000005 0.509 0.888
536 2 3 0.0600 317.52920000000006 -0.458 0.933
537 2 3 0.0600 317.4372 1.082 -0.07
538 2 2 -0.1200 319.15419999999995 0.0 0.0
539 2 2 -0.1200 320.6622 0.0 0.0
540 2 3 0.0600 318.81519999999995 -0.07000000000000008 -1.061
541 2 3 0.0600 318.7322 0.888 0.509
542 2 3 0.0600 321.0372 0.933 -0.4580000000000001
543 2 3 0.0600 320.94519999999994 -0.06999999999999994 1.082
544 2 2 -0.1200 322.6622 0.0 0.0
545 2 2 -0.1200 324.1702 0.0 0.0
546 2 3 0.0600 322.3232 -1.061 0.07
547 2 3 0.0600 322.2402 0.509 -0.888
548 2 3 0.0600 324.5452 -0.458 -0.933
549 2 3 0.0600 324.4532 1.082 0.07
550 2 2 -0.1200 326.1702 0.0 0.0
551 2 2 -0.1200 327.67820000000006 0.0 0.0
552 2 3 0.0600 325.8312 0.06999999999999994 -1.061
553 2 3 0.0600 325.74820000000005 -0.888 0.509
554 2 3 0.0600 328.05320000000006 -0.933 -0.45799999999999996
555 2 3 0.0600 327.9612 0.07000000000000008 1.082
556 2 2 -0.1200 329.67819999999995 0.0 0.0
557 2 2 -0.1200 331.1862 0.0 0.0
558 2 3 0.0600 329.33919999999995 -1.061 0.07
559 2 3 0.0600 329.2562 0.509 -0.888
560 2 3 0.0600 331.5612 -0.458 -0.933
561 2 3 0.0600 331.46919999999994 1.082 0.07
562 2 2 -0.1200 333.1862 0.0 0.0
563 2 2 -0.1200 334.6942 0.0 0.0
564 2 3 0.0600 332.8472 -0.07000000000000008 -1.061
565 2 3 0.0600 332.7642 0.888 0.509
566 2 3 0.0600 335.0692 0.933 -0.4580000000000001
567 2 3 0.0600 334.9772 -0.06999999999999994 1.082
568 2 2 -0.1200 336.6942 0.0 0.0
569 2 2 -0.1200 338.20220000000006 0.0 0.0
570 2 3 0.0600 336.3552 -1.061 -0.07
571 2 3 0.0600 336.27220000000005 0.509 0.888
572 2 3 0.0600 338.57720000000006 -0.458 0.933
573 2 3 0.0600 338.4852 1.082 -0.07
574 2 2 -0.1200 340.20219999999995 0.0 0.0
575 2 2 -0.1200 341.7102 0.0 0.0
576 2 3 0.0600 339.86319999999995 0.06999999999999994 -1.061
577 2 3 0.0600 339.7802 -0.888 0.509
578 2 3 0.0600 342.0852 -0.933 -0.45799999999999996
579 2 3 0.0600 341.99319999999994 0.07000000000000008 1.082
580 2 2 -0.1200 343.7102 0.0 0.0
581 2 2 -0.1200 345.2182 0.0 0.0
582 2 3 0.0600 343.3712 -1.061 -0.07
583 2 3 0.0600 343.2882 0.509 0.888
584 2 3 0.0600 345.5932 -0.458 0.933
585 2 3 0.0600 345.5012 1.082 -0.07
586 2 2 -0.1200 347.2182 0.0 0.0
587 2 2 -0.1200 348.72620000000006 0.0 0.0
588 2 3 0.0600 346.8792 -0.07000000000000008 -1.061
589 2 3 0.0600 346.79620000000006 0.888 0.509
590 2 3 0.0600 349.10120000000006 0.933 -0.4580000000000001
591 2 3 0.0600 349.0092 -0.06999999999999994 1.082
592 2 2 -0.1200 350.72619999999995 0.0 0.0
593 2 2 -0.1200 352.2342 0.0 0.0
594 2 3 0.0600 350.38719999999995 -1.061 0.07
595 2 3 0.0600 350.3042 0.509 -0.888
596 2 3 0.0600 352.6092 -0.458 -0.933
597 2 3 0.0600 352.51719999999995 1.082 0.07
598 2 2 -0.1200 353.9052 0.0 0.0
599 2 1 -0.1800 355.2392 -0.731 0.0010000000000000447
600 2 3 0.0600 353.2442 -0.46299999999999997 0.776
601 2 3 0.0600 353.4212 -0.24100000000000005 -0.969
602 2 3 0.0600 355.2962 -1.401 0.8770000000000001
603 2 3 0.0600 355.3662 -1.38 -0.8919999999999999
604 2 3 0.0600 356.07120000000003 0.0 0.0
605 3 1 -0.1800 365.4483 0.0 0.0
606 3 2 -0.1200 366.95230000000004 0.0 0.0
607 3 3 0.0600 365.0973 0.47 -0.954
608 3 3 0.0600 365.06730000000005 0.634 0.836
609 3 3 0.0600 365.0283 -1.023 0.096
610 3 3 0.0600 367.3183 0.978 0.354
611 3 3 0.0600 367.40130000000005 -0.849 0.533
612 3 2 -0.1200 368.9503 0.0 0.0
613 3 2 -0.1200 370.45830000000007 0.0 0.0
614 3 3 0.0600 368.6113 -0.07000000000000008 -1.061
615 3 3 0.0600 368.52830000000006 0.888 0.509
616 3 3 0.0600 370.83330000000007 0.933 -0.4580000000000001
617 3 3 0.0600 370.7413 -0.06999999999999994 1.082
618 3 2 -0.1200 372.4583 0.0 0.0
619 3 2 -0.1200 373.96630000000005 0.0 0.0
620 3 3 0.0600 372.1193 -1.061 0.07
621 3 3 0.0600 372.03630000000004 0.509 -0.888
622 3 3 0.0600 374.34130000000005 -0.458 -0.933
623 3 3 0.0600 374.2493 1.082 0.07
624 3 2 -0.1200 375.9663 0.0 0.0
625 3 2 -0.1200 377.4743 0.0 0.0
626 3 3 0.0600 375.6273 -0.07000000000000008 -1.061
627 3 3 0.0600 375.5443 0.888 0.509
628 3 3 0.0600 377.8493 0.933 -0.4580000000000001
629 3 3 0.0600 377.7573 -0.06999999999999994 1.082
630 3 2 -0.1200 379.4743 0.0 0.0
631 3 2 -0.1200 380.98230000000007 0.0 0.0
632 3 3 0.0600 379.13530000000003 -1.061 -0.07
633 3 3 0.0600 379.05230000000006 0.509 0.888
634 3 3 0.0600 381.35730000000007 -0.458 0.933
635 3 3 0.0600 381.2653 1.082 -0.07
636 3 2 -0.1200 382.9823 0.0 0.0
637 3 2 -0.1200 384.49030000000005 0.0 0.0
638 3 3 0.0600 382.6433 0.06999999999999994 -1.061
639 3 3 0.0600 382.56030000000004 -0.888 0.509
640 3 3 0.0600 384.86530000000005 -0.933 -0.45799999999999996
641 3 3 0.0600 384.7733 0.07000000000000008 1.082
642 3 2 -0.1200 386.4903 0.0 0.0
643 3 2 -0.1200 387.99830000000003 0.0 0.0
644 3 3 0.0600 386.1513 -1.061 -0.07
645 3 3 0.0600 386.0683 0.509 0.888
646 3 3 0.0600 388.37330000000003 -0.458 0.933
647 3 3 0.0600 388.2813 1.082 -0.07
648 3 2 -0.1200 389.99830000000003 0.0 0.0
649 3 2 -0.1200 391.50630000000007 0.0 0.0
650 3 3 0.0600 389.65930000000003 0.06999999999999994 -1.061
651 3 3 0.0600 389.57630000000006 -0.888 0.509
652 3 3 0.0600 391.88130000000007 -0.933 -0.45799999999999996
653 3 3 0.0600 391.7893 0.07000000000000008 1.082
654 3 2 -0.1200 393.5063 0.0 0.0
655 3 2 -0.1200 395.01430000000005 0.0 0.0
656 3 3 0.0600 393.1673 -1.061 -0.07
657 3 3 0.0600 393.08430000000004 0.509 0.888
658 3 3 0.0600 395.38930000000005 -0.458 0.933
659 3 3 0.0600 395.2973 1.082 -0.07
660 3 2 -0.1200 397.0143 0.0 0.0
661 3 2 -0.1200 398.52230000000003 0.0 0.0
662 3 3 0.0600 396.6753 -0.07000000000000008 -1.061
663 3 3 0.0600 396.5923 0.888 0.509
664 3 3 0.0600 398.89730000000003 0.933 -0.4580000000000001
665 3 3 0.0600 398.8053 -0.06999999999999994 1.082
666 3 2 -0.1200 400.52230000000003 0.0 0.0
667 3 2 -0.1200 402.03030000000007 0.0 0.0
668 3 3 0.0600 400.18330000000003 -1.061 0.07
669 3 3 0.0600 400.10030000000006 0.509 -0.888
670 3 3 0.0600 402.40530000000007 -0.458 -0.933
671 3 3 0.0600 402.3133 1.082 0.07
672 3 2 -0.1200 404.0303 0.0 0.0
673 3 2 -0.1200 405.53830000000005 0.0 0.0
674 3 3 0.0600 403.6913 -0.07000000000000008 -1.061
675 3 3 0.0600 403.60830000000004 0.888 0.509
676 3 3 0.0600 405.91330000000005 0.933 -0.4580000000000001
677 3 3 0.0600 405.8213 -0.06999999999999994 1.082
678 3 2 -0.1200 407.5383 0.0 0.0
679 3 2 -0.1200 409.04630000000003 0.0 0.0
680 3 3 0.0600 407.1993 -1.061 0.07
681 3 3 0.0600 407.1163 0.509 -0.888
682 3 3 0.0600 409.42130000000003 -0.458 -0.933
683 3 3 0.0600 409.3293 1.082 0.07
684 3 2 -0.1200 411.04630000000003 0.0 0.0
685 3 2 -0.1200 412.55430000000007 0.0 0.0
686 3 3 0.0600 410.70730000000003 -0.07000000000000008 -1.061
687 3 3 0.0600 410.62430000000006 0.888 0.509
688 3 3 0.0600 412.92930000000007 0.933 -0.4580000000000001
689 3 3 0.0600 412.8373 -0.06999999999999994 1.082
690 3 2 -0.1200 414.5543 0.0 0.0
691 3 2 -0.1200 416.06230000000005 0.0 0.0
692 3 3 0.0600 414.2153 -1.061 -0.07
693 3 3 0.0600 414.13230000000004 0.509 0.888
694 3 3 0.0600 416.43730000000005 -0.458 0.933
695 3 3 0.0600 416.3453 1.082 -0.07
696 3 2 -0.1200 418.0623 0.0 0.0
697 3 2 -0.1200 419.57030000000003 0.0 0.0
698 3 3 0.0600 417.7233 -0.07000000000000008 -1.061
699 3 3 0.0600 417.6403 0.888 0.509
700 3 3 0.0600 419.94530000000003 0.933 -0.4580000000000001
701 3 3 0.0600 419.8533 -0.06999999999999994 1.082
702 3 2 -0.1200 421.57030000000003 0.0 0.0
703 3 2 -0.1200 423.07830000000007 0.0 0.0
704 3 3 0.0600 421.23130000000003 -1.061 0.07
705 3 3 0.0600 421.14830000000006 0.509 -0.888
706 3 3 0.0600 423.45330000000007 -0.458 -0.933
707 3 3 0.0600 423.3613 1.082 0.07
708 3 2 -0.1200 425.0783 0.0 0.0
709 3 2 -0.1200 426.58630000000005 0.0 0.0
710 3 3 0.0600 424.7393 -0.07000000000000008 -1.061
711 3 3 0.0600 424.65630000000004 0.888 0.509
712 3 3 0.0600 426.96130000000005 0.933 -0.4580000000000001
713 3 3 0.0600 426.8693 -0.06999999999999994 1.082
714 3 2 -0.1200 428.5863 0.0 0.0
715 3 2 -0.1200 430.09430000000003 0.0 0.0
716 3 3 0.0600 428.2473 -1.061 -0.07
717 3 3 0.0600 428.1643 0.509 0.888
718 3 3 0.0600 430.46930000000003 -0.458 0.933
719 3 3 0.0600 430.3773 1.082 -0.07
720 3 2 -0.1200 432.0943 0.0 0.0
721 3 2 -0.1200 433.6023 0.0 0.0
722 3 3 0.0600 431.7553 0.06999999999999994 -1.061
723 3 3 0.0600 431.6723 -0.888 0.509
724 3 3 0.0600 433.9773 -0.933 -0.45799999999999996
725 3 3 0.0600 433.8853 0.07000000000000008 1.082
726 3 2 -0.1200 435.6023 0.0 0.0
727 3 2 -0.1200 437.11030000000005 0.0 0.0
728 3 3 0.0600 435.2633 -1.061 0.07
729 3 3 0.0600 435.18030000000005 0.509 -0.888
730 3 3 0.0600 437.48530000000005 -0.458 -0.933
731 3 3 0.0600 437.3933 1.082 0.07
732 3 2 -0.1200 439.1103 0.0 0.0
733 3 2 -0.1200 440.61830000000003 0.0 0.0
734 3 3 0.0600 438.7713 0.06999999999999994 -1.061
735 3 3 0.0600 438.6883 -0.888 0.509
736 3 3 0.0600 440.99330000000003 -0.933 -0.45799999999999996
737 3 3 0.0600 440.9013 0.07000000000000008 1.082
738 3 2 -0.1200 442.6183 0.0 0.0
739 3 2 -0.1200 444.1263 0.0 0.0
740 3 3 0.0600 442.2793 -1.061 -0.07
741 3 3 0.0600 442.1963 0.509 0.888
742 3 3 0.0600 444.5013 -0.458 0.933
743 3 3 0.0600 444.4093 1.082 -0.07
744 3 2 -0.1200 446.1263 0.0 0.0
745 3 2 -0.1200 447.63430000000005 0.0 0.0
746 3 3 0.0600 445.7873 0.06999999999999994 -1.061
747 3 3 0.0600 445.70430000000005 -0.888 0.509
748 3 3 0.0600 448.00930000000005 -0.933 -0.45799999999999996
749 3 3 0.0600 447.9173 0.07000000000000008 1.082
750 3 2 -0.1200 449.6343 0.0 0.0
751 3 2 -0.1200 451.14230000000003 0.0 0.0
752 3 3 0.0600 449.2953 -1.061 -0.07
753 3 3 0.0600 449.2123 0.509 0.888
754 3 3 0.0600 451.51730000000003 -0.458 0.933
755 3 3 0.0600 451.4253 1.082 -0.07
756 3 2 -0.1200 453.1423 0.0 0.0
757 3 2 -0.1200 454.6503 0.0 0.0
758 3 3 0.0600 452.8033 0.06999999999999994 -1.061
759 3 3 0.0600 452.7203 -0.888 0.509
760 3 3 0.0600 455.0253 -0.933 -0.45799999999999996
761 3 3 0.0600 454.9333 0.07000000000000008 1.082
762 3 2 -0.1200 456.6503 0.0 0.0
763 3 2 -0.1200 458.15830000000005 0.0 0.0
764 3 3 0.0600 456.3113 -1.061 -0.07
765 3 3 0.0600 456.22830000000005 0.509 0.888
766 3 3 0.0600 458.53330000000005 -0.458 0.933
767 3 3 0.0600 458.4413 1.082 -0.07
768 3 2 -0.1200 460.1583 0.0 0.0
769 3 2 -0.1200 461.66630000000004 0.0 0.0
770 3 3 0.0600 459.8193 -0.07000000000000008 -1.061
771 3 3 0.0600 459.7363 0.888 0.509
772 3 3 0.0600 462.04130000000004 0.933 -0.4580000000000001
773 3 3 0.0600 461.9493 -0.06999999999999994 1.082
774 3 2 -0.1200 463.6663 0.0 0.0
775 3 2 -0.1200 465.1743 0.0 0.0
776 3 3 0.0600 463.3273 -1.061 -0.07
777 3 3 0.0600 463.2443 0.509 0.888
778 3 3 0.0600 465.5493 -0.458 0.933
779 3 3 0.0600 465.4573 1.082 -0.07
780 3 2 -0.1200 467.1743 0.0 0.0
781 3 2 -0.1200 468.68230000000005 0.0 0.0
782 3 3 0.0600 466.8353 0.06999999999999994 -1.061
783 3 3 0.0600 466.75230000000005 -0.888 0.509
784 3 3 0.0600 469.05730000000005 -0.933 -0.45799999999999996
785 3 3 0.0600 468.9653 0.07000000000000008 1.082
786 3 2 -0.1200 470.6823 0.0 0.0
787 3 2 -0.1200 472.19030000000004 0.0 0.0
788 3 3 0.0600 470.3433 -1.061 -0.07
789 3 3 0.0600 470.26030000000003 0.509 0.888
790 3 3 0.0600 472.56530000000004 -0.458 0.933
791 3 3 0.0600 472.4733 1.082 -0.07
792 3 2 -0.1200 474.1903 0.0 0.0
793 3 2 -0.1200 475.6983 0.0 0.0
794 3 3 0.0600 473.8513 -0.07000000000000008 -1.061
795 3 3 0.0600 473.7683 0.888 0.509
796 3 3 0.0600 476.0733 0.933 -0.4580000000000001
797 3 3 0.0600 475.9813 -0.06999999999999994 1.082
798 3 2 -0.1200 477.6983 0.0 0.0
799 3 2 -0.1200 479.20630000000006 0.0 0.0
800 3 3 0.0600 477.3593 -1.061 -0.07
801 3 3 0.0600 477.27630000000005 0.509 0.888
802 3 3 0.0600 479.58130000000006 -0.458 0.933
803 3 3 0.0600 479.4893 1.082 -0.07
804 3 2 -0.1200 481.2063 0.0 0.0
805 3 2 -0.1200 482.71430000000004 0.0 0.0
806 3 3 0.0600 480.8673 0.06999999999999994 -1.061
807 3 3 0.0600 480.78430000000003 -0.888 0.509
808 3 3 0.0600 483.08930000000004 -0.933 -0.45799999999999996
809 3 3 0.0600 482.9973 0.07000000000000008 1.082
810 3 2 -0.1200 484.7143 0.0 0.0
811 3 2 -0.1200 486.2223 0.0 0.0
812 3 3 0.0600 484.3753 -1.061 -0.07
813 3 3 0.0600 484.2923 0.509 0.888
814 3 3 0.0600 486.5973 -0.458 0.933
815 3 3 0.0600 486.5053 1.082 -0.07
816 3 2 -0.1200 488.2223 0.0 0.0
817 3 2 -0.1200 489.73030000000006 0.0 0.0
818 3 3 0.0600 487.8833 0.06999999999999994 -1.061
819 3 3 0.0600 487.80030000000005 -0.888 0.509
820 3 3 0.0600 490.10530000000006 -0.933 -0.45799999999999996
821 3 3 0.0600 490.0133 0.07000000000000008 1.082
822 3 2 -0.1200 491.7303 0.0 0.0
823 3 2 -0.1200 493.23830000000004 0.0 0.0
824 3 3 0.0600 491.3913 -1.061 -0.07
825 3 3 0.0600 491.30830000000003 0.509 0.888
826 3 3 0.0600 493.61330000000004 -0.458 0.933
827 3 3 0.0600 493.5213 1.082 -0.07
828 3 2 -0.1200 495.2383 0.0 0.0
829 3 2 -0.1200 496.7463 0.0 0.0
830 3 3 0.0600 494.8993 -0.07000000000000008 -1.061
831 3 3 0.0600 494.8163 0.888 0.509
832 3 3 0.0600 497.1213 0.933 -0.4580000000000001
833 3 3 0.0600 497.0293 -0.06999999999999994 1.082
834 3 2 -0.1200 498.7463 0.0 0.0
835 3 2 -0.1200 500.25430000000006 0.0 0.0
836 3 3 0.0600 498.4073 -1.061 -0.07
837 3 3 0.0600 498.32430000000005 0.509 0.888
838 3 3 0.0600 500.62930000000006 -0.458 0.933
839 3 3 0.0600 500.5373 1.082 -0.07
840 3 2 -0.1200 502.2543 0.0 0.0
841 3 2 -0.1200 503.76230000000004 0.0 0.0
842 3 3 0.0600 501.9153 0.06999999999999994 -1.061
843 3 3 0.0600 501.83230000000003 -0.888 0.509
844 3 3 0.0600 504.13730000000004 -0.933 -0.45799999999999996
845 3 3 0.0600 504.0453 0.07000000000000008 1.082
846 3 2 -0.1200 505.7623 0.0 0.0
847 3 2 -0.1200 507.2703 0.0 0.0
848 3 3 0.0600 505.4233 -1.061 0.07
849 3 3 0.0600 505.3403 0.509 -0.888
850 3 3 0.0600 507.6453 -0.458 -0.933
851 3 3 0.0600 507.5533 1.082 0.07
852 3 2 -0.1200 509.2703 0.0 0.0
853 3 2 -0.1200 510.77830000000006 0.0 0.0
854 3 3 0.0600 508.9313 -0.07000000000000008 -1.061
855 3 3 0.0600 508.84830000000005 0.888 0.509
856 3 3 0.0600 511.15330000000006 0.933 -0.4580000000000001
857 3 3 0.0600 511.0613 -0.06999999999999994 1.082
858 3 2 -0.1200 512.7783000000001 0.0 0.0
859 3 2 -0.1200 514.2863000000001 0.0 0.0
860 3 3 0.0600 512.4393000000001 -1.061 -0.07
861 3 3 0.0600 512.3563 0.509 0.888
862 3 3 0.0600 514.6613000000001 -0.458 0.933
863 3 3 0.0600 514.5693000000001 1.082 -0.07
864 3 2 -0.1200 516.2863 0.0 0.0
865 3 2 -0.1200 517.7943 0.0 0.0
866 3 3 0.0600 515.9473 -0.07000000000000008 -1.061
867 3 3 0.0600 515.8643 0.888 0.509
868 3 3 0.0600 518.1693 0.933 -0.4580000000000001
869 3 3 0.0600 518.0773 -0.06999999999999994 1.082
870 3 2 -0.1200 519.7943 0.0 0.0
871 3 2 -0.1200 521.3023000000001 0.0 0.0
872 3 3 0.0600 519.4553000000001 -1.061 0.07
873 3 3 0.0600 519.3723 0.509 -0.888
874 3 3 0.0600 521.6773000000001 -0.458 -0.933
875 3 3 0.0600 521.5853000000001 1.082 0.07
876 3 2 -0.1200 523.3023 0.0 0.0
877 3 2 -0.1200 524.8103 0.0 0.0
878 3 3 0.0600 522.9633 -0.07000000000000008 -1.061
879 3 3 0.0600 522.8802999999999 0.888 0.509
880 3 3 0.0600 525.1853 0.933 -0.4580000000000001
881 3 3 0.0600 525.0933 -0.06999999999999994 1.082
882 3 2 -0.1200 526.8103 0.0 0.0
883 3 2 -0.1200 528.3183 0.0 0.0
884 3 3 0.0600 526.4713 -1.061 0.07
885 3 3 0.0600 526.3883 0.509 -0.888
886 3 3 0.0600 528.6933 -0.458 -0.933
887 3 3 0.0600 528.6013 1.082 0.07
888 3 2 -0.1200 530.3183 0.0 0.0
889 3 2 -0.1200 531.8263000000001 0.0 0.0
890 3 3 0.0600 529.9793000000001 -0.07000000000000008 -1.061
891 3 3 0.0600 529.8963 0.888 0.509
892 3 3 0.0600 532.2013000000001 0.933 -0.4580000000000001
893 3 3 0.0600 532.1093000000001 -0.06999999999999994 1.082
894 3 2 -0.1200 533.8263000000001 0.0 0.0
895 3 2 -0.1200 535.3343000000001 0.0 0.0
896 3 3 0.0600 533.4873000000001 -1.061 0.07
897 3 3 0.0600 533.4043 0.509 -0.888
898 3 3 0.0600 535.7093000000001 -0.458 -0.933
899 3 3 0.0600 535.6173000000001 1.082 0.07
900 3 2 -0.1200 537.0053 0.0 0.0
901 3 1 -0.1800 538.3393 0.731 0.0009999999999999554
902 3 3 0.0600 536.3443 0.4630000000000001 0.776
903 3 3 0.0600 536.5213 0.24099999999999994 -0.969
904 3 3 0.0600 538.3963 1.401 0.8769999999999999
905 3 3 0.0600 538.4663 1.38 -0.8920000000000001
906 3 3 0.0600 539.1713 0.0 0.0
907 4 1 -0.1800 548.5485000000001 0.0 0.0
908 4 2 -0.1200 550.0525 0.0 0.0
909 4 3 0.0600 548.1975000000001 0.47 -0.954
910 4 3 0.0600 548.1675 0.634 0.836
911 4 3 0.0600 548.1285 -1.023 0.096
912 4 3 0.0600 550.4185000000001 0.978 0.354
913 4 3 0.0600 550.5015000000001 -0.849 0.533
914 4 2 -0.1200 552.0505 0.0 0.0
915 4 2 -0.1200 553.5585000000001 0.0 0.0
916 4 3 0.0600 551.7115000000001 0.06999999999999994 -1.061
917 4 3 0.0600 551.6285 -0.888 0.509
918 4 3 0.0600 553.9335000000001 -0.933 -0.45799999999999996
919 4 3 0.0600 553.8415000000001 0.07000000000000008 1.082
920 4 2 -0.1200 555.5585 0.0 0.0
921 4 2 -0.1200 557.0665 0.0 0.0
922 4 3 0.0600 555.2195 -1.061 -0.07
923 4 3 0.0600 555.1365 0.509 0.888
924 4 3 0.0600 557.4415 -0.458 0.933
925 4 3 0.0600 557.3495 1.082 -0.07
926 4 2 -0.1200 559.0665 0.0 0.0
927 4 2 -0.1200 560.5745000000001 0.0 0.0
928 4 3 0.0600 558.7275000000001 -0.07000000000000008 -1.061
929 4 3 0.0600 558.6445 0.888 0.509
930 4 3 0.0600 560.9495000000001 0.933 -0.4580000000000001
931 4 3 0.0600 560.8575000000001 -0.06999999999999994 1.082
932 4 2 -0.1200 562.5745000000001 0.0 0.0
933 4 2 -0.1200 564.0825000000001 0.0 0.0
934 4 3 0.0600 562.2355000000001 -1.061 0.07
935 4 3 0.0600 562.1525 0.509 -0.888
936 4 3 0.0600 564.4575000000001 -0.458 -0.933
937 4 3 0.0600 564.3655000000001 1.082 0.07
938 4 2 -0.1200 566.0825000000001 0.0 0.0
939 4 2 -0.1200 567.5905000000001 0.0 0.0
940 4 3 0.0600 565.7435000000002 0.06999999999999994 -1.061
941 4 3 0.0600 565.6605000000001 -0.888 0.509
942 4 3 0.0600 567.9655000000001 -0.933 -0.45799999999999996
943 4 3 0.0600 567.8735000000001 0.07000000000000008 1.082
944 4 2 -0.1200 569.5905 0.0 0.0
945 4 2 -0.1200 571.0985000000001 0.0 0.0
946 4 3 0.0600 569.2515000000001 -1.061 0.07
947 4 3 0.0600 569.1685 0.509 -0.888
948 4 3 0.0600 571.4735000000001 -0.458 -0.933
949 4 3 0.0600 571.3815000000001 1.082 0.07
950 4 2 -0.1200 573.0985000000001 0.0 0.0
951 4 2 -0.1200 574.6065000000001 0.0 0.0
952 4 3 0.0600 572.7595000000001 0.06999999999999994 -1.061
953 4 3 0.0600 572.6765 -0.888 0.509
954 4 3 0.0600 574.9815000000001 -0.933 -0.45799999999999996
955 4 3 0.0600 574.8895000000001 0.07000000000000008 1.082
956 4 2 -0.1200 576.6065 0.0 0.0
957 4 2 -0.1200 578.1145 0.0 0.0
958 4 3 0.0600 576.2675 -1.061 -0.07
959 4 3 0.0600 576.1845 0.509 0.888
960 4 3 0.0600 578.4895 -0.458 0.933
961 4 3 0.0600 578.3975 1.082 -0.07
962 4 2 -0.1200 580.1145 0.0 0.0
963 4 2 -0.1200 581.6225000000001 0.0 0.0
964 4 3 0.0600 579.7755000000001 -0.07000000000000008 -1.061
965 4 3 0.0600 579.6925 0.888 0.509
966 4 3 0.0600 581.9975000000001 0.933 -0.4580000000000001
967 4 3 0.0600 581.9055000000001 -0.06999999999999994 1.082
968 4 2 -0.1200 583.6225000000001 0.0 0.0
969 4 2 -0.1200 585.1305000000001 0.0 0.0
970 4 3 0.0600 583.2835000000001 -1.061 -0.07
971 4 3 0.0600 583.2005 0.509 0.888
972 4 3 0.0600 585.5055000000001 -0.458 0.933
973 4 3 0.0600 585.4135000000001 1.082 -0.07
974 4 2 -0.1200 587.1305000000001 0.0 0.0
975 4 2 -0.1200 588.6385000000001 0.0 0.0
976 4 3 0.0600 586.7915000000002 0.06999999999999994 -1.061
977 4 3 0.0600 586.7085000000001 -0.888 0.509
978 4 3 0.0600 589.0135000000001 -0.933 -0.45799999999999996
979 4 3 0.0600 588.9215000000002 0.07000000000000008 1.082
980 4 2 -0.1200 590.6385 0.0 0.0
981 4 2 -0.1200 592.1465000000001 0.0 0.0
982 4 3 0.0600 590.2995000000001 -1.061 -0.07
983 4 3 0.0600 590.2165 0.509 0.888
984 4 3 0.0600 592.5215000000001 -0.458 0.933
985 4 3 0.0600 592.4295000000001 1.082 -0.07
986 4 2 -0.1200 594.1465000000001 0.0 0.0
987 4 2 -0.1200 595.6545000000001 0.0 0.0
988 4 3 0.0600 593.8075000000001 -0.07000000000000008 -1.061
989 4 3 0.0600 593.7245 0.888 0.509
990 4 3 0.0600 596.0295000000001 0.933 -0.4580000000000001
991 4 3 0.0600 595.9375000000001 -0.06999999999999994 1.082
992 4 2 -0.1200 597.6545 0.0 0.0
993 4 2 -0.1200 599.1625 0.0 0.0
994 4 3 0.0600 597.3155 -1.061 -0.07
995 4 3 0.0600 597.2325 0.509 0.888
996 4 3 0.0600 599.5375 -0.458 0.933
997 4 3 0.0600 599.4455 1.082 -0.07
998 4 2 -0.1200 601.1625 0.0 0.0
999 4 2 -0.1200 602.6705000000001 0.0 0.0
1000 4 3 0.0600 600.8235000000001 0.06999999999999994 -1.061
1001 4 3 0.0600 600.7405 -0.888 0.509
1002 4 3 0.0600 603.0455000000001 -0.933 -0.45799999999999996
1003 4 3 0.0600 602.9535000000001 0.07000000000000008 1.082
1004 4 2 -0.1200 604.6705000000001 0.0 0.0
1005 4 2 -0.1200 606.1785000000001 0.0 0.0
1006 4 3 0.0600 604.3315000000001 -1.061 -0.07
1007 4 3 0.0600 604.2485 0.509 0.888
1008 4 3 0.0600 606.5535000000001 -0.458 0.933
1009 4 3 0.0600 606.4615000000001 1.082 -0.07
1010 4 2 -0.1200 608.1785 0.0 0.0
1011 4 2 -0.1200 609.6865 0.0 0.0
1012 4 3 0.0600 607.8395 -0.07000000000000008 -1.061
1013 4 3 0.0600 607.7565 0.888 0.509
1014 4 3 0.0600 610.0615 0.933 -0.4580000000000001
1015 4 3 0.0600 609.9695 -0.06999999999999994 1.082
1016 4 2 -0.1200 611.6865 0.0 0.0
1017 4 2 -0.1200 613.1945000000001 0.0 0.0
1018 4 3 0.0600 611.3475000000001 -1.061 0.07
1019 4 3 0.0600 611.2645 0.509 -0.888
1020 4 3 0.0600 613.5695000000001 -0.458 -0.933
1021 4 3 0.0600 613.4775000000001 1.082 0.07
1022 4 2 -0.1200 615.1945000000001 0.0 0.0
1023 4 2 -0.1200 616.7025000000001 0.0 0.0
1024 4 3 0.0600 614.8555000000001 0.06999999999999994 -1.061
1025 4 3 0.0600 614.7725 -0.888 0.509
1026 4 3 0.0600 617.0775000000001 -0.933 -0.45799999999999996
1027 4 3 0.0600 616.9855000000001 0.07000000000000008 1.082
1028 4 2 -0.1200 618.7025 0.0 0.0
1029 4 2 -0.1200 620.2105 0.0 0.0
1030 4 3 0.0600 618.3635 -1.061 0.07
1031 4 3 0.0600 618.2805 0.509 -0.888
1032 4 3 0.0600 620.5855 -0.458 -0.933
1033 4 3 0.0600 620.4935 1.082 0.07
1034 4 2 -0.1200 622.2105 0.0 0.0
1035 4 2 -0.1200 623.7185000000001 0.0 0.0
1036 4 3 0.0600 621.8715000000001 -0.07000000000000008 -1.061
1037 4 3 0.0600 621.7885 0.888 0.509
1038 4 3 0.0600 624.0935000000001 0.933 -0.4580000000000001
1039 4 3 0.0600 624.0015000000001 -0.06999999999999994 1.082
1040 4 2 -0.1200 625.7185000000001 0.0 0.0
1041 4 2 -0.1200 627.2265000000001 0.0 0.0
1042 4 3 0.0600 625.3795000000001 -1.061 -0.07
1043 4 3 0.0600 625.2965 0.509 0.888
1044 4 3 0.0600 627.6015000000001 -0.458 0.933
1045 4 3 0.0600 627.5095000000001 1.082 -0.07
1046 4 2 -0.1200 629.2265000000001 0.0 0.0
1047 4 2 -0.1200 630.7345000000001 0.0 0.0
1048 4 3 0.0600 628.8875000000002 -0.07000000000000008 -1.061
1049 4 3 0.0600 628.8045000000001 0.888 0.509
1050 4 3 0.0600 631.1095000000001 0.933 -0.4580000000000001
1051 4 3 0.0600 631.0175000000002 -0.06999999999999994 1.082
1052 4 2 -0.1200 632.7345 0.0 0.0
1053 4 2 -0.1200 634.2425000000001 0.0 0.0
1054 4 3 0.0600 632.3955000000001 -1.061 -0.07
1055 4 3 0.0600 632.3125 0.509 0.888
1056 4 3 0.0600 634.6175000000001 -0.458 0.933
1057 4 3 0.0600 634.5255000000001 1.082 -0.07
1058 4 2 -0.1200 636.2425000000001 0.0 0.0
1059 4 2 -0.1200 637.7505000000001 0.0 0.0
1060 4 3 0.0600 635.9035000000001 0.06999999999999994 -1.061
1061 4 3 0.0600 635.8205 -0.888 0.509
1062 4 3 0.0600 638.1255000000001 -0.933 -0.45799999999999996
1063 4 3 0.0600 638.0335000000001 0.07000000000000008 1.082
1064 4 2 -0.1200 639.7505 0.0 0.0
1065 4 2 -0.1200 641.2585 0.0 0.0
1066 4 3 0.0600 639.4115 -1.061 0.07
1067 4 3 0.0600 639.3285 0.509 -0.888
1068 4 3 0.0600 641.6335 -0.458 -0.933
1069 4 3 0.0600 641.5415 1.082 0.07
1070 4 2 -0.1200 643.2585 0.0 0.0
1071 4 2 -0.1200 644.7665000000001 0.0 0.0
1072 4 3 0.0600 642.9195000000001 0.06999999999999994 -1.061
1073 4 3 0.0600 642.8365 -0.888 0.509
1074 4 3 0.0600 645.1415000000001 -0.933 -0.45799999999999996
1075 4 3 0.0600 645.0495000000001 0.07000000000000008 1.082
1076 4 2 -0.1200 646.7665000000001 0.0 0.0
1077 4 2 -0.1200 648.2745000000001 0.0 0.0
1078 4 3 0.0600 646.4275000000001 -1.061 0.07
1079 4 3 0.0600 646.3445 0.509 -0.888
1080 4 3 0.0600 648.6495000000001 -0.458 -0.933
1081 4 3 0.0600 648.5575000000001 1.082 0.07
1082 4 2 -0.1200 650.2745 0.0 0.0
1083 4 2 -0.1200 651.7825 0.0 0.0
1084 4 3 0.0600 649.9355 0.06999999999999994 -1.061
1085 4 3 0.0600 649.8525 -0.888 0.509
1086 4 3 0.0600 652.1575 -0.933 -0.45799999999999996
1087 4 3 0.0600 652.0655 0.07000000000000008 1.082
1088 4 2 -0.1200 653.7825 0.0 0.0
1089 4 2 -0.1200 655.2905000000001 0.0 0.0
1090 4 3 0.0600 653.4435000000001 -1.061 -0.07
1091 4 3 0.0600 653.3605 0.509 0.888
1092 4 3 0.0600 655.6655000000001 -0.458 0.933
1093 4 3 0.0600 655.5735000000001 1.082 -0.07
1094 4 2 -0.1200 657.2905000000001 0.0 0.0
1095 4 2 -0.1200 658.7985000000001 0.0 0.0
1096 4 3 0.0600 656.9515000000001 0.06999999999999994 -1.061
1097 4 3 0.0600 656.8685 -0.888 0.509
1098 4 3 0.0600 659.1735000000001 -0.933 -0.45799999999999996
1099 4 3 0.0600 659.0815000000001 0.07000000000000008 1.082
1100 4 2 -0.1200 660.7985 0.0 0.0
1101 4 2 -0.1200 662.3065 0.0 0.0
1102 4 3 0.0600 660.4595 -1.061 0.07
1103 4 3 0.0600 660.3765 0.509 -0.888
1104 4 3 0.0600 662.6815 -0.458 -0.933
1105 4 3 0.0600 662.5895 1.082 0.07
1106 4 2 -0.1200 664.3065 0.0 0.0
1107 4 2 -0.1200 665.8145000000001 0.0 0.0
1108 4 3 0.0600 663.9675000000001 -0.07000000000000008 -1.061
1109 4 3 0.0600 663.8845 0.888 0.509
1110 4 3 0.0600 666.1895000000001 0.933 -0.4580000000000001
1111 4 3 0.0600 666.0975000000001 -0.06999999999999994 1.082
1112 4 2 -0.1200 667.8145000000001 0.0 0.0
1113 4 2 -0.1200 669.3225000000001 0.0 0.0
1114 4 3 0.0600 667.4755000000001 -1.061 0.07
1115 4 3 0.0600 667.3925 0.509 -0.888
1116 4 3 0.0600 669.6975000000001 -0.458 -0.933
1117 4 3 0.0600 669.6055000000001 1.082 0.07
1118 4 2 -0.1200 671.3225 0.0 0.0
1119 4 2 -0.1200 672.8305 0.0 0.0
1120 4 3 0.0600 670.9835 0.06999999999999994 -1.061
1121 4 3 0.0600 670.9005 -0.888 0.509
1122 4 3 0.0600 673.2055 -0.933 -0.45799999999999996
1123 4 3 0.0600 673.1135 0.07000000000000008 1.082
1124 4 2 -0.1200 674.8305 0.0 0.0
1125 4 2 -0.1200 676.3385000000001 0.0 0.0
1126 4 3 0.0600 674.4915000000001 -1.061 0.07
1127 4 3 0.0600 674.4085 0.509 -0.888
1128 4 3 0.0600 676.7135000000001 -0.458 -0.933
1129 4 3 0.0600 676.6215000000001 1.082 0.07
1130 4 2 -0.1200 678.3385000000001 0.0 0.0
1131 4 2 -0.1200 679.8465000000001 0.0 0.0
1132 4 3 0.0600 677.9995000000001 -0.07000000000000008 -1.061
1133 4 3 0.0600 677.9165 0.888 0.509
1134 4 3 0.0600 680.2215000000001 0.933 -0.4580000000000001
1135 4 3 0.0600 680.1295000000001 -0.06999999999999994 1.082
1136 4 2 -0.1200 681.8465 0.0 0.0
1137 4 2 -0.1200 683.3545 0.0 0.0
1138 4 3 0.0600 681.5075 -1.061 -0.07
1139 4 3 0.0600 681.4245 0.509 0.888
1140 4 3 0.0600 683.7295 -0.458 0.933
1141 4 3 0.0600 683.6375 1.082 -0.07
1142 4 2 -0.1200 685.3545 0.0 0.0
1143 4 2 -0.1200 686.8625000000001 0.0 0.0
1144 4 3 0.0600 685.0155000000001 -0.07000000000000008 -1.061
1145 4 3 0.0600 684.9325 0.888 0.509
1146 4 3 0.0600 687.2375000000001 0.933 -0.4580000000000001
1147 4 3 0.0600 687.1455000000001 -0.06999999999999994 1.082
1148 4 2 -0.1200 688.8625000000001 0.0 0.0
1149 4 2 -0.1200 690.3705000000001 0.0 0.0
1150 4 3 0.0600 688.5235000000001 -1.061 -0.07
1151 4 3 0.0600 688.4405 0.509 0.888
1152 4 3 0.0600 690.7455000000001 -0.458 0.933
1153 4 3 0.0600 690.6535000000001 1.082 -0.07
1154 4 2 -0.1200 692.3705000000001 0.0 0.0
1155 4 2 -0.1200 693.8785000000001 0.0 0.0
1156 4 3 0.0600 692.0315000000002 -0.07000000000000008 -1.061
1157 4 3 0.0600 691.9485000000001 0.888 0.509
1158 4 3 0.0600 694.2535000000001 0.933 -0.4580000000000001
1159 4 3 0.0600 694.1615000000002 -0.06999999999999994 1.082
1160 4 2 -0.1200 695.8785 0.0 0.0
1161 4 2 -0.1200 697.3865000000001 0.0 0.0
1162 4 3 0.0600 695.5395000000001 -1.061 0.07
1163 4 3 0.0600 695.4565 0.509 -0.888
1164 4 3 0.0600 697.7615000000001 -0.458 -0.933
1165 4 3 0.0600 697.6695000000001 1.082 0.07
1166 4 2 -0.1200 699.3865000000001 0.0 0.0
1167 4 2 -0.1200 700.8945000000001 0.0 0.0
1168 4 3 0.0600 699.0475000000001 -0.07000000000000008 -1.061
1169 4 3 0.0600 698.9645 0.888 0.509
1170 4 3 0.0600 701.2695000000001 0.933 -0.4580000000000001
1171 4 3 0.0600 701.1775000000001 -0.06999999999999994 1.082
1172 4 2 -0.1200 702.8945 0.0 0.0
1173 4 2 -0.1200 704.4025 0.0 0.0
1174 4 3 0.0600 702.5555 -1.061 -0.07
1175 4 3 0.0600 702.4725 0.509 0.888
1176 4 3 0.0600 704.7775 -0.458 0.933
1177 4 3 0.0600 704.6855 1.082 -0.07
1178 4 2 -0.1200 706.4025 0.0 0.0
1179 4 2 -0.1200 707.9105000000001 0.0 0.0
1180 4 3 0.0600 706.0635000000001 -0.07000000000000008 -1.061
1181 4 3 0.0600 705.9805 0.888 0.509
1182 4 3 0.0600 708.2855000000001 0.933 -0.4580000000000001
1183 4 3 0.0600 708.1935000000001 -0.06999999999999994 1.082
1184 4 2 -0.1200 709.9105000000001 0.0 0.0
1185 4 2 -0.1200 711.4185000000001 0.0 0.0
1186 4 3 0.0600 709.5715000000001 -1.061 -0.07
1187 4 3 0.0600 709.4885 0.509 0.888
1188 4 3 0.0600 711.7935000000001 -0.458 0.933
1189 4 3 0.0600 711.7015000000001 1.082 -0.07
1190 4 2 -0.1200 713.4185000000001 0.0 0.0
1191 4 2 -0.1200 714.9265000000001 0.0 0.0
1192 4 3 0.0600 713.0795000000002 0.06999999999999994 -1.061
1193 4 3 0.0600 712.9965000000001 -0.888 0.509
1194 4 3 0.0600 715.3015000000001 -0.933 -0.45799999999999996
1195 4 3 0.0600 715.2095000000002 0.07000000000000008 1.082
1196 4 2 -0.1200 716.9265 0.0 0.0
1197 4 2 -0.1200 718.4345000000001 0.0 0.0
1198 4 3 0.0600 716.5875000000001 -1.061 -0.07
1199 4 3 0.0600 716.5045 0.509 0.888
1200 4 3 0.0600 718.8095000000001 -0.458 0.933
1201 4 3 0.0600 718.7175000000001 1.082 -0.07
1202 4 2 -0.1200 720.1055000000001 0.0 0.0
1203 4 1 -0.1800 721.4395000000001 0.731 0.0009999999999999554
1204 4 3 0.0600 719.4445000000001 0.4630000000000001 0.776
1205 4 3 0.0600 719.6215000000001 0.24099999999999994 -0.969
1206 4 3 0.0600 721.4965000000001 1.401 0.8769999999999999
1207 4 3 0.0600 721.5665000000001 1.38 -0.8920000000000001
1208 4 3 0.0600 722.2715000000001 0.0 0.0
1209 5 1 -0.1800 -0.752 183.1002 0.0
1210 5 2 -0.1200 0.752 183.1002 0.0
1211 5 3 0.0600 -1.103 183.5702 0.954
1212 5 3 0.0600 -1.133 183.7342 -0.836
1213 5 3 0.0600 -1.172 182.0772 -0.096
1214 5 3 0.0600 1.118 184.0782 -0.354
1215 5 3 0.0600 1.201 182.2512 -0.533
1216 5 2 -0.1200 2.75 183.1002 0.0
1217 5 2 -0.1200 4.258 183.1002 0.0
1218 5 3 0.0600 2.411 183.0302 -1.061
1219 5 3 0.0600 2.3280000000000003 183.9882 0.509
1220 5 3 0.0600 4.633 184.0332 -0.4580000000000001
1221 5 3 0.0600 4.541 183.0302 1.082
1222 5 2 -0.1200 6.257999999999999 183.1002 0.0
1223 5 2 -0.1200 7.766 183.1002 0.0
1224 5 3 0.0600 5.919 182.0392 -0.07
1225 5 3 0.0600 5.835999999999999 183.6092 0.888
1226 5 3 0.0600 8.141 182.6422 0.933
1227 5 3 0.0600 8.049 184.1822 -0.07
1228 5 2 -0.1200 9.766 183.1002 0.0
1229 5 2 -0.1200 11.274 183.1002 0.0
1230 5 3 0.0600 9.427 183.1702 -1.061
1231 5 3 0.0600 9.344 182.2122 0.509
1232 5 3 0.0600 11.649 182.1672 -0.45799999999999996
1233 5 3 0.0600 11.556999999999999 183.1702 1.082
1234 5 2 -0.1200 13.274000000000001 183.1002 0.0
1235 5 2 -0.1200 14.782 183.1002 0.0
1236 5 3 0.0600 12.935 182.0392 -0.07
1237 5 3 0.0600 12.852 183.6092 0.888
1238 5 3 0.0600 15.157 182.6422 0.933
1239 5 3 0.0600 15.065000000000001 184.1822 -0.07
1240 5 2 -0.1200 16.782 183.1002 0.0
1241 5 2 -0.1200 18.290000000000003 183.1002 0.0
1242 5 3 0.0600 16.443 183.0302 -1.061
1243 5 3 0.0600 16.360000000000003 183.9882 0.509
1244 5 3 0.0600 18.665000000000003 184.0332 -0.4580000000000001
1245 5 3 0.0600 18.573 183.0302 1.082
1246 5 2 -0.1200 20.29 183.1002 0.0
1247 5 2 -0.1200 21.798000000000002 183.1002 0.0
1248 5 3 0.0600 19.951 182.0392 -0.07
1249 5 3 0.0600 19.868000000000002 183.6092 0.888
1250 5 3 0.0600 22.173000000000002 182.6422 0.933
1251 5 3 0.0600 22.081 184.1822 -0.07
1252 5 2 -0.1200 23.798 183.1002 0.0
1253 5 2 -0.1200 25.306 183.1002 0.0
1254 5 3 0.0600 23.459 183.1702 -1.061
1255 5 3 0.0600 23.376 182.2122 0.509
1256 5 3 0.0600 25.681 182.1672 -0.45799999999999996
1257 5 3 0.0600 25.589 183.1702 1.082
1258 5 2 -0.1200 27.305999999999997 183.1002 0.0
1259 5 2 -0.1200 28.814 183.1002 0.0
1260 5 3 0.0600 26.967 182.0392 0.07
1261 5 3 0.0600 26.884 183.6092 -0.888
1262 5 3 0.0600 29.189 182.6422 -0.933
1263 5 3 0.0600 29.096999999999998 184.1822 0.07
1264 5 2 -0.1200 30.814 183.1002 0.0
1265 5 2 -0.1200 32.322 183.1002 0.0
1266 5 3 0.0600 30.475 183.0302 -1.061
1267 5 3 0.0600 30.392000000000003 183.9882 0.509
1268 5 3 0.0600 32.697 184.0332 -0.4580000000000001
1269 5 3 0.0600 32.605000000000004 183.0302 1.082
1270 5 2 -0.1200 34.322 183.1002 0.0
1271 5 2 -0.1200 35.83 183.1002 0.0
1272 5 3 0.0600 33.983000000000004 182.0392 0.07
1273 5 3 0.0600 33.9 183.6092 -0.888
1274 5 3 0.0600 36.205 182.6422 -0.933
1275 5 3 0.0600 36.113 184.1822 0.07
1276 5 2 -0.1200 37.830000000000005 183.1002 0.0
1277 5 2 -0.1200 39.338 183.1002 0.0
1278 5 3 0.0600 37.491 183.1702 -1.061
1279 5 3 0.0600 37.408 182.2122 0.509
1280 5 3 0.0600 39.713 182.1672 -0.45799999999999996
1281 5 3 0.0600 39.621 183.1702 1.082
1282 5 2 -0.1200 41.338 183.1002 0.0
1283 5 2 -0.1200 42.846 183.1002 0.0
1284 5 3 0.0600 40.998999999999995 182.0392 0.07
1285 5 3 0.0600 40.916 183.6092 -0.888
1286 5 3 0.0600 43.221 182.6422 -0.933
1287 5 3 0.0600 43.129 184.1822 0.07
1288 5 2 -0.1200 44.846000000000004 183.1002 0.0
1289 5 2 -0.1200 46.354 183.1002 0.0
1290 5 3 0.0600 44.507000000000005 183.1702 -1.061
1291 5 3 0.0600 44.424 182.2122 0.509
1292 5 3 0.0600 46.729 182.1672 -0.45799999999999996
1293 5 3 0.0600 46.637 183.1702 1.082
1294 5 2 -0.1200 48.354 183.1002 0.0
1295 5 2 -0.1200 49.861999999999995 183.1002 0.0
1296 5 3 0.0600 48.015 182.0392 0.07
1297 5 3 0.0600 47.931999999999995 183.6092 -0.888
1298 5 3 0.0600 50.236999999999995 182.6422 -0.933
1299 5 3 0.0600 50.144999999999996 184.1822 0.07
1300 5 2 -0.1200 51.862 183.1002 0.0
1301 5 2 -0.1200 53.37 183.1002 0.0
1302 5 3 0.0600 51.522999999999996 183.1702 -1.061
1303 5 3 0.0600 51.44 182.2122 0.509
1304 5 3 0.0600 53.745 182.1672 -0.45799999999999996
1305 5 3 0.0600 53.653 183.1702 1.082
1306 5 2 -0.1200 55.370000000000005 183.1002 0.0
1307 5 2 -0.1200 56.878 183.1002 0.0
1308 5 3 0.0600 55.031000000000006 182.0392 -0.07
1309 5 3 0.0600 54.948 183.6092 0.888
1310 5 3 0.0600 57.253 182.6422 0.933
1311 5 3 0.0600 57.161 184.1822 -0.07
1312 5 2 -0.1200 58.878 183.1002 0.0
1313 5 2 -0.1200 60.385999999999996 183.1002 0.0
1314 5 3 0.0600 58.539 183.1702 -1.061
1315 5 3 0.0600 58.455999999999996 182.2122 0.509
1316 5 3 0.0600 60.760999999999996 182.1672 -0.45799999999999996
1317 5 3 0.0600 60.669 183.1702 1.082
1318 5 2 -0.1200 62.386 183.1002 0.0
1319 5 2 -0.1200 63.894 183.1002 0.0
1320 5 3 0.0600 62.047 182.0392 0.07
1321 5 3 0.0600 61.964 183.6092 -0.888
1322 5 3 0.0600 64.269 182.6422 -0.933
1323 5 3 0.0600 64.177 184.1822 0.07
1324 5 2 -0.1200 65.89399999999999 183.1002 0.0
1325 5 2 -0.1200 67.402 183.1002 0.0
1326 5 3 0.0600 65.55499999999999 183.1702 -1.061
1327 5 3 0.0600 65.472 182.2122 0.509
1328 5 3 0.0600 67.777 182.1672 -0.45799999999999996
1329 5 3 0.0600 67.685 183.1702 1.082
1330 5 2 -0.1200 69.402 183.1002 0.0
1331 5 2 -0.1200 70.91000000000001 183.1002 0.0
1332 5 3 0.0600 69.063 182.0392 -0.07
1333 5 3 0.0600 68.98 183.6092 0.888
1334 5 3 0.0600 71.28500000000001 182.6422 0.933
1335 5 3 0.0600 71.19300000000001 184.1822 -0.07
1336 5 2 -0.1200 72.91 183.1002 0.0
1337 5 2 -0.1200 74.418 183.1002 0.0
1338 5 3 0.0600 72.571 183.1702 -1.061
1339 5 3 0.0600 72.488 182.2122 0.509
1340 5 3 0.0600 74.793 182.1672 -0.45799999999999996
1341 5 3 0.0600 74.70100000000001 183.1702 1.082
1342 5 2 -0.1200 76.41799999999999 183.1002 0.0
1343 5 2 -0.1200 77.926 183.1002 0.0
1344 5 3 0.0600 76.079 182.0392 0.07
1345 5 3 0.0600 75.996 183.6092 -0.888
1346 5 3 0.0600 78.301 182.6422 -0.933
1347 5 3 0.0600 78.209 184.1822 0.07
1348 5 2 -0.1200 79.926 183.1002 0.0
1349 5 2 -0.1200 81.43400000000001 183.1002 0.0
1350 5 3 0.0600 79.587 183.0302 -1.061
1351 5 3 0.0600 79.504 183.9882 0.509
1352 5 3 0.0600 81.80900000000001 184.0332 -0.4580000000000001
1353 5 3 0.0600 81.71700000000001 183.0302 1.082
1354 5 2 -0.1200 83.434 183.1002 0.0
1355 5 2 -0.1200 84.94200000000001 183.1002 0.0
1356 5 3 0.0600 83.095 182.0392 0.07
1357 5 3 0.0600 83.012 183.6092 -0.888
1358 5 3 0.0600 85.31700000000001 182.6422 -0.933
1359 5 3 0.0600 85.22500000000001 184.1822 0.07
1360 5 2 -0.1200 86.942 183.1002 0.0
1361 5 2 -0.1200 88.45 183.1002 0.0
1362 5 3 0.0600 86.603 183.1702 -1.061
1363 5 3 0.0600 86.52 182.2122 0.509
1364 5 3 0.0600 88.825 182.1672 -0.45799999999999996
1365 5 3 0.0600 88.733 183.1702 1.082
1366 5 2 -0.1200 90.44999999999999 183.1002 0.0
1367 5 2 -0.1200 91.958 183.1002 0.0
1368 5 3 0.0600 90.11099999999999 182.0392 -0.07
1369 5 3 0.0600 90.02799999999999 183.6092 0.888
1370 5 3 0.0600 92.333 182.6422 0.933
1371 5 3 0.0600 92.241 184.1822 -0.07
1372 5 2 -0.1200 93.958 183.1002 0.0
1373 5 2 -0.1200 95.46600000000001 183.1002 0.0
1374 5 3 0.0600 93.619 183.1702 -1.061
1375 5 3 0.0600 93.536 182.2122 0.509
1376 5 3 0.0600 95.84100000000001 182.1672 -0.45799999999999996
1377 5 3 0.0600 95.74900000000001 183.1702 1.082
1378 5 2 -0.1200 97.466 183.1002 0.0
1379 5 2 -0.1200 98.974 183.1002 0.0
1380 5 3 0.0600 97.127 182.0392 -0.07
1381 5 3 0.0600 97.044 183.6092 0.888
1382 5 3 0.0600 99.349 182.6422 0.933
1383 5 3 0.0600 99.257 184.1822 -0.07
1384 5 2 -0.1200 100.97399999999999 183.1002 0.0
1385 5 2 -0.1200 102.482 183.1002 0.0
1386 5 3 0.0600 100.63499999999999 183.1702 -1.061
1387 5 3 0.0600 100.55199999999999 182.2122 0.509
1388 5 3 0.0600 102.857 182.1672 -0.45799999999999996
1389 5 3 0.0600 102.765 183.1702 1.082
1390 5 2 -0.1200 104.482 183.1002 0.0
1391 5 2 -0.1200 105.99000000000001 183.1002 0.0
1392 5 3 0.0600 104.143 182.0392 0.07
1393 5 3 0.0600 104.06 183.6092 -0.888
1394 5 3 0.0600 106.36500000000001 182.6422 -0.933
1395 5 3 0.0600 106.27300000000001 184.1822 0.07
1396 5 2 -0.1200 107.99 183.1002 0.0
1397 5 2 -0.1200 109.498 183.1002 0.0
1398 5 3 0.0600 107.651 183.1702 -1.061
1399 5 3 0.0600 107.568 182.2122 0.509
1400 5 3 0.0600 109.873 182.1672 -0.45799999999999996
1401 5 3 0.0600 109.781 183.1702 1.082
1402 5 2 -0.1200 111.49799999999999 183.1002 0.0
1403 5 2 -0.1200 113.006 183.1002 0.0
1404 5 3 0.0600 111.15899999999999 182.0392 -0.07
1405 5 3 0.0600 111.076 183.6092 0.888
1406 5 3 0.0600 113.381 182.6422 0.933
1407 5 3 0.0600 113.289 184.1822 -0.07
1408 5 2 -0.1200 115.006 183.1002 0.0
1409 5 2 -0.1200 116.51400000000001 183.1002 0.0
1410 5 3 0.0600 114.667 183.1702 -1.061
1411 5 3 0.0600 114.584 182.2122 0.509
1412 5 3 0.0600 116.88900000000001 182.1672 -0.45799999999999996
1413 5 3 0.0600 116.79700000000001 183.1702 1.082
1414 5 2 -0.1200 118.514 183.1002 0.0
1415 5 2 -0.1200 120.022 183.1002 0.0
1416 5 3 0.0600 118.175 182.0392 -0.07
1417 5 3 0.0600 118.092 183.6092 0.888
1418 5 3 0.0600 120.397 182.6422 0.933
1419 5 3 0.0600 120.305 184.1822 -0.07
1420 5 2 -0.1200 122.02199999999999 183.1002 0.0
1421 5 2 -0.1200 123.53 183.1002 0.0
1422 5 3 0.0600 121.68299999999999 183.1702 -1.061
1423 5 3 0.0600 121.6 182.2122 0.509
1424 5 3 0.0600 123.905 182.1672 -0.45799999999999996
1425 5 3 0.0600 123.813 183.1702 1.082
1426 5 2 -0.1200 125.53 183.1002 0.0
1427 5 2 -0.1200 127.03800000000001 183.1002 0.0
1428 5 3 0.0600 125.191 182.0392 -0.07
1429 5 3 0.0600 125.108 183.6092 0.888
1430 5 3 0.0600 127.41300000000001 182.6422 0.933
1431 5 3 0.0600 127.32100000000001 184.1822 -0.07
1432 5 2 -0.1200 129.038 183.1002 0.0
1433 5 2 -0.1200 130.546 183.1002 0.0
1434 5 3 0.0600 128.699 183.0302 -1.061
1435 5 3 0.0600 128.616 183.9882 0.509
1436 5 3 0.0600 130.921 184.0332 -0.4580000000000001
1437 5 3 0.0600 130.829 183.0302 1.082
1438 5 2 -0.1200 132.54600000000002 183.1002 0.0
1439 5 2 -0.1200 134.054 183.1002 0.0
1440 5 3 0.0600 132.20700000000002 182.0392 -0.07
1441 5 3 0.0600 132.12400000000002 183.6092 0.888
1442 5 3 0.0600 134.429 182.6422 0.933
1443 5 3 0.0600 134.33700000000002 184.1822 -0.07
1444 5 2 -0.1200 136.054 183.1002 0.0
1445 5 2 -0.1200 137.56199999999998 183.1002 0.0
1446 5 3 0.0600 135.715 183.1702 -1.061
1447 5 3 0.0600 135.632 182.2122 0.509
1448 5 3 0.0600 137.93699999999998 182.1672 -0.45799999999999996
1449 5 3 0.0600 137.845 183.1702 1.082
1450 5 2 -0.1200 139.562 183.1002 0.0
1451 5 2 -0.1200 141.07 183.1002 0.0
1452 5 3 0.0600 139.223 182.0392 -0.07
1453 5 3 0.0600 139.14000000000001 183.6092 0.888
1454 5 3 0.0600 141.445 182.6422 0.933
1455 5 3 0.0600 141.353 184.1822 -0.07
1456 5 2 -0.1200 143.07000000000002 183.1002 0.0
1457 5 2 -0.1200 144.578 183.1002 0.0
1458 5 3 0.0600 142.73100000000002 183.0302 -1.061
1459 5 3 0.0600 142.64800000000002 183.9882 0.509
1460 5 3 0.0600 144.953 184.0332 -0.4580000000000001
1461 5 3 0.0600 144.86100000000002 183.0302 1.082
1462 5 2 -0.1200 146.578 183.1002 0.0
1463 5 2 -0.1200 148.08599999999998 183.1002 0.0
1464 5 3 0.0600 146.239 182.0392 -0.07
1465 5 3 0.0600 146.156 183.6092 0.888
1466 5 3 0.0600 148.46099999999998 182.6422 0.933
1467 5 3 0.0600 148.369 184.1822 -0.07
1468 5 2 -0.1200 150.086 183.1002 0.0
1469 5 2 -0.1200 151.594 183.1002 0.0
1470 5 3 0.0600 149.747 183.1702 -1.061
1471 5 3 0.0600 149.66400000000002 182.2122 0.509
1472 5 3 0.0600 151.969 182.1672 -0.45799999999999996
1473 5 3 0.0600 151.877 183.1702 1.082
1474 5 2 -0.1200 153.59400000000002 183.1002 0.0
1475 5 2 -0.1200 155.102 183.1002 0.0
1476 5 3 0.0600 153.25500000000002 182.0392 0.07
1477 5 3 0.0600 153.17200000000003 183.6092 -0.888
1478 5 3 0.0600 155.477 182.6422 -0.933
1479 5 3 0.0600 155.38500000000002 184.1822 0.07
1480 5 2 -0.1200 157.102 183.1002 0.0
1481 5 2 -0.1200 158.60999999999999 183.1002 0.0
1482 5 3 0.0600 156.763 183.1702 -1.061
1483 5 3 0.0600 156.68 182.2122 0.509
1484 5 3 0.0600 158.98499999999999 182.1672 -0.45799999999999996
1485 5 3 0.0600 158.893 183.1702 1.082
1486 5 2 -0.1200 160.61 183.1002 0.0
1487 5 2 -0.1200 162.118 183.1002 0.0
1488 5 3 0.0600 160.27100000000002 182.0392 -0.07
1489 5 3 0.0600 160.18800000000002 183.6092 0.888
1490 5 3 0.0600 162.493 182.6422 0.933
1491 5 3 0.0600 162.401 184.1822 -0.07
1492 5 2 -0.1200 164.11800000000002 183.1002 0.0
1493 5 2 -0.1200 165.626 183.1002 0.0
1494 5 3 0.0600 163.77900000000002 183.1702 -1.061
1495 5 3 0.0600 163.69600000000003 182.2122 0.509
1496 5 3 0.0600 166.001 182.1672 -0.45799999999999996
1497 5 3 0.0600 165.90900000000002 183.1702 1.082
1498 5 2 -0.1200 167.626 183.1002 0.0
1499 5 2 -0.1200 169.134 183.1002 0.0
1500 5 3 0.0600 167.287 182.0392 -0.07
1501 5 3 0.0600 167.204 183.6092 0.888
1502 5 3 0.0600 169.509 182.6422 0.933
1503 5 3 0.0600 169.417 184.1822 -0.07
1504 5 2 -0.1200 170.805 183.1002 0.0
1505 5 1 -0.1800 172.139 183.8312 0.0009999999999999554
1506 5 3 0.0600 170.144 183.5632 0.776
1507 5 3 0.0600 170.321 183.34120000000001 -0.969
1508 5 3 0.0600 172.196 184.5012 0.8769999999999999
1509 5 3 0.0600 172.266 184.4802 -0.8920000000000001
1510 5 3 0.0600 172.971 183.1002 0.0
1511 6 1 -0.1800 182.3482 183.1002 0.0
1512 6 2 -0.1200 183.8522 183.1002 0.0
1513 6 3 0.0600 181.9972 183.5702 0.954
1514 6 3 0.0600 181.9672 183.7342 -0.836
1515 6 3 0.0600 181.9282 182.0772 -0.096
1516 6 3 0.0600 184.2182 184.0782 -0.354
1517 6 3 0.0600 184.3012 182.2512 -0.533
1518 6 2 -0.1200 185.8502 183.1002 0.0
1519 6 2 -0.1200 187.35819999999998 183.1002 0.0
1520 6 3 0.0600 185.5112 183.1702 -1.061
1521 6 3 0.0600 185.4282 182.2122 0.509
1522 6 3 0.0600 187.73319999999998 182.1672 -0.45799999999999996
1523 6 3 0.0600 187.6412 183.1702 1.082
1524 6 2 -0.1200 189.3582 183.1002 0.0
1525 6 2 -0.1200 190.8662 183.1002 0.0
1526 6 3 0.0600 189.0192 182.0392 0.07
1527 6 3 0.0600 188.9362 183.6092 -0.888
1528 6 3 0.0600 191.2412 182.6422 -0.933
1529 6 3 0.0600 191.1492 184.1822 0.07
1530 6 2 -0.1200 192.86620000000002 183.1002 0.0
1531 6 2 -0.1200 194.3742 183.1002 0.0
1532 6 3 0.0600 192.52720000000002 183.1702 -1.061
1533 6 3 0.0600 192.44420000000002 182.2122 0.509
1534 6 3 0.0600 194.7492 182.1672 -0.45799999999999996
1535 6 3 0.0600 194.65720000000002 183.1702 1.082
1536 6 2 -0.1200 196.3742 183.1002 0.0
1537 6 2 -0.1200 197.88219999999998 183.1002 0.0
1538 6 3 0.0600 196.0352 182.0392 0.07
1539 6 3 0.0600 195.9522 183.6092 -0.888
1540 6 3 0.0600 198.25719999999998 182.6422 -0.933
1541 6 3 0.0600 198.1652 184.1822 0.07
1542 6 2 -0.1200 199.8822 183.1002 0.0
1543 6 2 -0.1200 201.3902 183.1002 0.0
1544 6 3 0.0600 199.5432 183.0302 -1.061
1545 6 3 0.0600 199.46020000000001 183.9882 0.509
1546 6 3 0.0600 201.7652 184.0332 -0.4580000000000001
1547 6 3 0.0600 201.6732 183.0302 1.082
1548 6 2 -0.1200 203.39020000000002 183.1002 0.0
1549 6 2 -0.1200 204.8982 183.1002 0.0
1550 6 3 0.0600 203.05120000000002 182.0392 0.07
1551 6 3 0.0600 202.96820000000002 183.6092 -0.888
1552 6 3 0.0600 205.2732 182.6422 -0.933
1553 6 3 0.0600 205.18120000000002 184.1822 0.07
1554 6 2 -0.1200 206.8982 183.1002 0.0
1555 6 2 -0.1200 208.40619999999998 183.1002 0.0
1556 6 3 0.0600 206.5592 183.0302 -1.061
1557 6 3 0.0600 206.4762 183.9882 0.509
1558 6 3 0.0600 208.78119999999998 184.0332 -0.4580000000000001
1559 6 3 0.0600 208.6892 183.0302 1.082
1560 6 2 -0.1200 210.4062 183.1002 0.0
1561 6 2 -0.1200 211.9142 183.1002 0.0
1562 6 3 0.0600 210.0672 182.0392 0.07
1563 6 3 0.0600 209.98420000000002 183.6092 -0.888
1564 6 3 0.0600 212.2892 182.6422 -0.933
1565 6 3 0.0600 212.1972 184.1822 0.07
1566 6 2 -0.1200 213.91420000000002 183.1002 0.0
1567 6 2 -0.1200 215.4222 183.1002 0.0
1568 6 3 0.0600 213.57520000000002 183.0302 -1.061
1569 6 3 0.0600 213.49220000000003 183.9882 0.509
1570 6 3 0.0600 215.7972 184.0332 -0.4580000000000001
1571 6 3 0.0600 215.70520000000002 183.0302 1.082
1572 6 2 -0.1200 217.4222 183.1002 0.0
1573 6 2 -0.1200 218.93019999999999 183.1002 0.0
1574 6 3 0.0600 217.0832 182.0392 0.07
1575 6 3 0.0600 217.0002 183.6092 -0.888
1576 6 3 0.0600 219.30519999999999 182.6422 -0.933
1577 6 3 0.0600 219.2132 184.1822 0.07
1578 6 2 -0.1200 220.9302 183.1002 0.0
1579 6 2 -0.1200 222.4382 183.1002 0.0
1580 6 3 0.0600 220.59120000000001 183.1702 -1.061
1581 6 3 0.0600 220.50820000000002 182.2122 0.509
1582 6 3 0.0600 222.8132 182.1672 -0.45799999999999996
1583 6 3 0.0600 222.7212 183.1702 1.082
1584 6 2 -0.1200 224.43820000000002 183.1002 0.0
1585 6 2 -0.1200 225.9462 183.1002 0.0
1586 6 3 0.0600 224.09920000000002 182.0392 -0.07
1587 6 3 0.0600 224.01620000000003 183.6092 0.888
1588 6 3 0.0600 226.3212 182.6422 0.933
1589 6 3 0.0600 226.22920000000002 184.1822 -0.07
1590 6 2 -0.1200 227.9462 183.1002 0.0
1591 6 2 -0.1200 229.4542 183.1002 0.0
1592 6 3 0.0600 227.6072 183.0302 -1.061
1593 6 3 0.0600 227.5242 183.9882 0.509
1594 6 3 0.0600 229.8292 184.0332 -0.4580000000000001
1595 6 3 0.0600 229.7372 183.0302 1.082
1596 6 2 -0.1200 231.45420000000001 183.1002 0.0
1597 6 2 -0.1200 232.9622 183.1002 0.0
1598 6 3 0.0600 231.11520000000002 182.0392 -0.07
1599 6 3 0.0600 231.03220000000002 183.6092 0.888
1600 6 3 0.0600 233.3372 182.6422 0.933
1601 6 3 0.0600 233.2452 184.1822 -0.07
1602 6 2 -0.1200 234.96220000000002 183.1002 0.0
1603 6 2 -0.1200 236.4702 183.1002 0.0
1604 6 3 0.0600 234.62320000000003 183.0302 -1.061
1605 6 3 0.0600 234.54020000000003 183.9882 0.509
1606 6 3 0.0600 236.8452 184.0332 -0.4580000000000001
1607 6 3 0.0600 236.75320000000002 183.0302 1.082
1608 6 2 -0.1200 238.4702 183.1002 0.0
1609 6 2 -0.1200 239.9782 183.1002 0.0
1610 6 3 0.0600 238.1312 182.0392 0.07
1611 6 3 0.0600 238.0482 183.6092 -0.888
1612 6 3 0.0600 240.3532 182.6422 -0.933
1613 6 3 0.0600 240.2612 184.1822 0.07
1614 6 2 -0.1200 241.97820000000002 183.1002 0.0
1615 6 2 -0.1200 243.4862 183.1002 0.0
1616 6 3 0.0600 241.63920000000002 183.1702 -1.061
1617 6 3 0.0600 241.55620000000002 182.2122 0.509
1618 6 3 0.0600 243.8612 182.1672 -0.45799999999999996
1619 6 3 0.0600 243.7692 183.1702 1.082
1620 6 2 -0.1200 245.48620000000003 183.1002 0.0
1621 6 2 -0.1200 246.9942 183.1002 0.0
1622 6 3 0.0600 245.14720000000003 182.0392 0.07
1623 6 3 0.0600 245.06420000000003 183.6092 -0.888
1624 6 3 0.0600 247.3692 182.6422 -0.933
1625 6 3 0.0600 247.27720000000002 184.1822 0.07
1626 6 2 -0.1200 248.9942 183.1002 0.0
1627 6 2 -0.1200 250.5022 183.1002 0.0
1628 6 3 0.0600 248.6552 183.1702 -1.061
1629 6 3 0.0600 248.5722 182.2122 0.509
1630 6 3 0.0600 250.8772 182.1672 -0.45799999999999996
1631 6 3 0.0600 250.7852 183.1702 1.082
1632 6 2 -0.1200 252.50220000000002 183.1002 0.0
1633 6 2 -0.1200 254.0102 183.1002 0.0
1634 6 3 0.0600 252.16320000000002 182.0392 0.07
1635 6 3 0.0600 252.08020000000002 183.6092 -0.888
1636 6 3 0.0600 254.3852 182.6422 -0.933
1637 6 3 0.0600 254.2932 184.1822 0.07
1638 6 2 -0.1200 256.0102 183.1002 0.0
1639 6 2 -0.1200 257.51820000000004 183.1002 0.0
1640 6 3 0.0600 255.67120000000003 183.0302 -1.061
1641 6 3 0.0600 255.58820000000003 183.9882 0.509
1642 6 3 0.0600 257.89320000000004 184.0332 -0.4580000000000001
1643 6 3 0.0600 257.8012 183.0302 1.082
1644 6 2 -0.1200 259.5182 183.1002 0.0
1645 6 2 -0.1200 261.0262 183.1002 0.0
1646 6 3 0.0600 259.1792 182.0392 -0.07
1647 6 3 0.0600 259.0962 183.6092 0.888
1648 6 3 0.0600 261.4012 182.6422 0.933
1649 6 3 0.0600 261.3092 184.1822 -0.07
1650 6 2 -0.1200 263.0262 183.1002 0.0
1651 6 2 -0.1200 264.53420000000006 183.1002 0.0
1652 6 3 0.0600 262.6872 183.0302 -1.061
1653 6 3 0.0600 262.60420000000005 183.9882 0.509
1654 6 3 0.0600 264.90920000000006 184.0332 -0.4580000000000001
1655 6 3 0.0600 264.8172 183.0302 1.082
1656 6 2 -0.1200 266.5342 183.1002 0.0
1657 6 2 -0.1200 268.04220000000004 183.1002 0.0
1658 6 3 0.0600 266.1952 182.0392 -0.07
1659 6 3 0.0600 266.11220000000003 183.6092 0.888
1660 6 3 0.0600 268.41720000000004 182.6422 0.933
1661 6 3 0.0600 268.3252 184.1822 -0.07
1662 6 2 -0.1200 270.0422 183.1002 0.0
1663 6 2 -0.1200 271.5502 183.1002 0.0
1664 6 3 0.0600 269.7032 183.1702 -1.061
1665 6 3 0.0600 269.6202 182.2122 0.509
1666 6 3 0.0600 271.9252 182.1672 -0.45799999999999996
1667 6 3 0.0600 271.8332 183.1702 1.082
1668 6 2 -0.1200 273.55019999999996 183.1002 0.0
1669 6 2 -0.1200 275.0582 183.1002 0.0
1670 6 3 0.0600 273.21119999999996 182.0392 0.07
1671 6 3 0.0600 273.1282 183.6092 -0.888
1672 6 3 0.0600 275.4332 182.6422 -0.933
1673 6 3 0.0600 275.34119999999996 184.1822 0.07
1674 6 2 -0.1200 277.0582 183.1002 0.0
1675 6 2 -0.1200 278.56620000000004 183.1002 0.0
1676 6 3 0.0600 276.7192 183.0302 -1.061
1677 6 3 0.0600 276.63620000000003 183.9882 0.509
1678 6 3 0.0600 278.94120000000004 184.0332 -0.4580000000000001
1679 6 3 0.0600 278.8492 183.0302 1.082
1680 6 2 -0.1200 280.5662 183.1002 0.0
1681 6 2 -0.1200 282.0742 183.1002 0.0
1682 6 3 0.0600 280.2272 182.0392 0.07
1683 6 3 0.0600 280.1442 183.6092 -0.888
1684 6 3 0.0600 282.4492 182.6422 -0.933
1685 6 3 0.0600 282.3572 184.1822 0.07
1686 6 2 -0.1200 284.07419999999996 183.1002 0.0
1687 6 2 -0.1200 285.5822 183.1002 0.0
1688 6 3 0.0600 283.73519999999996 183.1702 -1.061
1689 6 3 0.0600 283.6522 182.2122 0.509
1690 6 3 0.0600 285.9572 182.1672 -0.45799999999999996
1691 6 3 0.0600 285.86519999999996 183.1702 1.082
1692 6 2 -0.1200 287.5822 183.1002 0.0
1693 6 2 -0.1200 289.09020000000004 183.1002 0.0
1694 6 3 0.0600 287.2432 182.0392 -0.07
1695 6 3 0.0600 287.16020000000003 183.6092 0.888
1696 6 3 0.0600 289.46520000000004 182.6422 0.933
1697 6 3 0.0600 289.3732 184.1822 -0.07
1698 6 2 -0.1200 291.0902 183.1002 0.0
1699 6 2 -0.1200 292.5982 183.1002 0.0
1700 6 3 0.0600 290.7512 183.0302 -1.061
1701 6 3 0.0600 290.6682 183.9882 0.509
1702 6 3 0.0600 292.9732 184.0332 -0.4580000000000001
1703 6 3 0.0600 292.8812 183.0302 1.082
1704 6 2 -0.1200 294.59819999999996 183.1002 0.0
1705 6 2 -0.1200 296.1062 183.1002 0.0
1706 6 3 0.0600 294.25919999999996 182.0392 -0.07
1707 6 3 0.0600 294.1762 183.6092 0.888
1708 6 3 0.0600 296.4812 182.6422 0.933
1709 6 3 0.0600 296.38919999999996 184.1822 -0.07
1710 6 2 -0.1200 298.1062 183.1002 0.0
1711 6 2 -0.1200 299.61420000000004 183.1002 0.0
1712 6 3 0.0600 297.7672 183.1702 -1.061
1713 6 3 0.0600 297.68420000000003 182.2122 0.509
1714 6 3 0.0600 299.98920000000004 182.1672 -0.45799999999999996
1715 6 3 0.0600 299.8972 183.1702 1.082
1716 6 2 -0.1200 301.6142 183.1002 0.0
1717 6 2 -0.1200 303.1222 183.1002 0.0
1718 6 3 0.0600 301.2752 182.0392 0.07
1719 6 3 0.0600 301.1922 183.6092 -0.888
1720 6 3 0.0600 303.4972 182.6422 -0.933
1721 6 3 0.0600 303.4052 184.1822 0.07
1722 6 2 -0.1200 305.12219999999996 183.1002 0.0
1723 6 2 -0.1200 306.6302 183.1002 0.0
1724 6 3 0.0600 304.78319999999997 183.0302 -1.061
1725 6 3 0.0600 304.7002 183.9882 0.509
1726 6 3 0.0600 307.0052 184.0332 -0.4580000000000001
1727 6 3 0.0600 306.91319999999996 183.0302 1.082
1728 6 2 -0.1200 308.6302 183.1002 0.0
1729 6 2 -0.1200 310.13820000000004 183.1002 0.0
1730 6 3 0.0600 308.2912 182.0392 0.07
1731 6 3 0.0600 308.20820000000003 183.6092 -0.888
1732 6 3 0.0600 310.51320000000004 182.6422 -0.933
1733 6 3 0.0600 310.4212 184.1822 0.07
1734 6 2 -0.1200 312.1382 183.1002 0.0
1735 6 2 -0.1200 313.6462 183.1002 0.0
1736 6 3 0.0600 311.7992 183.1702 -1.061
1737 6 3 0.0600 311.7162 182.2122 0.509
1738 6 3 0.0600 314.0212 182.1672 -0.45799999999999996
1739 6 3 0.0600 313.9292 183.1702 1.082
1740 6 2 -0.1200 315.6462 183.1002 0.0
1741 6 2 -0.1200 317.15420000000006 183.1002 0.0
1742 6 3 0.0600 315.3072 182.0392 -0.07
1743 6 3 0.0600 315.22420000000005 183.6092 0.888
1744 6 3 0.0600 317.52920000000006 182.6422 0.933
1745 6 3 0.0600 317.4372 184.1822 -0.07
1746 6 2 -0.1200 319.15419999999995 183.1002 0.0
1747 6 2 -0.1200 320.6622 183.1002 0.0
1748 6 3 0.0600 318.81519999999995 183.1702 -1.061
1749 6 3 0.0600 318.7322 182.2122 0.509
1750 6 3 0.0600 321.0372 182.1672 -0.45799999999999996
1751 6 3 0.0600 320.94519999999994 183.1702 1.082
1752 6 2 -0.1200 322.6622 183.1002 0.0
1753 6 2 -0.1200 324.1702 183.1002 0.0
1754 6 3 0.0600 322.3232 182.0392 0.07
1755 6 3 0.0600 322.2402 183.6092 -0.888
1756 6 3 0.0600 324.5452 182.6422 -0.933
1757 6 3 0.0600 324.4532 184.1822 0.07
1758 6 2 -0.1200 326.1702 183.1002 0.0
1759 6 2 -0.1200 327.67820000000006 183.1002 0.0
1760 6 3 0.0600 325.8312 183.1702 -1.061
1761 6 3 0.0600 325.74820000000005 182.2122 0.509
1762 6 3 0.0600 328.05320000000006 182.1672 -0.45799999999999996
1763 6 3 0.0600 327.9612 183.1702 1.082
1764 6 2 -0.1200 329.67819999999995 183.1002 0.0
1765 6 2 -0.1200 331.1862 183.1002 0.0
1766 6 3 0.0600 329.33919999999995 182.0392 -0.07
1767 6 3 0.0600 329.2562 183.6092 0.888
1768 6 3 0.0600 331.5612 182.6422 0.933
1769 6 3 0.0600 331.46919999999994 184.1822 -0.07
1770 6 2 -0.1200 333.1862 183.1002 0.0
1771 6 2 -0.1200 334.6942 183.1002 0.0
1772 6 3 0.0600 332.8472 183.0302 -1.061
1773 6 3 0.0600 332.7642 183.9882 0.509
1774 6 3 0.0600 335.0692 184.0332 -0.4580000000000001
1775 6 3 0.0600 334.9772 183.0302 1.082
1776 6 2 -0.1200 336.6942 183.1002 0.0
1777 6 2 -0.1200 338.20220000000006 183.1002 0.0
1778 6 3 0.0600 336.3552 182.0392 -0.07
1779 6 3 0.0600 336.27220000000005 183.6092 0.888
1780 6 3 0.0600 338.57720000000006 182.6422 0.933
1781 6 3 0.0600 338.4852 184.1822 -0.07
1782 6 2 -0.1200 340.20219999999995 183.1002 0.0
1783 6 2 -0.1200 341.7102 183.1002 0.0
1784 6 3 0.0600 339.86319999999995 183.0302 -1.061
1785 6 3 0.0600 339.7802 183.9882 0.509
1786 6 3 0.0600 342.0852 184.0332 -0.4580000000000001
1787 6 3 0.0600 341.99319999999994 183.0302 1.082
1788 6 2 -0.1200 343.7102 183.1002 0.0
1789 6 2 -0.1200 345.2182 183.1002 0.0
1790 6 3 0.0600 343.3712 182.0392 -0.07
1791 6 3 0.0600 343.2882 183.6092 0.888
1792 6 3 0.0600 345.5932 182.6422 0.933
1793 6 3 0.0600 345.5012 184.1822 -0.07
1794 6 2 -0.1200 347.2182 183.1002 0.0
1795 6 2 -0.1200 348.72620000000006 183.1002 0.0
1796 6 3 0.0600 346.8792 183.0302 -1.061
1797 6 3 0.0600 346.79620000000006 183.9882 0.509
1798 6 3 0.0600 349.10120000000006 184.0332 -0.4580000000000001
1799 6 3 0.0600 349.0092 183.0302 1.082
1800 6 2 -0.1200 350.72619999999995 183.1002 0.0
1801 6 2 -0.1200 352.2342 183.1002 0.0
1802 6 3 0.0600 350.38719999999995 182.0392 -0.07
1803 6 3 0.0600 350.3042 183.6092 0.888
1804 6 3 0.0600 352.6092 182.6422 0.933
1805 6 3 0.0600 352.51719999999995 184.1822 -0.07
1806 6 2 -0.1200 353.9052 183.1002 0.0
1807 6 1 -0.1800 355.2392 183.8312 0.0009999999999999554
1808 6 3 0.0600 353.2442 183.5632 0.776
1809 6 3 0.0600 353.4212 183.34120000000001 -0.969
1810 6 3 0.0600 355.2962 184.5012 0.8769999999999999
1811 6 3 0.0600 355.3662 184.4802 -0.8920000000000001
1812 6 3 0.0600 356.07120000000003 183.1002 0.0
1813 7 1 -0.1800 365.4483 183.1002 0.0
1814 7 2 -0.1200 366.95230000000004 183.1002 0.0
1815 7 3 0.0600 365.0973 183.5702 0.954
1816 7 3 0.0600 365.06730000000005 183.7342 -0.836
1817 7 3 0.0600 365.0283 182.0772 -0.096
1818 7 3 0.0600 367.3183 184.0782 -0.354
1819 7 3 0.0600 367.40130000000005 182.2512 -0.533
1820 7 2 -0.1200 368.9503 183.1002 0.0
1821 7 2 -0.1200 370.45830000000007 183.1002 0.0
1822 7 3 0.0600 368.6113 183.0302 -1.061
1823 7 3 0.0600 368.52830000000006 183.9882 0.509
1824 7 3 0.0600 370.83330000000007 184.0332 -0.4580000000000001
1825 7 3 0.0600 370.7413 183.0302 1.082
1826 7 2 -0.1200 372.4583 183.1002 0.0
1827 7 2 -0.1200 373.96630000000005 183.1002 0.0
1828 7 3 0.0600 372.1193 182.0392 0.07
1829 7 3 0.0600 372.03630000000004 183.6092 -0.888
1830 7 3 0.0600 374.34130000000005 182.6422 -0.933
1831 7 3 0.0600 374.2493 184.1822 0.07
1832 7 2 -0.1200 375.9663 183.1002 0.0
1833 7 2 -0.1200 377.4743 183.1002 0.0
1834 7 3 0.0600 375.6273 183.0302 -1.061
1835 7 3 0.0600 375.5443 183.9882 0.509
1836 7 3 0.0600 377.8493 184.0332 -0.4580000000000001
1837 7 3 0.0600 377.7573 183.0302 1.082
1838 7 2 -0.1200 379.4743 183.1002 0.0
1839 7 2 -0.1200 380.98230000000007 183.1002 0.0
1840 7 3 0.0600 379.13530000000003 182.0392 -0.07
1841 7 3 0.0600 379.05230000000006 183.6092 0.888
1842 7 3 0.0600 381.35730000000007 182.6422 0.933
1843 7 3 0.0600 381.2653 184.1822 -0.07
1844 7 2 -0.1200 382.9823 183.1002 0.0
1845 7 2 -0.1200 384.49030000000005 183.1002 0.0
1846 7 3 0.0600 382.6433 183.0302 -1.061
1847 7 3 0.0600 382.56030000000004 183.9882 0.509
1848 7 3 0.0600 384.86530000000005 184.0332 -0.4580000000000001
1849 7 3 0.0600 384.7733 183.0302 1.082
1850 7 2 -0.1200 386.4903 183.1002 0.0
1851 7 2 -0.1200 387.99830000000003 183.1002 0.0
1852 7 3 0.0600 386.1513 182.0392 0.07
1853 7 3 0.0600 386.0683 183.6092 -0.888
1854 7 3 0.0600 388.37330000000003 182.6422 -0.933
1855 7 3 0.0600 388.2813 184.1822 0.07
1856 7 2 -0.1200 389.99830000000003 183.1002 0.0
1857 7 2 -0.1200 391.50630000000007 183.1002 0.0
1858 7 3 0.0600 389.65930000000003 183.0302 -1.061
1859 7 3 0.0600 389.57630000000006 183.9882 0.509
1860 7 3 0.0600 391.88130000000007 184.0332 -0.4580000000000001
1861 7 3 0.0600 391.7893 183.0302 1.082
1862 7 2 -0.1200 393.5063 183.1002 0.0
1863 7 2 -0.1200 395.01430000000005 183.1002 0.0
1864 7 3 0.0600 393.1673 182.0392 -0.07
1865 7 3 0.0600 393.08430000000004 183.6092 0.888
1866 7 3 0.0600 395.38930000000005 182.6422 0.933
1867 7 3 0.0600 395.2973 184.1822 -0.07
1868 7 2 -0.1200 397.0143 183.1002 0.0
1869 7 2 -0.1200 398.52230000000003 183.1002 0.0
1870 7 3 0.0600 396.6753 183.1702 -1.061
1871 7 3 0.0600 396.5923 182.2122 0.509
1872 7 3 0.0600 398.89730000000003 182.1672 -0.45799999999999996
1873 7 3 0.0600 398.8053 183.1702 1.082
1874 7 2 -0.1200 400.52230000000003 183.1002 0.0
1875 7 2 -0.1200 402.03030000000007 183.1002 0.0
1876 7 3 0.0600 400.18330000000003 182.0392 0.07
1877 7 3 0.0600 400.10030000000006 183.6092 -0.888
1878 7 3 0.0600 402.40530000000007 182.6422 -0.933
1879 7 3 0.0600 402.3133 184.1822 0.07
1880 7 2 -0.1200 404.0303 183.1002 0.0
1881 7 2 -0.1200 405.53830000000005 183.1002 0.0
1882 7 3 0.0600 403.6913 183.1702 -1.061
1883 7 3 0.0600 403.60830000000004 182.2122 0.509
1884 7 3 0.0600 405.91330000000005 182.1672 -0.45799999999999996
1885 7 3 0.0600 405.8213 183.1702 1.082
1886 7 2 -0.1200 407.5383 183.1002 0.0
1887 7 2 -0.1200 409.04630000000003 183.1002 0.0
1888 7 3 0.0600 407.1993 182.0392 -0.07
1889 7 3 0.0600 407.1163 183.6092 0.888
1890 7 3 0.0600 409.42130000000003 182.6422 0.933
1891 7 3 0.0600 409.3293 184.1822 -0.07
1892 7 2 -0.1200 411.04630000000003 183.1002 0.0
1893 7 2 -0.1200 412.55430000000007 183.1002 0.0
1894 7 3 0.0600 410.70730000000003 183.0302 -1.061
1895 7 3 0.0600 410.62430000000006 183.9882 0.509
1896 7 3 0.0600 412.92930000000007 184.0332 -0.4580000000000001
1897 7 3 0.0600 412.8373 183.0302 1.082
1898 7 2 -0.1200 414.5543 183.1002 0.0
1899 7 2 -0.1200 416.06230000000005 183.1002 0.0
1900 7 3 0.0600 414.2153 182.0392 0.07
1901 7 3 0.0600 414.13230000000004 183.6092 -0.888
1902 7 3 0.0600 416.43730000000005 182.6422 -0.933
1903 7 3 0.0600 416.3453 184.1822 0.07
1904 7 2 -0.1200 418.0623 183.1002 0.0
1905 7 2 -0.1200 419.57030000000003 183.1002 0.0
1906 7 3 0.0600 417.7233 183.1702 -1.061
1907 7 3 0.0600 417.6403 182.2122 0.509
1908 7 3 0.0600 419.94530000000003 182.1672 -0.45799999999999996
1909 7 3 0.0600 419.8533 183.1702 1.082
1910 7 2 -0.1200 421.57030000000003 183.1002 0.0
1911 7 2 -0.1200 423.07830000000007 183.1002 0.0
1912 7 3 0.0600 421.23130000000003 182.0392 0.07
1913 7 3 0.0600 421.14830000000006 183.6092 -0.888
1914 7 3 0.0600 423.45330000000007 182.6422 -0.933
1915 7 3 0.0600 423.3613 184.1822 0.07
1916 7 2 -0.1200 425.0783 183.1002 0.0
1917 7 2 -0.1200 426.58630000000005 183.1002 0.0
1918 7 3 0.0600 424.7393 183.1702 -1.061
1919 7 3 0.0600 424.65630000000004 182.2122 0.509
1920 7 3 0.0600 426.96130000000005 182.1672 -0.45799999999999996
1921 7 3 0.0600 426.8693 183.1702 1.082
1922 7 2 -0.1200 428.5863 183.1002 0.0
1923 7 2 -0.1200 430.09430000000003 183.1002 0.0
1924 7 3 0.0600 428.2473 182.0392 0.07
1925 7 3 0.0600 428.1643 183.6092 -0.888
1926 7 3 0.0600 430.46930000000003 182.6422 -0.933
1927 7 3 0.0600 430.3773 184.1822 0.07
1928 7 2 -0.1200 432.0943 183.1002 0.0
1929 7 2 -0.1200 433.6023 183.1002 0.0
1930 7 3 0.0600 431.7553 183.0302 -1.061
1931 7 3 0.0600 431.6723 183.9882 0.509
1932 7 3 0.0600 433.9773 184.0332 -0.4580000000000001
1933 7 3 0.0600 433.8853 183.0302 1.082
1934 7 2 -0.1200 435.6023 183.1002 0.0
1935 7 2 -0.1200 437.11030000000005 183.1002 0.0
1936 7 3 0.0600 435.2633 182.0392 -0.07
1937 7 3 0.0600 435.18030000000005 183.6092 0.888
1938 7 3 0.0600 437.48530000000005 182.6422 0.933
1939 7 3 0.0600 437.3933 184.1822 -0.07
1940 7 2 -0.1200 439.1103 183.1002 0.0
1941 7 2 -0.1200 440.61830000000003 183.1002 0.0
1942 7 3 0.0600 438.7713 183.1702 -1.061
1943 7 3 0.0600 438.6883 182.2122 0.509
1944 7 3 0.0600 440.99330000000003 182.1672 -0.45799999999999996
1945 7 3 0.0600 440.9013 183.1702 1.082
1946 7 2 -0.1200 442.6183 183.1002 0.0
1947 7 2 -0.1200 444.1263 183.1002 0.0
1948 7 3 0.0600 442.2793 182.0392 0.07
1949 7 3 0.0600 442.1963 183.6092 -0.888
1950 7 3 0.0600 444.5013 182.6422 -0.933
1951 7 3 0.0600 444.4093 184.1822 0.07
1952 7 2 -0.1200 446.1263 183.1002 0.0
1953 7 2 -0.1200 447.63430000000005 183.1002 0.0
1954 7 3 0.0600 445.7873 183.1702 -1.061
1955 7 3 0.0600 445.70430000000005 182.2122 0.509
1956 7 3 0.0600 448.00930000000005 182.1672 -0.45799999999999996
1957 7 3 0.0600 447.9173 183.1702 1.082
1958 7 2 -0.1200 449.6343 183.1002 0.0
1959 7 2 -0.1200 451.14230000000003 183.1002 0.0
1960 7 3 0.0600 449.2953 182.0392 -0.07
1961 7 3 0.0600 449.2123 183.6092 0.888
1962 7 3 0.0600 451.51730000000003 182.6422 0.933
1963 7 3 0.0600 451.4253 184.1822 -0.07
1964 7 2 -0.1200 453.1423 183.1002 0.0
1965 7 2 -0.1200 454.6503 183.1002 0.0
1966 7 3 0.0600 452.8033 183.0302 -1.061
1967 7 3 0.0600 452.7203 183.9882 0.509
1968 7 3 0.0600 455.0253 184.0332 -0.4580000000000001
1969 7 3 0.0600 454.9333 183.0302 1.082
1970 7 2 -0.1200 456.6503 183.1002 0.0
1971 7 2 -0.1200 458.15830000000005 183.1002 0.0
1972 7 3 0.0600 456.3113 182.0392 -0.07
1973 7 3 0.0600 456.22830000000005 183.6092 0.888
1974 7 3 0.0600 458.53330000000005 182.6422 0.933
1975 7 3 0.0600 458.4413 184.1822 -0.07
1976 7 2 -0.1200 460.1583 183.1002 0.0
1977 7 2 -0.1200 461.66630000000004 183.1002 0.0
1978 7 3 0.0600 459.8193 183.1702 -1.061
1979 7 3 0.0600 459.7363 182.2122 0.509
1980 7 3 0.0600 462.04130000000004 182.1672 -0.45799999999999996
1981 7 3 0.0600 461.9493 183.1702 1.082
1982 7 2 -0.1200 463.6663 183.1002 0.0
1983 7 2 -0.1200 465.1743 183.1002 0.0
1984 7 3 0.0600 463.3273 182.0392 -0.07
1985 7 3 0.0600 463.2443 183.6092 0.888
1986 7 3 0.0600 465.5493 182.6422 0.933
1987 7 3 0.0600 465.4573 184.1822 -0.07
1988 7 2 -0.1200 467.1743 183.1002 0.0
1989 7 2 -0.1200 468.68230000000005 183.1002 0.0
1990 7 3 0.0600 466.8353 183.1702 -1.061
1991 7 3 0.0600 466.75230000000005 182.2122 0.509
1992 7 3 0.0600 469.05730000000005 182.1672 -0.45799999999999996
1993 7 3 0.0600 468.9653 183.1702 1.082
1994 7 2 -0.1200 470.6823 183.1002 0.0
1995 7 2 -0.1200 472.19030000000004 183.1002 0.0
1996 7 3 0.0600 470.3433 182.0392 0.07
1997 7 3 0.0600 470.26030000000003 183.6092 -0.888
1998 7 3 0.0600 472.56530000000004 182.6422 -0.933
1999 7 3 0.0600 472.4733 184.1822 0.07
2000 7 2 -0.1200 474.1903 183.1002 0.0
2001 7 2 -0.1200 475.6983 183.1002 0.0
2002 7 3 0.0600 473.8513 183.1702 -1.061
2003 7 3 0.0600 473.7683 182.2122 0.509
2004 7 3 0.0600 476.0733 182.1672 -0.45799999999999996
2005 7 3 0.0600 475.9813 183.1702 1.082
2006 7 2 -0.1200 477.6983 183.1002 0.0
2007 7 2 -0.1200 479.20630000000006 183.1002 0.0
2008 7 3 0.0600 477.3593 182.0392 -0.07
2009 7 3 0.0600 477.27630000000005 183.6092 0.888
2010 7 3 0.0600 479.58130000000006 182.6422 0.933
2011 7 3 0.0600 479.4893 184.1822 -0.07
2012 7 2 -0.1200 481.2063 183.1002 0.0
2013 7 2 -0.1200 482.71430000000004 183.1002 0.0
2014 7 3 0.0600 480.8673 183.1702 -1.061
2015 7 3 0.0600 480.78430000000003 182.2122 0.509
2016 7 3 0.0600 483.08930000000004 182.1672 -0.45799999999999996
2017 7 3 0.0600 482.9973 183.1702 1.082
2018 7 2 -0.1200 484.7143 183.1002 0.0
2019 7 2 -0.1200 486.2223 183.1002 0.0
2020 7 3 0.0600 484.3753 182.0392 0.07
2021 7 3 0.0600 484.2923 183.6092 -0.888
2022 7 3 0.0600 486.5973 182.6422 -0.933
2023 7 3 0.0600 486.5053 184.1822 0.07
2024 7 2 -0.1200 488.2223 183.1002 0.0
2025 7 2 -0.1200 489.73030000000006 183.1002 0.0
2026 7 3 0.0600 487.8833 183.0302 -1.061
2027 7 3 0.0600 487.80030000000005 183.9882 0.509
2028 7 3 0.0600 490.10530000000006 184.0332 -0.4580000000000001
2029 7 3 0.0600 490.0133 183.0302 1.082
2030 7 2 -0.1200 491.7303 183.1002 0.0
2031 7 2 -0.1200 493.23830000000004 183.1002 0.0
2032 7 3 0.0600 491.3913 182.0392 0.07
2033 7 3 0.0600 491.30830000000003 183.6092 -0.888
2034 7 3 0.0600 493.61330000000004 182.6422 -0.933
2035 7 3 0.0600 493.5213 184.1822 0.07
2036 7 2 -0.1200 495.2383 183.1002 0.0
2037 7 2 -0.1200 496.7463 183.1002 0.0
2038 7 3 0.0600 494.8993 183.1702 -1.061
2039 7 3 0.0600 494.8163 182.2122 0.509
2040 7 3 0.0600 497.1213 182.1672 -0.45799999999999996
2041 7 3 0.0600 497.0293 183.1702 1.082
2042 7 2 -0.1200 498.7463 183.1002 0.0
2043 7 2 -0.1200 500.25430000000006 183.1002 0.0
2044 7 3 0.0600 498.4073 182.0392 -0.07
2045 7 3 0.0600 498.32430000000005 183.6092 0.888
2046 7 3 0.0600 500.62930000000006 182.6422 0.933
2047 7 3 0.0600 500.5373 184.1822 -0.07
2048 7 2 -0.1200 502.2543 183.1002 0.0
2049 7 2 -0.1200 503.76230000000004 183.1002 0.0
2050 7 3 0.0600 501.9153 183.0302 -1.061
2051 7 3 0.0600 501.83230000000003 183.9882 0.509
2052 7 3 0.0600 504.13730000000004 184.0332 -0.4580000000000001
2053 7 3 0.0600 504.0453 183.0302 1.082
2054 7 2 -0.1200 505.7623 183.1002 0.0
2055 7 2 -0.1200 507.2703 183.1002 0.0
2056 7 3 0.0600 505.4233 182.0392 0.07
2057 7 3 0.0600 505.3403 183.6092 -0.888
2058 7 3 0.0600 507.6453 182.6422 -0.933
2059 7 3 0.0600 507.5533 184.1822 0.07
2060 7 2 -0.1200 509.2703 183.1002 0.0
2061 7 2 -0.1200 510.77830000000006 183.1002 0.0
2062 7 3 0.0600 508.9313 183.0302 -1.061
2063 7 3 0.0600 508.84830000000005 183.9882 0.509
2064 7 3 0.0600 511.15330000000006 184.0332 -0.4580000000000001
2065 7 3 0.0600 511.0613 183.0302 1.082
2066 7 2 -0.1200 512.7783000000001 183.1002 0.0
2067 7 2 -0.1200 514.2863000000001 183.1002 0.0
2068 7 3 0.0600 512.4393000000001 182.0392 0.07
2069 7 3 0.0600 512.3563 183.6092 -0.888
2070 7 3 0.0600 514.6613000000001 182.6422 -0.933
2071 7 3 0.0600 514.5693000000001 184.1822 0.07
2072 7 2 -0.1200 516.2863 183.1002 0.0
2073 7 2 -0.1200 517.7943 183.1002 0.0
2074 7 3 0.0600 515.9473 183.0302 -1.061
2075 7 3 0.0600 515.8643 183.9882 0.509
2076 7 3 0.0600 518.1693 184.0332 -0.4580000000000001
2077 7 3 0.0600 518.0773 183.0302 1.082
2078 7 2 -0.1200 519.7943 183.1002 0.0
2079 7 2 -0.1200 521.3023000000001 183.1002 0.0
2080 7 3 0.0600 519.4553000000001 182.0392 0.07
2081 7 3 0.0600 519.3723 183.6092 -0.888
2082 7 3 0.0600 521.6773000000001 182.6422 -0.933
2083 7 3 0.0600 521.5853000000001 184.1822 0.07
2084 7 2 -0.1200 523.3023 183.1002 0.0
2085 7 2 -0.1200 524.8103 183.1002 0.0
2086 7 3 0.0600 522.9633 183.0302 -1.061
2087 7 3 0.0600 522.8802999999999 183.9882 0.509
2088 7 3 0.0600 525.1853 184.0332 -0.4580000000000001
2089 7 3 0.0600 525.0933 183.0302 1.082
2090 7 2 -0.1200 526.8103 183.1002 0.0
2091 7 2 -0.1200 528.3183 183.1002 0.0
2092 7 3 0.0600 526.4713 182.0392 -0.07
2093 7 3 0.0600 526.3883 183.6092 0.888
2094 7 3 0.0600 528.6933 182.6422 0.933
2095 7 3 0.0600 528.6013 184.1822 -0.07
2096 7 2 -0.1200 530.3183 183.1002 0.0
2097 7 2 -0.1200 531.8263000000001 183.1002 0.0
2098 7 3 0.0600 529.9793000000001 183.0302 -1.061
2099 7 3 0.0600 529.8963 183.9882 0.509
2100 7 3 0.0600 532.2013000000001 184.0332 -0.4580000000000001
2101 7 3 0.0600 532.1093000000001 183.0302 1.082
2102 7 2 -0.1200 533.8263000000001 183.1002 0.0
2103 7 2 -0.1200 535.3343000000001 183.1002 0.0
2104 7 3 0.0600 533.4873000000001 182.0392 -0.07
2105 7 3 0.0600 533.4043 183.6092 0.888
2106 7 3 0.0600 535.7093000000001 182.6422 0.933
2107 7 3 0.0600 535.6173000000001 184.1822 -0.07
2108 7 2 -0.1200 537.0053 183.1002 0.0
2109 7 1 -0.1800 538.3393 183.8312 0.0009999999999999554
2110 7 3 0.0600 536.3443 183.5632 0.776
2111 7 3 0.0600 536.5213 183.34120000000001 -0.969
2112 7 3 0.0600 538.3963 184.5012 0.8769999999999999
2113 7 3 0.0600 538.4663 184.4802 -0.8920000000000001
2114 7 3 0.0600 539.1713 183.1002 0.0
2115 8 1 -0.1800 548.5485000000001 183.1002 0.0
2116 8 2 -0.1200 550.0525 183.1002 0.0
2117 8 3 0.0600 548.1975000000001 183.5702 -0.954
2118 8 3 0.0600 548.1675 183.7342 0.836
2119 8 3 0.0600 548.1285 182.0772 0.096
2120 8 3 0.0600 550.4185000000001 184.0782 0.354
2121 8 3 0.0600 550.5015000000001 182.2512 0.533
2122 8 2 -0.1200 552.0505 183.1002 0.0
2123 8 2 -0.1200 553.5585000000001 183.1002 0.0
2124 8 3 0.0600 551.7115000000001 183.0302 -1.061
2125 8 3 0.0600 551.6285 183.9882 0.509
2126 8 3 0.0600 553.9335000000001 184.0332 -0.4580000000000001
2127 8 3 0.0600 553.8415000000001 183.0302 1.082
2128 8 2 -0.1200 555.5585 183.1002 0.0
2129 8 2 -0.1200 557.0665 183.1002 0.0
2130 8 3 0.0600 555.2195 182.0392 0.07
2131 8 3 0.0600 555.1365 183.6092 -0.888
2132 8 3 0.0600 557.4415 182.6422 -0.933
2133 8 3 0.0600 557.3495 184.1822 0.07
2134 8 2 -0.1200 559.0665 183.1002 0.0
2135 8 2 -0.1200 560.5745000000001 183.1002 0.0
2136 8 3 0.0600 558.7275000000001 183.0302 -1.061
2137 8 3 0.0600 558.6445 183.9882 0.509
2138 8 3 0.0600 560.9495000000001 184.0332 -0.4580000000000001
2139 8 3 0.0600 560.8575000000001 183.0302 1.082
2140 8 2 -0.1200 562.5745000000001 183.1002 0.0
2141 8 2 -0.1200 564.0825000000001 183.1002 0.0
2142 8 3 0.0600 562.2355000000001 182.0392 -0.07
2143 8 3 0.0600 562.1525 183.6092 0.888
2144 8 3 0.0600 564.4575000000001 182.6422 0.933
2145 8 3 0.0600 564.3655000000001 184.1822 -0.07
2146 8 2 -0.1200 566.0825000000001 183.1002 0.0
2147 8 2 -0.1200 567.5905000000001 183.1002 0.0
2148 8 3 0.0600 565.7435000000002 183.0302 -1.061
2149 8 3 0.0600 565.6605000000001 183.9882 0.509
2150 8 3 0.0600 567.9655000000001 184.0332 -0.4580000000000001
2151 8 3 0.0600 567.8735000000001 183.0302 1.082
2152 8 2 -0.1200 569.5905 183.1002 0.0
2153 8 2 -0.1200 571.0985000000001 183.1002 0.0
2154 8 3 0.0600 569.2515000000001 182.0392 0.07
2155 8 3 0.0600 569.1685 183.6092 -0.888
2156 8 3 0.0600 571.4735000000001 182.6422 -0.933
2157 8 3 0.0600 571.3815000000001 184.1822 0.07
2158 8 2 -0.1200 573.0985000000001 183.1002 0.0
2159 8 2 -0.1200 574.6065000000001 183.1002 0.0
2160 8 3 0.0600 572.7595000000001 183.1702 -1.061
2161 8 3 0.0600 572.6765 182.2122 0.509
2162 8 3 0.0600 574.9815000000001 182.1672 -0.45799999999999996
2163 8 3 0.0600 574.8895000000001 183.1702 1.082
2164 8 2 -0.1200 576.6065 183.1002 0.0
2165 8 2 -0.1200 578.1145 183.1002 0.0
2166 8 3 0.0600 576.2675 182.0392 -0.07
2167 8 3 0.0600 576.1845 183.6092 0.888
2168 8 3 0.0600 578.4895 182.6422 0.933
2169 8 3 0.0600 578.3975 184.1822 -0.07
2170 8 2 -0.1200 580.1145 183.1002 0.0
2171 8 2 -0.1200 581.6225000000001 183.1002 0.0
2172 8 3 0.0600 579.7755000000001 183.1702 -1.061
2173 8 3 0.0600 579.6925 182.2122 0.509
2174 8 3 0.0600 581.9975000000001 182.1672 -0.45799999999999996
2175 8 3 0.0600 581.9055000000001 183.1702 1.082
2176 8 2 -0.1200 583.6225000000001 183.1002 0.0
2177 8 2 -0.1200 585.1305000000001 183.1002 0.0
2178 8 3 0.0600 583.2835000000001 182.0392 0.07
2179 8 3 0.0600 583.2005 183.6092 -0.888
2180 8 3 0.0600 585.5055000000001 182.6422 -0.933
2181 8 3 0.0600 585.4135000000001 184.1822 0.07
2182 8 2 -0.1200 587.1305000000001 183.1002 0.0
2183 8 2 -0.1200 588.6385000000001 183.1002 0.0
2184 8 3 0.0600 586.7915000000002 183.0302 -1.061
2185 8 3 0.0600 586.7085000000001 183.9882 0.509
2186 8 3 0.0600 589.0135000000001 184.0332 -0.4580000000000001
2187 8 3 0.0600 588.9215000000002 183.0302 1.082
2188 8 2 -0.1200 590.6385 183.1002 0.0
2189 8 2 -0.1200 592.1465000000001 183.1002 0.0
2190 8 3 0.0600 590.2995000000001 182.0392 -0.07
2191 8 3 0.0600 590.2165 183.6092 0.888
2192 8 3 0.0600 592.5215000000001 182.6422 0.933
2193 8 3 0.0600 592.4295000000001 184.1822 -0.07
2194 8 2 -0.1200 594.1465000000001 183.1002 0.0
2195 8 2 -0.1200 595.6545000000001 183.1002 0.0
2196 8 3 0.0600 593.8075000000001 183.0302 -1.061
2197 8 3 0.0600 593.7245 183.9882 0.509
2198 8 3 0.0600 596.0295000000001 184.0332 -0.4580000000000001
2199 8 3 0.0600 595.9375000000001 183.0302 1.082
2200 8 2 -0.1200 597.6545 183.1002 0.0
2201 8 2 -0.1200 599.1625 183.1002 0.0
2202 8 3 0.0600 597.3155 182.0392 -0.07
2203 8 3 0.0600 597.2325 183.6092 0.888
2204 8 3 0.0600 599.5375 182.6422 0.933
2205 8 3 0.0600 599.4455 184.1822 -0.07
2206 8 2 -0.1200 601.1625 183.1002 0.0
2207 8 2 -0.1200 602.6705000000001 183.1002 0.0
2208 8 3 0.0600 600.8235000000001 183.0302 -1.061
2209 8 3 0.0600 600.7405 183.9882 0.509
2210 8 3 0.0600 603.0455000000001 184.0332 -0.4580000000000001
2211 8 3 0.0600 602.9535000000001 183.0302 1.082
2212 8 2 -0.1200 604.6705000000001 183.1002 0.0
2213 8 2 -0.1200 606.1785000000001 183.1002 0.0
2214 8 3 0.0600 604.3315000000001 182.0392 -0.07
2215 8 3 0.0600 604.2485 183.6092 0.888
2216 8 3 0.0600 606.5535000000001 182.6422 0.933
2217 8 3 0.0600 606.4615000000001 184.1822 -0.07
2218 8 2 -0.1200 608.1785 183.1002 0.0
2219 8 2 -0.1200 609.6865 183.1002 0.0
2220 8 3 0.0600 607.8395 183.1702 -1.061
2221 8 3 0.0600 607.7565 182.2122 0.509
2222 8 3 0.0600 610.0615 182.1672 -0.45799999999999996
2223 8 3 0.0600 609.9695 183.1702 1.082
2224 8 2 -0.1200 611.6865 183.1002 0.0
2225 8 2 -0.1200 613.1945000000001 183.1002 0.0
2226 8 3 0.0600 611.3475000000001 182.0392 0.07
2227 8 3 0.0600 611.2645 183.6092 -0.888
2228 8 3 0.0600 613.5695000000001 182.6422 -0.933
2229 8 3 0.0600 613.4775000000001 184.1822 0.07
2230 8 2 -0.1200 615.1945000000001 183.1002 0.0
2231 8 2 -0.1200 616.7025000000001 183.1002 0.0
2232 8 3 0.0600 614.8555000000001 183.1702 -1.061
2233 8 3 0.0600 614.7725 182.2122 0.509
2234 8 3 0.0600 617.0775000000001 182.1672 -0.45799999999999996
2235 8 3 0.0600 616.9855000000001 183.1702 1.082
2236 8 2 -0.1200 618.7025 183.1002 0.0
2237 8 2 -0.1200 620.2105 183.1002 0.0
2238 8 3 0.0600 618.3635 182.0392 -0.07
2239 8 3 0.0600 618.2805 183.6092 0.888
2240 8 3 0.0600 620.5855 182.6422 0.933
2241 8 3 0.0600 620.4935 184.1822 -0.07
2242 8 2 -0.1200 622.2105 183.1002 0.0
2243 8 2 -0.1200 623.7185000000001 183.1002 0.0
2244 8 3 0.0600 621.8715000000001 183.1702 -1.061
2245 8 3 0.0600 621.7885 182.2122 0.509
2246 8 3 0.0600 624.0935000000001 182.1672 -0.45799999999999996
2247 8 3 0.0600 624.0015000000001 183.1702 1.082
2248 8 2 -0.1200 625.7185000000001 183.1002 0.0
2249 8 2 -0.1200 627.2265000000001 183.1002 0.0
2250 8 3 0.0600 625.3795000000001 182.0392 0.07
2251 8 3 0.0600 625.2965 183.6092 -0.888
2252 8 3 0.0600 627.6015000000001 182.6422 -0.933
2253 8 3 0.0600 627.5095000000001 184.1822 0.07
2254 8 2 -0.1200 629.2265000000001 183.1002 0.0
2255 8 2 -0.1200 630.7345000000001 183.1002 0.0
2256 8 3 0.0600 628.8875000000002 183.0302 -1.061
2257 8 3 0.0600 628.8045000000001 183.9882 0.509
2258 8 3 0.0600 631.1095000000001 184.0332 -0.4580000000000001
2259 8 3 0.0600 631.0175000000002 183.0302 1.082
2260 8 2 -0.1200 632.7345 183.1002 0.0
2261 8 2 -0.1200 634.2425000000001 183.1002 0.0
2262 8 3 0.0600 632.3955000000001 182.0392 0.07
2263 8 3 0.0600 632.3125 183.6092 -0.888
2264 8 3 0.0600 634.6175000000001 182.6422 -0.933
2265 8 3 0.0600 634.5255000000001 184.1822 0.07
2266 8 2 -0.1200 636.2425000000001 183.1002 0.0
2267 8 2 -0.1200 637.7505000000001 183.1002 0.0
2268 8 3 0.0600 635.9035000000001 183.0302 -1.061
2269 8 3 0.0600 635.8205 183.9882 0.509
2270 8 3 0.0600 638.1255000000001 184.0332 -0.4580000000000001
2271 8 3 0.0600 638.0335000000001 183.0302 1.082
2272 8 2 -0.1200 639.7505 183.1002 0.0
2273 8 2 -0.1200 641.2585 183.1002 0.0
2274 8 3 0.0600 639.4115 182.0392 -0.07
2275 8 3 0.0600 639.3285 183.6092 0.888
2276 8 3 0.0600 641.6335 182.6422 0.933
2277 8 3 0.0600 641.5415 184.1822 -0.07
2278 8 2 -0.1200 643.2585 183.1002 0.0
2279 8 2 -0.1200 644.7665000000001 183.1002 0.0
2280 8 3 0.0600 642.9195000000001 183.1702 -1.061
2281 8 3 0.0600 642.8365 182.2122 0.509
2282 8 3 0.0600 645.1415000000001 182.1672 -0.45799999999999996
2283 8 3 0.0600 645.0495000000001 183.1702 1.082
2284 8 2 -0.1200 646.7665000000001 183.1002 0.0
2285 8 2 -0.1200 648.2745000000001 183.1002 0.0
2286 8 3 0.0600 646.4275000000001 182.0392 -0.07
2287 8 3 0.0600 646.3445 183.6092 0.888
2288 8 3 0.0600 648.6495000000001 182.6422 0.933
2289 8 3 0.0600 648.5575000000001 184.1822 -0.07
2290 8 2 -0.1200 650.2745 183.1002 0.0
2291 8 2 -0.1200 651.7825 183.1002 0.0
2292 8 3 0.0600 649.9355 183.0302 -1.061
2293 8 3 0.0600 649.8525 183.9882 0.509
2294 8 3 0.0600 652.1575 184.0332 -0.4580000000000001
2295 8 3 0.0600 652.0655 183.0302 1.082
2296 8 2 -0.1200 653.7825 183.1002 0.0
2297 8 2 -0.1200 655.2905000000001 183.1002 0.0
2298 8 3 0.0600 653.4435000000001 182.0392 -0.07
2299 8 3 0.0600 653.3605 183.6092 0.888
2300 8 3 0.0600 655.6655000000001 182.6422 0.933
2301 8 3 0.0600 655.5735000000001 184.1822 -0.07
2302 8 2 -0.1200 657.2905000000001 183.1002 0.0
2303 8 2 -0.1200 658.7985000000001 183.1002 0.0
2304 8 3 0.0600 656.9515000000001 183.0302 -1.061
2305 8 3 0.0600 656.8685 183.9882 0.509
2306 8 3 0.0600 659.1735000000001 184.0332 -0.4580000000000001
2307 8 3 0.0600 659.0815000000001 183.0302 1.082
2308 8 2 -0.1200 660.7985 183.1002 0.0
2309 8 2 -0.1200 662.3065 183.1002 0.0
2310 8 3 0.0600 660.4595 182.0392 -0.07
2311 8 3 0.0600 660.3765 183.6092 0.888
2312 8 3 0.0600 662.6815 182.6422 0.933
2313 8 3 0.0600 662.5895 184.1822 -0.07
2314 8 2 -0.1200 664.3065 183.1002 0.0
2315 8 2 -0.1200 665.8145000000001 183.1002 0.0
2316 8 3 0.0600 663.9675000000001 183.0302 -1.061
2317 8 3 0.0600 663.8845 183.9882 0.509
2318 8 3 0.0600 666.1895000000001 184.0332 -0.4580000000000001
2319 8 3 0.0600 666.0975000000001 183.0302 1.082
2320 8 2 -0.1200 667.8145000000001 183.1002 0.0
2321 8 2 -0.1200 669.3225000000001 183.1002 0.0
2322 8 3 0.0600 667.4755000000001 182.0392 0.07
2323 8 3 0.0600 667.3925 183.6092 -0.888
2324 8 3 0.0600 669.6975000000001 182.6422 -0.933
2325 8 3 0.0600 669.6055000000001 184.1822 0.07
2326 8 2 -0.1200 671.3225 183.1002 0.0
2327 8 2 -0.1200 672.8305 183.1002 0.0
2328 8 3 0.0600 670.9835 183.1702 -1.061
2329 8 3 0.0600 670.9005 182.2122 0.509
2330 8 3 0.0600 673.2055 182.1672 -0.45799999999999996
2331 8 3 0.0600 673.1135 183.1702 1.082
2332 8 2 -0.1200 674.8305 183.1002 0.0
2333 8 2 -0.1200 676.3385000000001 183.1002 0.0
2334 8 3 0.0600 674.4915000000001 182.0392 -0.07
2335 8 3 0.0600 674.4085 183.6092 0.888
2336 8 3 0.0600 676.7135000000001 182.6422 0.933
2337 8 3 0.0600 676.6215000000001 184.1822 -0.07
2338 8 2 -0.1200 678.3385000000001 183.1002 0.0
2339 8 2 -0.1200 679.8465000000001 183.1002 0.0
2340 8 3 0.0600 677.9995000000001 183.1702 -1.061
2341 8 3 0.0600 677.9165 182.2122 0.509
2342 8 3 0.0600 680.2215000000001 182.1672 -0.45799999999999996
2343 8 3 0.0600 680.1295000000001 183.1702 1.082
2344 8 2 -0.1200 681.8465 183.1002 0.0
2345 8 2 -0.1200 683.3545 183.1002 0.0
2346 8 3 0.0600 681.5075 182.0392 0.07
2347 8 3 0.0600 681.4245 183.6092 -0.888
2348 8 3 0.0600 683.7295 182.6422 -0.933
2349 8 3 0.0600 683.6375 184.1822 0.07
2350 8 2 -0.1200 685.3545 183.1002 0.0
2351 8 2 -0.1200 686.8625000000001 183.1002 0.0
2352 8 3 0.0600 685.0155000000001 183.1702 -1.061
2353 8 3 0.0600 684.9325 182.2122 0.509
2354 8 3 0.0600 687.2375000000001 182.1672 -0.45799999999999996
2355 8 3 0.0600 687.1455000000001 183.1702 1.082
2356 8 2 -0.1200 688.8625000000001 183.1002 0.0
2357 8 2 -0.1200 690.3705000000001 183.1002 0.0
2358 8 3 0.0600 688.5235000000001 182.0392 -0.07
2359 8 3 0.0600 688.4405 183.6092 0.888
2360 8 3 0.0600 690.7455000000001 182.6422 0.933
2361 8 3 0.0600 690.6535000000001 184.1822 -0.07
2362 8 2 -0.1200 692.3705000000001 183.1002 0.0
2363 8 2 -0.1200 693.8785000000001 183.1002 0.0
2364 8 3 0.0600 692.0315000000002 183.0302 -1.061
2365 8 3 0.0600 691.9485000000001 183.9882 0.509
2366 8 3 0.0600 694.2535000000001 184.0332 -0.4580000000000001
2367 8 3 0.0600 694.1615000000002 183.0302 1.082
2368 8 2 -0.1200 695.8785 183.1002 0.0
2369 8 2 -0.1200 697.3865000000001 183.1002 0.0
2370 8 3 0.0600 695.5395000000001 182.0392 0.07
2371 8 3 0.0600 695.4565 183.6092 -0.888
2372 8 3 0.0600 697.7615000000001 182.6422 -0.933
2373 8 3 0.0600 697.6695000000001 184.1822 0.07
2374 8 2 -0.1200 699.3865000000001 183.1002 0.0
2375 8 2 -0.1200 700.8945000000001 183.1002 0.0
2376 8 3 0.0600 699.0475000000001 183.0302 -1.061
2377 8 3 0.0600 698.9645 183.9882 0.509
2378 8 3 0.0600 701.2695000000001 184.0332 -0.4580000000000001
2379 8 3 0.0600 701.1775000000001 183.0302 1.082
2380 8 2 -0.1200 702.8945 183.1002 0.0
2381 8 2 -0.1200 704.4025 183.1002 0.0
2382 8 3 0.0600 702.5555 182.0392 0.07
2383 8 3 0.0600 702.4725 183.6092 -0.888
2384 8 3 0.0600 704.7775 182.6422 -0.933
2385 8 3 0.0600 704.6855 184.1822 0.07
2386 8 2 -0.1200 706.4025 183.1002 0.0
2387 8 2 -0.1200 707.9105000000001 183.1002 0.0
2388 8 3 0.0600 706.0635000000001 183.1702 -1.061
2389 8 3 0.0600 705.9805 182.2122 0.509
2390 8 3 0.0600 708.2855000000001 182.1672 -0.45799999999999996
2391 8 3 0.0600 708.1935000000001 183.1702 1.082
2392 8 2 -0.1200 709.9105000000001 183.1002 0.0
2393 8 2 -0.1200 711.4185000000001 183.1002 0.0
2394 8 3 0.0600 709.5715000000001 182.0392 0.07
2395 8 3 0.0600 709.4885 183.6092 -0.888
2396 8 3 0.0600 711.7935000000001 182.6422 -0.933
2397 8 3 0.0600 711.7015000000001 184.1822 0.07
2398 8 2 -0.1200 713.4185000000001 183.1002 0.0
2399 8 2 -0.1200 714.9265000000001 183.1002 0.0
2400 8 3 0.0600 713.0795000000002 183.1702 -1.061
2401 8 3 0.0600 712.9965000000001 182.2122 0.509
2402 8 3 0.0600 715.3015000000001 182.1672 -0.45799999999999996
2403 8 3 0.0600 715.2095000000002 183.1702 1.082
2404 8 2 -0.1200 716.9265 183.1002 0.0
2405 8 2 -0.1200 718.4345000000001 183.1002 0.0
2406 8 3 0.0600 716.5875000000001 182.0392 0.07
2407 8 3 0.0600 716.5045 183.6092 -0.888
2408 8 3 0.0600 718.8095000000001 182.6422 -0.933
2409 8 3 0.0600 718.7175000000001 184.1822 0.07
2410 8 2 -0.1200 720.1055000000001 183.1002 0.0
2411 8 1 -0.1800 721.4395000000001 183.8312 0.0009999999999999554
2412 8 3 0.0600 719.4445000000001 183.5632 0.776
2413 8 3 0.0600 719.6215000000001 183.34120000000001 -0.969
2414 8 3 0.0600 721.4965000000001 184.5012 0.8769999999999999
2415 8 3 0.0600 721.5665000000001 184.4802 -0.8920000000000001
2416 8 3 0.0600 722.2715000000001 183.1002 0.0
2417 9 1 -0.1800 -0.752 366.2003 0.0
2418 9 2 -0.1200 0.752 366.2003 0.0
2419 9 3 0.0600 -1.103 366.67030000000005 -0.954
2420 9 3 0.0600 -1.133 366.83430000000004 0.836
2421 9 3 0.0600 -1.172 365.1773 0.096
2422 9 3 0.0600 1.118 367.17830000000004 0.354
2423 9 3 0.0600 1.201 365.35130000000004 0.533
2424 9 2 -0.1200 2.75 366.2003 0.0
2425 9 2 -0.1200 4.258 366.2003 0.0
2426 9 3 0.0600 2.411 366.2703 -1.061
2427 9 3 0.0600 2.3280000000000003 365.31230000000005 0.509
2428 9 3 0.0600 4.633 365.26730000000003 -0.45799999999999996
2429 9 3 0.0600 4.541 366.2703 1.082
2430 9 2 -0.1200 6.257999999999999 366.2003 0.0
2431 9 2 -0.1200 7.766 366.2003 0.0
2432 9 3 0.0600 5.919 365.13930000000005 0.07
2433 9 3 0.0600 5.835999999999999 366.70930000000004 -0.888
2434 9 3 0.0600 8.141 365.7423 -0.933
2435 9 3 0.0600 8.049 367.2823 0.07
2436 9 2 -0.1200 9.766 366.2003 0.0
2437 9 2 -0.1200 11.274 366.2003 0.0
2438 9 3 0.0600 9.427 366.13030000000003 -1.061
2439 9 3 0.0600 9.344 367.0883 0.509
2440 9 3 0.0600 11.649 367.1333 -0.4580000000000001
2441 9 3 0.0600 11.556999999999999 366.13030000000003 1.082
2442 9 2 -0.1200 13.274000000000001 366.2003 0.0
2443 9 2 -0.1200 14.782 366.2003 0.0
2444 9 3 0.0600 12.935 365.13930000000005 -0.07
2445 9 3 0.0600 12.852 366.70930000000004 0.888
2446 9 3 0.0600 15.157 365.7423 0.933
2447 9 3 0.0600 15.065000000000001 367.2823 -0.07
2448 9 2 -0.1200 16.782 366.2003 0.0
2449 9 2 -0.1200 18.290000000000003 366.2003 0.0
2450 9 3 0.0600 16.443 366.2703 -1.061
2451 9 3 0.0600 16.360000000000003 365.31230000000005 0.509
2452 9 3 0.0600 18.665000000000003 365.26730000000003 -0.45799999999999996
2453 9 3 0.0600 18.573 366.2703 1.082
2454 9 2 -0.1200 20.29 366.2003 0.0
2455 9 2 -0.1200 21.798000000000002 366.2003 0.0
2456 9 3 0.0600 19.951 365.13930000000005 0.07
2457 9 3 0.0600 19.868000000000002 366.70930000000004 -0.888
2458 9 3 0.0600 22.173000000000002 365.7423 -0.933
2459 9 3 0.0600 22.081 367.2823 0.07
2460 9 2 -0.1200 23.798 366.2003 0.0
2461 9 2 -0.1200 25.306 366.2003 0.0
2462 9 3 0.0600 23.459 366.2703 -1.061
2463 9 3 0.0600 23.376 365.31230000000005 0.509
2464 9 3 0.0600 25.681 365.26730000000003 -0.45799999999999996
2465 9 3 0.0600 25.589 366.2703 1.082
2466 9 2 -0.1200 27.305999999999997 366.2003 0.0
2467 9 2 -0.1200 28.814 366.2003 0.0
2468 9 3 0.0600 26.967 365.13930000000005 0.07
2469 9 3 0.0600 26.884 366.70930000000004 -0.888
2470 9 3 0.0600 29.189 365.7423 -0.933
2471 9 3 0.0600 29.096999999999998 367.2823 0.07
2472 9 2 -0.1200 30.814 366.2003 0.0
2473 9 2 -0.1200 32.322 366.2003 0.0
2474 9 3 0.0600 30.475 366.2703 -1.061
2475 9 3 0.0600 30.392000000000003 365.31230000000005 0.509
2476 9 3 0.0600 32.697 365.26730000000003 -0.45799999999999996
2477 9 3 0.0600 32.605000000000004 366.2703 1.082
2478 9 2 -0.1200 34.322 366.2003 0.0
2479 9 2 -0.1200 35.83 366.2003 0.0
2480 9 3 0.0600 33.983000000000004 365.13930000000005 0.07
2481 9 3 0.0600 33.9 366.70930000000004 -0.888
2482 9 3 0.0600 36.205 365.7423 -0.933
2483 9 3 0.0600 36.113 367.2823 0.07
2484 9 2 -0.1200 37.830000000000005 366.2003 0.0
2485 9 2 -0.1200 39.338 366.2003 0.0
2486 9 3 0.0600 37.491 366.13030000000003 -1.061
2487 9 3 0.0600 37.408 367.0883 0.509
2488 9 3 0.0600 39.713 367.1333 -0.4580000000000001
2489 9 3 0.0600 39.621 366.13030000000003 1.082
2490 9 2 -0.1200 41.338 366.2003 0.0
2491 9 2 -0.1200 42.846 366.2003 0.0
2492 9 3 0.0600 40.998999999999995 365.13930000000005 -0.07
2493 9 3 0.0600 40.916 366.70930000000004 0.888
2494 9 3 0.0600 43.221 365.7423 0.933
2495 9 3 0.0600 43.129 367.2823 -0.07
2496 9 2 -0.1200 44.846000000000004 366.2003 0.0
2497 9 2 -0.1200 46.354 366.2003 0.0
2498 9 3 0.0600 44.507000000000005 366.13030000000003 -1.061
2499 9 3 0.0600 44.424 367.0883 0.509
2500 9 3 0.0600 46.729 367.1333 -0.4580000000000001
2501 9 3 0.0600 46.637 366.13030000000003 1.082
2502 9 2 -0.1200 48.354 366.2003 0.0
2503 9 2 -0.1200 49.861999999999995 366.2003 0.0
2504 9 3 0.0600 48.015 365.13930000000005 0.07
2505 9 3 0.0600 47.931999999999995 366.70930000000004 -0.888
2506 9 3 0.0600 50.236999999999995 365.7423 -0.933
2507 9 3 0.0600 50.144999999999996 367.2823 0.07
2508 9 2 -0.1200 51.862 366.2003 0.0
2509 9 2 -0.1200 53.37 366.2003 0.0
2510 9 3 0.0600 51.522999999999996 366.2703 -1.061
2511 9 3 0.0600 51.44 365.31230000000005 0.509
2512 9 3 0.0600 53.745 365.26730000000003 -0.45799999999999996
2513 9 3 0.0600 53.653 366.2703 1.082
2514 9 2 -0.1200 55.370000000000005 366.2003 0.0
2515 9 2 -0.1200 56.878 366.2003 0.0
2516 9 3 0.0600 55.031000000000006 365.13930000000005 0.07
2517 9 3 0.0600 54.948 366.70930000000004 -0.888
2518 9 3 0.0600 57.253 365.7423 -0.933
2519 9 3 0.0600 57.161 367.2823 0.07
2520 9 2 -0.1200 58.878 366.2003 0.0
2521 9 2 -0.1200 60.385999999999996 366.2003 0.0
2522 9 3 0.0600 58.539 366.2703 -1.061
2523 9 3 0.0600 58.455999999999996 365.31230000000005 0.509
2524 9 3 0.0600 60.760999999999996 365.26730000000003 -0.45799999999999996
2525 9 3 0.0600 60.669 366.2703 1.082
2526 9 2 -0.1200 62.386 366.2003 0.0
2527 9 2 -0.1200 63.894 366.2003 0.0
2528 9 3 0.0600 62.047 365.13930000000005 -0.07
2529 9 3 0.0600 61.964 366.70930000000004 0.888
2530 9 3 0.0600 64.269 365.7423 0.933
2531 9 3 0.0600 64.177 367.2823 -0.07
2532 9 2 -0.1200 65.89399999999999 366.2003 0.0
2533 9 2 -0.1200 67.402 366.2003 0.0
2534 9 3 0.0600 65.55499999999999 366.2703 -1.061
2535 9 3 0.0600 65.472 365.31230000000005 0.509
2536 9 3 0.0600 67.777 365.26730000000003 -0.45799999999999996
2537 9 3 0.0600 67.685 366.2703 1.082
2538 9 2 -0.1200 69.402 366.2003 0.0
2539 9 2 -0.1200 70.91000000000001 366.2003 0.0
2540 9 3 0.0600 69.063 365.13930000000005 -0.07
2541 9 3 0.0600 68.98 366.70930000000004 0.888
2542 9 3 0.0600 71.28500000000001 365.7423 0.933
2543 9 3 0.0600 71.19300000000001 367.2823 -0.07
2544 9 2 -0.1200 72.91 366.2003 0.0
2545 9 2 -0.1200 74.418 366.2003 0.0
2546 9 3 0.0600 72.571 366.13030000000003 -1.061
2547 9 3 0.0600 72.488 367.0883 0.509
2548 9 3 0.0600 74.793 367.1333 -0.4580000000000001
2549 9 3 0.0600 74.70100000000001 366.13030000000003 1.082
2550 9 2 -0.1200 76.41799999999999 366.2003 0.0
2551 9 2 -0.1200 77.926 366.2003 0.0
2552 9 3 0.0600 76.079 365.13930000000005 0.07
2553 9 3 0.0600 75.996 366.70930000000004 -0.888
2554 9 3 0.0600 78.301 365.7423 -0.933
2555 9 3 0.0600 78.209 367.2823 0.07
2556 9 2 -0.1200 79.926 366.2003 0.0
2557 9 2 -0.1200 81.43400000000001 366.2003 0.0
2558 9 3 0.0600 79.587 366.13030000000003 -1.061
2559 9 3 0.0600 79.504 367.0883 0.509
2560 9 3 0.0600 81.80900000000001 367.1333 -0.4580000000000001
2561 9 3 0.0600 81.71700000000001 366.13030000000003 1.082
2562 9 2 -0.1200 83.434 366.2003 0.0
2563 9 2 -0.1200 84.94200000000001 366.2003 0.0
2564 9 3 0.0600 83.095 365.13930000000005 -0.07
2565 9 3 0.0600 83.012 366.70930000000004 0.888
2566 9 3 0.0600 85.31700000000001 365.7423 0.933
2567 9 3 0.0600 85.22500000000001 367.2823 -0.07
2568 9 2 -0.1200 86.942 366.2003 0.0
2569 9 2 -0.1200 88.45 366.2003 0.0
2570 9 3 0.0600 86.603 366.2703 -1.061
2571 9 3 0.0600 86.52 365.31230000000005 0.509
2572 9 3 0.0600 88.825 365.26730000000003 -0.45799999999999996
2573 9 3 0.0600 88.733 366.2703 1.082
2574 9 2 -0.1200 90.44999999999999 366.2003 0.0
2575 9 2 -0.1200 91.958 366.2003 0.0
2576 9 3 0.0600 90.11099999999999 365.13930000000005 -0.07
2577 9 3 0.0600 90.02799999999999 366.70930000000004 0.888
2578 9 3 0.0600 92.333 365.7423 0.933
2579 9 3 0.0600 92.241 367.2823 -0.07
2580 9 2 -0.1200 93.958 366.2003 0.0
2581 9 2 -0.1200 95.46600000000001 366.2003 0.0
2582 9 3 0.0600 93.619 366.13030000000003 -1.061
2583 9 3 0.0600 93.536 367.0883 0.509
2584 9 3 0.0600 95.84100000000001 367.1333 -0.4580000000000001
2585 9 3 0.0600 95.74900000000001 366.13030000000003 1.082
2586 9 2 -0.1200 97.466 366.2003 0.0
2587 9 2 -0.1200 98.974 366.2003 0.0
2588 9 3 0.0600 97.127 365.13930000000005 0.07
2589 9 3 0.0600 97.044 366.70930000000004 -0.888
2590 9 3 0.0600 99.349 365.7423 -0.933
2591 9 3 0.0600 99.257 367.2823 0.07
2592 9 2 -0.1200 100.97399999999999 366.2003 0.0
2593 9 2 -0.1200 102.482 366.2003 0.0
2594 9 3 0.0600 100.63499999999999 366.2703 -1.061
2595 9 3 0.0600 100.55199999999999 365.31230000000005 0.509
2596 9 3 0.0600 102.857 365.26730000000003 -0.45799999999999996
2597 9 3 0.0600 102.765 366.2703 1.082
2598 9 2 -0.1200 104.482 366.2003 0.0
2599 9 2 -0.1200 105.99000000000001 366.2003 0.0
2600 9 3 0.0600 104.143 365.13930000000005 0.07
2601 9 3 0.0600 104.06 366.70930000000004 -0.888
2602 9 3 0.0600 106.36500000000001 365.7423 -0.933
2603 9 3 0.0600 106.27300000000001 367.2823 0.07
2604 9 2 -0.1200 107.99 366.2003 0.0
2605 9 2 -0.1200 109.498 366.2003 0.0
2606 9 3 0.0600 107.651 366.2703 -1.061
2607 9 3 0.0600 107.568 365.31230000000005 0.509
2608 9 3 0.0600 109.873 365.26730000000003 -0.45799999999999996
2609 9 3 0.0600 109.781 366.2703 1.082
2610 9 2 -0.1200 111.49799999999999 366.2003 0.0
2611 9 2 -0.1200 113.006 366.2003 0.0
2612 9 3 0.0600 111.15899999999999 365.13930000000005 0.07
2613 9 3 0.0600 111.076 366.70930000000004 -0.888
2614 9 3 0.0600 113.381 365.7423 -0.933
2615 9 3 0.0600 113.289 367.2823 0.07
2616 9 2 -0.1200 115.006 366.2003 0.0
2617 9 2 -0.1200 116.51400000000001 366.2003 0.0
2618 9 3 0.0600 114.667 366.2703 -1.061
2619 9 3 0.0600 114.584 365.31230000000005 0.509
2620 9 3 0.0600 116.88900000000001 365.26730000000003 -0.45799999999999996
2621 9 3 0.0600 116.79700000000001 366.2703 1.082
2622 9 2 -0.1200 118.514 366.2003 0.0
2623 9 2 -0.1200 120.022 366.2003 0.0
2624 9 3 0.0600 118.175 365.13930000000005 0.07
2625 9 3 0.0600 118.092 366.70930000000004 -0.888
2626 9 3 0.0600 120.397 365.7423 -0.933
2627 9 3 0.0600 120.305 367.2823 0.07
2628 9 2 -0.1200 122.02199999999999 366.2003 0.0
2629 9 2 -0.1200 123.53 366.2003 0.0
2630 9 3 0.0600 121.68299999999999 366.2703 -1.061
2631 9 3 0.0600 121.6 365.31230000000005 0.509
2632 9 3 0.0600 123.905 365.26730000000003 -0.45799999999999996
2633 9 3 0.0600 123.813 366.2703 1.082
2634 9 2 -0.1200 125.53 366.2003 0.0
2635 9 2 -0.1200 127.03800000000001 366.2003 0.0
2636 9 3 0.0600 125.191 365.13930000000005 0.07
2637 9 3 0.0600 125.108 366.70930000000004 -0.888
2638 9 3 0.0600 127.41300000000001 365.7423 -0.933
2639 9 3 0.0600 127.32100000000001 367.2823 0.07
2640 9 2 -0.1200 129.038 366.2003 0.0
2641 9 2 -0.1200 130.546 366.2003 0.0
2642 9 3 0.0600 128.699 366.13030000000003 -1.061
2643 9 3 0.0600 128.616 367.0883 0.509
2644 9 3 0.0600 130.921 367.1333 -0.4580000000000001
2645 9 3 0.0600 130.829 366.13030000000003 1.082
2646 9 2 -0.1200 132.54600000000002 366.2003 0.0
2647 9 2 -0.1200 134.054 366.2003 0.0
2648 9 3 0.0600 132.20700000000002 365.13930000000005 0.07
2649 9 3 0.0600 132.12400000000002 366.70930000000004 -0.888
2650 9 3 0.0600 134.429 365.7423 -0.933
2651 9 3 0.0600 134.33700000000002 367.2823 0.07
2652 9 2 -0.1200 136.054 366.2003 0.0
2653 9 2 -0.1200 137.56199999999998 366.2003 0.0
2654 9 3 0.0600 135.715 366.2703 -1.061
2655 9 3 0.0600 135.632 365.31230000000005 0.509
2656 9 3 0.0600 137.93699999999998 365.26730000000003 -0.45799999999999996
2657 9 3 0.0600 137.845 366.2703 1.082
2658 9 2 -0.1200 139.562 366.2003 0.0
2659 9 2 -0.1200 141.07 366.2003 0.0
2660 9 3 0.0600 139.223 365.13930000000005 0.07
2661 9 3 0.0600 139.14000000000001 366.70930000000004 -0.888
2662 9 3 0.0600 141.445 365.7423 -0.933
2663 9 3 0.0600 141.353 367.2823 0.07
2664 9 2 -0.1200 143.07000000000002 366.2003 0.0
2665 9 2 -0.1200 144.578 366.2003 0.0
2666 9 3 0.0600 142.73100000000002 366.13030000000003 -1.061
2667 9 3 0.0600 142.64800000000002 367.0883 0.509
2668 9 3 0.0600 144.953 367.1333 -0.4580000000000001
2669 9 3 0.0600 144.86100000000002 366.13030000000003 1.082
2670 9 2 -0.1200 146.578 366.2003 0.0
2671 9 2 -0.1200 148.08599999999998 366.2003 0.0
2672 9 3 0.0600 146.239 365.13930000000005 0.07
2673 9 3 0.0600 146.156 366.70930000000004 -0.888
2674 9 3 0.0600 148.46099999999998 365.7423 -0.933
2675 9 3 0.0600 148.369 367.2823 0.07
2676 9 2 -0.1200 150.086 366.2003 0.0
2677 9 2 -0.1200 151.594 366.2003 0.0
2678 9 3 0.0600 149.747 366.13030000000003 -1.061
2679 9 3 0.0600 149.66400000000002 367.0883 0.509
2680 9 3 0.0600 151.969 367.1333 -0.4580000000000001
2681 9 3 0.0600 151.877 366.13030000000003 1.082
2682 9 2 -0.1200 153.59400000000002 366.2003 0.0
2683 9 2 -0.1200 155.102 366.2003 0.0
2684 9 3 0.0600 153.25500000000002 365.13930000000005 -0.07
2685 9 3 0.0600 153.17200000000003 366.70930000000004 0.888
2686 9 3 0.0600 155.477 365.7423 0.933
2687 9 3 0.0600 155.38500000000002 367.2823 -0.07
2688 9 2 -0.1200 157.102 366.2003 0.0
2689 9 2 -0.1200 158.60999999999999 366.2003 0.0
2690 9 3 0.0600 156.763 366.13030000000003 -1.061
2691 9 3 0.0600 156.68 367.0883 0.509
2692 9 3 0.0600 158.98499999999999 367.1333 -0.4580000000000001
2693 9 3 0.0600 158.893 366.13030000000003 1.082
2694 9 2 -0.1200 160.61 366.2003 0.0
2695 9 2 -0.1200 162.118 366.2003 0.0
2696 9 3 0.0600 160.27100000000002 365.13930000000005 -0.07
2697 9 3 0.0600 160.18800000000002 366.70930000000004 0.888
2698 9 3 0.0600 162.493 365.7423 0.933
2699 9 3 0.0600 162.401 367.2823 -0.07
2700 9 2 -0.1200 164.11800000000002 366.2003 0.0
2701 9 2 -0.1200 165.626 366.2003 0.0
2702 9 3 0.0600 163.77900000000002 366.2703 -1.061
2703 9 3 0.0600 163.69600000000003 365.31230000000005 0.509
2704 9 3 0.0600 166.001 365.26730000000003 -0.45799999999999996
2705 9 3 0.0600 165.90900000000002 366.2703 1.082
2706 9 2 -0.1200 167.626 366.2003 0.0
2707 9 2 -0.1200 169.134 366.2003 0.0
2708 9 3 0.0600 167.287 365.13930000000005 -0.07
2709 9 3 0.0600 167.204 366.70930000000004 0.888
2710 9 3 0.0600 169.509 365.7423 0.933
2711 9 3 0.0600 169.417 367.2823 -0.07
2712 9 2 -0.1200 170.805 366.2003 0.0
2713 9 1 -0.1800 172.139 366.9313 0.0009999999999999554
2714 9 3 0.0600 170.144 366.66330000000005 0.776
2715 9 3 0.0600 170.321 366.4413 -0.969
2716 9 3 0.0600 172.196 367.60130000000004 0.8769999999999999
2717 9 3 0.0600 172.266 367.5803 -0.8920000000000001
2718 9 3 0.0600 172.971 366.2003 0.0
2719 10 1 -0.1800 182.3482 366.2003 0.0
2720 10 2 -0.1200 183.8522 366.2003 0.0
2721 10 3 0.0600 181.9972 366.67030000000005 0.954
2722 10 3 0.0600 181.9672 366.83430000000004 -0.836
2723 10 3 0.0600 181.9282 365.1773 -0.096
2724 10 3 0.0600 184.2182 367.17830000000004 -0.354
2725 10 3 0.0600 184.3012 365.35130000000004 -0.533
2726 10 2 -0.1200 185.8502 366.2003 0.0
2727 10 2 -0.1200 187.35819999999998 366.2003 0.0
2728 10 3 0.0600 185.5112 366.2703 -1.061
2729 10 3 0.0600 185.4282 365.31230000000005 0.509
2730 10 3 0.0600 187.73319999999998 365.26730000000003 -0.45799999999999996
2731 10 3 0.0600 187.6412 366.2703 1.082
2732 10 2 -0.1200 189.3582 366.2003 0.0
2733 10 2 -0.1200 190.8662 366.2003 0.0
2734 10 3 0.0600 189.0192 365.13930000000005 -0.07
2735 10 3 0.0600 188.9362 366.70930000000004 0.888
2736 10 3 0.0600 191.2412 365.7423 0.933
2737 10 3 0.0600 191.1492 367.2823 -0.07
2738 10 2 -0.1200 192.86620000000002 366.2003 0.0
2739 10 2 -0.1200 194.3742 366.2003 0.0
2740 10 3 0.0600 192.52720000000002 366.13030000000003 -1.061
2741 10 3 0.0600 192.44420000000002 367.0883 0.509
2742 10 3 0.0600 194.7492 367.1333 -0.4580000000000001
2743 10 3 0.0600 194.65720000000002 366.13030000000003 1.082
2744 10 2 -0.1200 196.3742 366.2003 0.0
2745 10 2 -0.1200 197.88219999999998 366.2003 0.0
2746 10 3 0.0600 196.0352 365.13930000000005 0.07
2747 10 3 0.0600 195.9522 366.70930000000004 -0.888
2748 10 3 0.0600 198.25719999999998 365.7423 -0.933
2749 10 3 0.0600 198.1652 367.2823 0.07
2750 10 2 -0.1200 199.8822 366.2003 0.0
2751 10 2 -0.1200 201.3902 366.2003 0.0
2752 10 3 0.0600 199.5432 366.2703 -1.061
2753 10 3 0.0600 199.46020000000001 365.31230000000005 0.509
2754 10 3 0.0600 201.7652 365.26730000000003 -0.45799999999999996
2755 10 3 0.0600 201.6732 366.2703 1.082
2756 10 2 -0.1200 203.39020000000002 366.2003 0.0
2757 10 2 -0.1200 204.8982 366.2003 0.0
2758 10 3 0.0600 203.05120000000002 365.13930000000005 -0.07
2759 10 3 0.0600 202.96820000000002 366.70930000000004 0.888
2760 10 3 0.0600 205.2732 365.7423 0.933
2761 10 3 0.0600 205.18120000000002 367.2823 -0.07
2762 10 2 -0.1200 206.8982 366.2003 0.0
2763 10 2 -0.1200 208.40619999999998 366.2003 0.0
2764 10 3 0.0600 206.5592 366.2703 -1.061
2765 10 3 0.0600 206.4762 365.31230000000005 0.509
2766 10 3 0.0600 208.78119999999998 365.26730000000003 -0.45799999999999996
2767 10 3 0.0600 208.6892 366.2703 1.082
2768 10 2 -0.1200 210.4062 366.2003 0.0
2769 10 2 -0.1200 211.9142 366.2003 0.0
2770 10 3 0.0600 210.0672 365.13930000000005 0.07
2771 10 3 0.0600 209.98420000000002 366.70930000000004 -0.888
2772 10 3 0.0600 212.2892 365.7423 -0.933
2773 10 3 0.0600 212.1972 367.2823 0.07
2774 10 2 -0.1200 213.91420000000002 366.2003 0.0
2775 10 2 -0.1200 215.4222 366.2003 0.0
2776 10 3 0.0600 213.57520000000002 366.2703 -1.061
2777 10 3 0.0600 213.49220000000003 365.31230000000005 0.509
2778 10 3 0.0600 215.7972 365.26730000000003 -0.45799999999999996
2779 10 3 0.0600 215.70520000000002 366.2703 1.082
2780 10 2 -0.1200 217.4222 366.2003 0.0
2781 10 2 -0.1200 218.93019999999999 366.2003 0.0
2782 10 3 0.0600 217.0832 365.13930000000005 0.07
2783 10 3 0.0600 217.0002 366.70930000000004 -0.888
2784 10 3 0.0600 219.30519999999999 365.7423 -0.933
2785 10 3 0.0600 219.2132 367.2823 0.07
2786 10 2 -0.1200 220.9302 366.2003 0.0
2787 10 2 -0.1200 222.4382 366.2003 0.0
2788 10 3 0.0600 220.59120000000001 366.2703 -1.061
2789 10 3 0.0600 220.50820000000002 365.31230000000005 0.509
2790 10 3 0.0600 222.8132 365.26730000000003 -0.45799999999999996
2791 10 3 0.0600 222.7212 366.2703 1.082
2792 10 2 -0.1200 224.43820000000002 366.2003 0.0
2793 10 2 -0.1200 225.9462 366.2003 0.0
2794 10 3 0.0600 224.09920000000002 365.13930000000005 0.07
2795 10 3 0.0600 224.01620000000003 366.70930000000004 -0.888
2796 10 3 0.0600 226.3212 365.7423 -0.933
2797 10 3 0.0600 226.22920000000002 367.2823 0.07
2798 10 2 -0.1200 227.9462 366.2003 0.0
2799 10 2 -0.1200 229.4542 366.2003 0.0
2800 10 3 0.0600 227.6072 366.2703 -1.061
2801 10 3 0.0600 227.5242 365.31230000000005 0.509
2802 10 3 0.0600 229.8292 365.26730000000003 -0.45799999999999996
2803 10 3 0.0600 229.7372 366.2703 1.082
2804 10 2 -0.1200 231.45420000000001 366.2003 0.0
2805 10 2 -0.1200 232.9622 366.2003 0.0
2806 10 3 0.0600 231.11520000000002 365.13930000000005 -0.07
2807 10 3 0.0600 231.03220000000002 366.70930000000004 0.888
2808 10 3 0.0600 233.3372 365.7423 0.933
2809 10 3 0.0600 233.2452 367.2823 -0.07
2810 10 2 -0.1200 234.96220000000002 366.2003 0.0
2811 10 2 -0.1200 236.4702 366.2003 0.0
2812 10 3 0.0600 234.62320000000003 366.13030000000003 -1.061
2813 10 3 0.0600 234.54020000000003 367.0883 0.509
2814 10 3 0.0600 236.8452 367.1333 -0.4580000000000001
2815 10 3 0.0600 236.75320000000002 366.13030000000003 1.082
2816 10 2 -0.1200 238.4702 366.2003 0.0
2817 10 2 -0.1200 239.9782 366.2003 0.0
2818 10 3 0.0600 238.1312 365.13930000000005 -0.07
2819 10 3 0.0600 238.0482 366.70930000000004 0.888
2820 10 3 0.0600 240.3532 365.7423 0.933
2821 10 3 0.0600 240.2612 367.2823 -0.07
2822 10 2 -0.1200 241.97820000000002 366.2003 0.0
2823 10 2 -0.1200 243.4862 366.2003 0.0
2824 10 3 0.0600 241.63920000000002 366.13030000000003 -1.061
2825 10 3 0.0600 241.55620000000002 367.0883 0.509
2826 10 3 0.0600 243.8612 367.1333 -0.4580000000000001
2827 10 3 0.0600 243.7692 366.13030000000003 1.082
2828 10 2 -0.1200 245.48620000000003 366.2003 0.0
2829 10 2 -0.1200 246.9942 366.2003 0.0
2830 10 3 0.0600 245.14720000000003 365.13930000000005 0.07
2831 10 3 0.0600 245.06420000000003 366.70930000000004 -0.888
2832 10 3 0.0600 247.3692 365.7423 -0.933
2833 10 3 0.0600 247.27720000000002 367.2823 0.07
2834 10 2 -0.1200 248.9942 366.2003 0.0
2835 10 2 -0.1200 250.5022 366.2003 0.0
2836 10 3 0.0600 248.6552 366.13030000000003 -1.061
2837 10 3 0.0600 248.5722 367.0883 0.509
2838 10 3 0.0600 250.8772 367.1333 -0.4580000000000001
2839 10 3 0.0600 250.7852 366.13030000000003 1.082
2840 10 2 -0.1200 252.50220000000002 366.2003 0.0
2841 10 2 -0.1200 254.0102 366.2003 0.0
2842 10 3 0.0600 252.16320000000002 365.13930000000005 0.07
2843 10 3 0.0600 252.08020000000002 366.70930000000004 -0.888
2844 10 3 0.0600 254.3852 365.7423 -0.933
2845 10 3 0.0600 254.2932 367.2823 0.07
2846 10 2 -0.1200 256.0102 366.2003 0.0
2847 10 2 -0.1200 257.51820000000004 366.2003 0.0
2848 10 3 0.0600 255.67120000000003 366.2703 -1.061
2849 10 3 0.0600 255.58820000000003 365.31230000000005 0.509
2850 10 3 0.0600 257.89320000000004 365.26730000000003 -0.45799999999999996
2851 10 3 0.0600 257.8012 366.2703 1.082
2852 10 2 -0.1200 259.5182 366.2003 0.0
2853 10 2 -0.1200 261.0262 366.2003 0.0
2854 10 3 0.0600 259.1792 365.13930000000005 0.07
2855 10 3 0.0600 259.0962 366.70930000000004 -0.888
2856 10 3 0.0600 261.4012 365.7423 -0.933
2857 10 3 0.0600 261.3092 367.2823 0.07
2858 10 2 -0.1200 263.0262 366.2003 0.0
2859 10 2 -0.1200 264.53420000000006 366.2003 0.0
2860 10 3 0.0600 262.6872 366.13030000000003 -1.061
2861 10 3 0.0600 262.60420000000005 367.0883 0.509
2862 10 3 0.0600 264.90920000000006 367.1333 -0.4580000000000001
2863 10 3 0.0600 264.8172 366.13030000000003 1.082
2864 10 2 -0.1200 266.5342 366.2003 0.0
2865 10 2 -0.1200 268.04220000000004 366.2003 0.0
2866 10 3 0.0600 266.1952 365.13930000000005 0.07
2867 10 3 0.0600 266.11220000000003 366.70930000000004 -0.888
2868 10 3 0.0600 268.41720000000004 365.7423 -0.933
2869 10 3 0.0600 268.3252 367.2823 0.07
2870 10 2 -0.1200 270.0422 366.2003 0.0
2871 10 2 -0.1200 271.5502 366.2003 0.0
2872 10 3 0.0600 269.7032 366.13030000000003 -1.061
2873 10 3 0.0600 269.6202 367.0883 0.509
2874 10 3 0.0600 271.9252 367.1333 -0.4580000000000001
2875 10 3 0.0600 271.8332 366.13030000000003 1.082
2876 10 2 -0.1200 273.55019999999996 366.2003 0.0
2877 10 2 -0.1200 275.0582 366.2003 0.0
2878 10 3 0.0600 273.21119999999996 365.13930000000005 -0.07
2879 10 3 0.0600 273.1282 366.70930000000004 0.888
2880 10 3 0.0600 275.4332 365.7423 0.933
2881 10 3 0.0600 275.34119999999996 367.2823 -0.07
2882 10 2 -0.1200 277.0582 366.2003 0.0
2883 10 2 -0.1200 278.56620000000004 366.2003 0.0
2884 10 3 0.0600 276.7192 366.13030000000003 -1.061
2885 10 3 0.0600 276.63620000000003 367.0883 0.509
2886 10 3 0.0600 278.94120000000004 367.1333 -0.4580000000000001
2887 10 3 0.0600 278.8492 366.13030000000003 1.082
2888 10 2 -0.1200 280.5662 366.2003 0.0
2889 10 2 -0.1200 282.0742 366.2003 0.0
2890 10 3 0.0600 280.2272 365.13930000000005 0.07
2891 10 3 0.0600 280.1442 366.70930000000004 -0.888
2892 10 3 0.0600 282.4492 365.7423 -0.933
2893 10 3 0.0600 282.3572 367.2823 0.07
2894 10 2 -0.1200 284.07419999999996 366.2003 0.0
2895 10 2 -0.1200 285.5822 366.2003 0.0
2896 10 3 0.0600 283.73519999999996 366.13030000000003 -1.061
2897 10 3 0.0600 283.6522 367.0883 0.509
2898 10 3 0.0600 285.9572 367.1333 -0.4580000000000001
2899 10 3 0.0600 285.86519999999996 366.13030000000003 1.082
2900 10 2 -0.1200 287.5822 366.2003 0.0
2901 10 2 -0.1200 289.09020000000004 366.2003 0.0
2902 10 3 0.0600 287.2432 365.13930000000005 -0.07
2903 10 3 0.0600 287.16020000000003 366.70930000000004 0.888
2904 10 3 0.0600 289.46520000000004 365.7423 0.933
2905 10 3 0.0600 289.3732 367.2823 -0.07
2906 10 2 -0.1200 291.0902 366.2003 0.0
2907 10 2 -0.1200 292.5982 366.2003 0.0
2908 10 3 0.0600 290.7512 366.2703 -1.061
2909 10 3 0.0600 290.6682 365.31230000000005 0.509
2910 10 3 0.0600 292.9732 365.26730000000003 -0.45799999999999996
2911 10 3 0.0600 292.8812 366.2703 1.082
2912 10 2 -0.1200 294.59819999999996 366.2003 0.0
2913 10 2 -0.1200 296.1062 366.2003 0.0
2914 10 3 0.0600 294.25919999999996 365.13930000000005 -0.07
2915 10 3 0.0600 294.1762 366.70930000000004 0.888
2916 10 3 0.0600 296.4812 365.7423 0.933
2917 10 3 0.0600 296.38919999999996 367.2823 -0.07
2918 10 2 -0.1200 298.1062 366.2003 0.0
2919 10 2 -0.1200 299.61420000000004 366.2003 0.0
2920 10 3 0.0600 297.7672 366.13030000000003 -1.061
2921 10 3 0.0600 297.68420000000003 367.0883 0.509
2922 10 3 0.0600 299.98920000000004 367.1333 -0.4580000000000001
2923 10 3 0.0600 299.8972 366.13030000000003 1.082
2924 10 2 -0.1200 301.6142 366.2003 0.0
2925 10 2 -0.1200 303.1222 366.2003 0.0
2926 10 3 0.0600 301.2752 365.13930000000005 0.07
2927 10 3 0.0600 301.1922 366.70930000000004 -0.888
2928 10 3 0.0600 303.4972 365.7423 -0.933
2929 10 3 0.0600 303.4052 367.2823 0.07
2930 10 2 -0.1200 305.12219999999996 366.2003 0.0
2931 10 2 -0.1200 306.6302 366.2003 0.0
2932 10 3 0.0600 304.78319999999997 366.13030000000003 -1.061
2933 10 3 0.0600 304.7002 367.0883 0.509
2934 10 3 0.0600 307.0052 367.1333 -0.4580000000000001
2935 10 3 0.0600 306.91319999999996 366.13030000000003 1.082
2936 10 2 -0.1200 308.6302 366.2003 0.0
2937 10 2 -0.1200 310.13820000000004 366.2003 0.0
2938 10 3 0.0600 308.2912 365.13930000000005 0.07
2939 10 3 0.0600 308.20820000000003 366.70930000000004 -0.888
2940 10 3 0.0600 310.51320000000004 365.7423 -0.933
2941 10 3 0.0600 310.4212 367.2823 0.07
2942 10 2 -0.1200 312.1382 366.2003 0.0
2943 10 2 -0.1200 313.6462 366.2003 0.0
2944 10 3 0.0600 311.7992 366.2703 -1.061
2945 10 3 0.0600 311.7162 365.31230000000005 0.509
2946 10 3 0.0600 314.0212 365.26730000000003 -0.45799999999999996
2947 10 3 0.0600 313.9292 366.2703 1.082
2948 10 2 -0.1200 315.6462 366.2003 0.0
2949 10 2 -0.1200 317.15420000000006 366.2003 0.0
2950 10 3 0.0600 315.3072 365.13930000000005 0.07
2951 10 3 0.0600 315.22420000000005 366.70930000000004 -0.888
2952 10 3 0.0600 317.52920000000006 365.7423 -0.933
2953 10 3 0.0600 317.4372 367.2823 0.07
2954 10 2 -0.1200 319.15419999999995 366.2003 0.0
2955 10 2 -0.1200 320.6622 366.2003 0.0
2956 10 3 0.0600 318.81519999999995 366.13030000000003 -1.061
2957 10 3 0.0600 318.7322 367.0883 0.509
2958 10 3 0.0600 321.0372 367.1333 -0.4580000000000001
2959 10 3 0.0600 320.94519999999994 366.13030000000003 1.082
2960 10 2 -0.1200 322.6622 366.2003 0.0
2961 10 2 -0.1200 324.1702 366.2003 0.0
2962 10 3 0.0600 322.3232 365.13930000000005 0.07
2963 10 3 0.0600 322.2402 366.70930000000004 -0.888
2964 10 3 0.0600 324.5452 365.7423 -0.933
2965 10 3 0.0600 324.4532 367.2823 0.07
2966 10 2 -0.1200 326.1702 366.2003 0.0
2967 10 2 -0.1200 327.67820000000006 366.2003 0.0
2968 10 3 0.0600 325.8312 366.2703 -1.061
2969 10 3 0.0600 325.74820000000005 365.31230000000005 0.509
2970 10 3 0.0600 328.05320000000006 365.26730000000003 -0.45799999999999996
2971 10 3 0.0600 327.9612 366.2703 1.082
2972 10 2 -0.1200 329.67819999999995 366.2003 0.0
2973 10 2 -0.1200 331.1862 366.2003 0.0
2974 10 3 0.0600 329.33919999999995 365.13930000000005 0.07
2975 10 3 0.0600 329.2562 366.70930000000004 -0.888
2976 10 3 0.0600 331.5612 365.7423 -0.933
2977 10 3 0.0600 331.46919999999994 367.2823 0.07
2978 10 2 -0.1200 333.1862 366.2003 0.0
2979 10 2 -0.1200 334.6942 366.2003 0.0
2980 10 3 0.0600 332.8472 366.13030000000003 -1.061
2981 10 3 0.0600 332.7642 367.0883 0.509
2982 10 3 0.0600 335.0692 367.1333 -0.4580000000000001
2983 10 3 0.0600 334.9772 366.13030000000003 1.082
2984 10 2 -0.1200 336.6942 366.2003 0.0
2985 10 2 -0.1200 338.20220000000006 366.2003 0.0
2986 10 3 0.0600 336.3552 365.13930000000005 -0.07
2987 10 3 0.0600 336.27220000000005 366.70930000000004 0.888
2988 10 3 0.0600 338.57720000000006 365.7423 0.933
2989 10 3 0.0600 338.4852 367.2823 -0.07
2990 10 2 -0.1200 340.20219999999995 366.2003 0.0
2991 10 2 -0.1200 341.7102 366.2003 0.0
2992 10 3 0.0600 339.86319999999995 366.13030000000003 -1.061
2993 10 3 0.0600 339.7802 367.0883 0.509
2994 10 3 0.0600 342.0852 367.1333 -0.4580000000000001
2995 10 3 0.0600 341.99319999999994 366.13030000000003 1.082
2996 10 2 -0.1200 343.7102 366.2003 0.0
2997 10 2 -0.1200 345.2182 366.2003 0.0
2998 10 3 0.0600 343.3712 365.13930000000005 -0.07
2999 10 3 0.0600 343.2882 366.70930000000004 0.888
3000 10 3 0.0600 345.5932 365.7423 0.933
3001 10 3 0.0600 345.5012 367.2823 -0.07
3002 10 2 -0.1200 347.2182 366.2003 0.0
3003 10 2 -0.1200 348.72620000000006 366.2003 0.0
3004 10 3 0.0600 346.8792 366.13030000000003 -1.061
3005 10 3 0.0600 346.79620000000006 367.0883 0.509
3006 10 3 0.0600 349.10120000000006 367.1333 -0.4580000000000001
3007 10 3 0.0600 349.0092 366.13030000000003 1.082
3008 10 2 -0.1200 350.72619999999995 366.2003 0.0
3009 10 2 -0.1200 352.2342 366.2003 0.0
3010 10 3 0.0600 350.38719999999995 365.13930000000005 -0.07
3011 10 3 0.0600 350.3042 366.70930000000004 0.888
3012 10 3 0.0600 352.6092 365.7423 0.933
3013 10 3 0.0600 352.51719999999995 367.2823 -0.07
3014 10 2 -0.1200 353.9052 366.2003 0.0
3015 10 1 -0.1800 355.2392 365.46930000000003 0.0010000000000000447
3016 10 3 0.0600 353.2442 365.7373 0.776
3017 10 3 0.0600 353.4212 365.95930000000004 -0.969
3018 10 3 0.0600 355.2962 364.7993 0.8770000000000001
3019 10 3 0.0600 355.3662 364.82030000000003 -0.8919999999999999
3020 10 3 0.0600 356.07120000000003 366.2003 0.0

Bonds

1 3 1 2
2 5 1 3
3 5 1 4
4 5 1 5
5 6 2 6
6 6 2 7
7 4 8 9
8 6 8 10
9 6 8 11
10 6 9 12
11 6 9 13
12 4 14 15
13 6 14 16
14 6 14 17
15 6 15 18
16 6 15 19
17 4 20 21
18 6 20 22
19 6 20 23
20 6 21 24
21 6 21 25
22 4 26 27
23 6 26 28
24 6 26 29
25 6 27 30
26 6 27 31
27 4 32 33
28 6 32 34
29 6 32 35
30 6 33 36
31 6 33 37
32 4 38 39
33 6 38 40
34 6 38 41
35 6 39 42
36 6 39 43
37 4 44 45
38 6 44 46
39 6 44 47
40 6 45 48
41 6 45 49
42 4 50 51
43 6 50 52
44 6 50 53
45 6 51 54
46 6 51 55
47 4 56 57
48 6 56 58
49 6 56 59
50 6 57 60
51 6 57 61
52 4 62 63
53 6 62 64
54 6 62 65
55 6 63 66
56 6 63 67
57 4 68 69
58 6 68 70
59 6 68 71
60 6 69 72
61 6 69 73
62 4 74 75
63 6 74 76
64 6 74 77
65 6 75 78
66 6 75 79
67 4 80 81
68 6 80 82
69 6 80 83
70 6 81 84
71 6 81 85
72 4 86 87
73 6 86 88
74 6 86 89
75 6 87 90
76 6 87 91
77 4 92 93
78 6 92 94
79 6 92 95
80 6 93 96
81 6 93 97
82 4 98 99
83 6 98 100
84 6 98 101
85 6 99 102
86 6 99 103
87 4 104 105
88 6 104 106
89 6 104 107
90 6 105 108
91 6 105 109
92 4 110 111
93 6 110 112
94 6 110 113
95 6 111 114
96 6 111 115
97 4 116 117
98 6 116 118
99 6 116 119
100 6 117 120
101 6 117 121
102 4 122 123
103 6 122 124
104 6 122 125
105 6 123 126
106 6 123 127
107 4 128 129
108 6 128 130
109 6 128 131
110 6 129 132
111 6 129 133
112 4 134 135
113 6 134 136
114 6 134 137
115 6 135 138
116 6 135 139
117 4 140 141
118 6 140 142
119 6 140 143
120 6 141 144
121 6 141 145
122 4 146 147
123 6 146 148
124 6 146 149
125 6 147 150
126 6 147 151
127 4 152 153
128 6 152 154
129 6 152 155
130 6 153 156
131 6 153 157
132 4 158 159
133 6 158 160
134 6 158 161
135 6 159 162
136 6 159 163
137 4 164 165
138 6 164 166
139 6 164 167
140 6 165 168
141 6 165 169
142 4 170 171
143 6 170 172
144 6 170 173
145 6 171 174
146 6 171 175
147 4 176 177
148 6 176 178
149 6 176 179
150 6 177 180
151 6 177 181
152 4 182 183
153 6 182 184
154 6 182 185
155 6 183 186
156 6 183 187
157 4 188 189
158 6 188 190
159 6 188 191
160 6 189 192
161 6 189 193
162 4 194 195
163 6 194 196
164 6 194 197
165 6 195 198
166 6 195 199
167 4 200 201
168 6 200 202
169 6 200 203
170 6 201 204
171 6 201 205
172 4 206 207
173 6 206 208
174 6 206 209
175 6 207 210
176 6 207 211
177 4 212 213
178 6 212 214
179 6 212 215
180 6 213 216
181 6 213 217
182 4 218 219
183 6 218 220
184 6 218 221
185 6 219 222
186 6 219 223
187 4 224 225
188 6 224 226
189 6 224 227
190 6 225 228
191 6 225 229
192 4 230 231
193 6 230 232
194 6 230 233
195 6 231 234
196 6 231 235
197 4 236 237
198 6 236 238
199 6 236 239
200 6 237 240
201 6 237 241
202 4 242 243
203 6 242 244
204 6 242 245
205 6 243 246
206 6 243 247
207 4 248 249
208 6 248 250
209 6 248 251
210 6 249 252
211 6 249 253
212 4 254 255
213 6 254 256
214 6 254 257
215 6 255 258
216 6 255 259
217 4 260 261
218 6 260 262
219 6 260 263
220 6 261 264
221 6 261 265
222 4 266 267
223 6 266 268
224 6 266 269
225 6 267 270
226 6 267 271
227 4 272 273
228 6 272 274
229 6 272 275
230 6 273 276
231 6 273 277
232 4 278 279
233 6 278 280
234 6 278 281
235 6 279 282
236 6 279 283
237 4 284 285
238 6 284 286
239 6 284 287
240 6 285 288
241 6 285 289
242 4 290 291
243 6 290 292
244 6 290 293
245 6 291 294
246 6 291 295
247 3 296 297
248 6 296 298
249 6 296 299
250 5 297 300
251 5 297 301
252 5 297 302
253 4 2 8
254 4 9 14
255 4 15 20
256 4 21 26
257 4 27 32
258 4 33 38
259 4 39 44
260 4 45 50
261 4 51 56
262 4 57 62
263 4 63 68
264 4 69 74
265 4 75 80
266 4 81 86
267 4 87 92
268 4 93 98
269 4 99 104
270 4 105 110
271 4 111 116
272 4 117 122
273 4 123 128
274 4 129 134
275 4 135 140
276 4 141 146
277 4 147 152
278 4 153 158
279 4 159 164
280 4 165 170
281 4 171 176
282 4 177 182
283 4 183 188
284 4 189 194
285 4 195 200
286 4 201 206
287 4 207 212
288 4 213 218
289 4 219 224
290 4 225 230
291 4 231 236
292 4 237 242
293 4 243 248
294 4 249 254
295 4 255 260
296 4 261 266
297 4 267 272
298 4 273 278
299 4 279 284
300 4 285 290
301 4 291 296
302 3 303 304
303 5 303 305
304 5 303 306
305 5 303 307
306 6 304 308
307 6 304 309
308 4 310 311
309 6 310 312
310 6 310 313
311 6 311 314
312 6 311 315
313 4 316 317
314 6 316 318
315 6 316 319
316 6 317 320
317 6 317 321
318 4 322 323
319 6 322 324
320 6 322 325
321 6 323 326
322 6 323 327
323 4 328 329
324 6 328 330
325 6 328 331
326 6 329 332
327 6 329 333
328 4 334 335
329 6 334 336
330 6 334 337
331 6 335 338
332 6 335 339
333 4 340 341
334 6 340 342
335 6 340 343
336 6 341 344
337 6 341 345
338 4 346 347
339 6 346 348
340 6 346 349
341 6 347 350
342 6 347 351
343 4 352 353
344 6 352 354
345 6 352 355
346 6 353 356
347 6 353 357
348 4 358 359
349 6 358 360
350 6 358 361
351 6 359 362
352 6 359 363
353 4 364 365
354 6 364 366
355 6 364 367
356 6 365 368
357 6 365 369
358 4 370 371
359 6 370 372
360 6 370 373
361 6 371 374
362 6 371 375
363 4 376 377
364 6 376 378
365 6 376 379
366 6 377 380
367 6 377 381
368 4 382 383
369 6 382 384
370 6 382 385
371 6 383 386
372 6 383 387
373 4 388 389
374 6 388 390
375 6 388 391
376 6 389 392
377 6 389 393
378 4 394 395
379 6 394 396
380 6 394 397
381 6 395 398
382 6 395 399
383 4 400 401
384 6 400 402
385 6 400 403
386 6 401 404
387 6 401 405
388 4 406 407
389 6 406 408
390 6 406 409
391 6 407 410
392 6 407 411
393 4 412 413
394 6 412 414
395 6 412 415
396 6 413 416
397 6 413 417
398 4 418 419
399 6 418 420
400 6 418 421
401 6 419 422
402 6 419 423
403 4 424 425
404 6 424 426
405 6 424 427
406 6 425 428
407 6 425 429
408 4 430 431
409 6 430 432
410 6 430 433
411 6 431 434
412 6 431 435
413 4 436 437
414 6 436 438
415 6 436 439
416 6 437 440
417 6 437 441
418 4 442 443
419 6 442 444
420 6 442 445
421 6 443 446
422 6 443 447
423 4 448 449
424 6 448 450
425 6 448 451
426 6 449 452
427 6 449 453
428 4 454 455
429 6 454 456
430 6 454 457
431 6 455 458
432 6 455 459
433 4 460 461
434 6 460 462
435 6 460 463
436 6 461 464
437 6 461 465
438 4 466 467
439 6 466 468
440 6 466 469
441 6 467 470
442 6 467 471
443 4 472 473
444 6 472 474
445 6 472 475
446 6 473 476
447 6 473 477
448 4 478 479
449 6 478 480
450 6 478 481
451 6 479 482
452 6 479 483
453 4 484 485
454 6 484 486
455 6 484 487
456 6 485 488
457 6 485 489
458 4 490 491
459 6 490 492
460 6 490 493
461 6 491 494
462 6 491 495
463 4 496 497
464 6 496 498
465 6 496 499
466 6 497 500
467 6 497 501
468 4 502 503
469 6 502 504
470 6 502 505
471 6 503 506
472 6 503 507
473 4 508 509
474 6 508 510
475 6 508 511
476 6 509 512
477 6 509 513
478 4 514 515
479 6 514 516
480 6 514 517
481 6 515 518
482 6 515 519
483 4 520 521
484 6 520 522
485 6 520 523
486 6 521 524
487 6 521 525
488 4 526 527
489 6 526 528
490 6 526 529
491 6 527 530
492 6 527 531
493 4 532 533
494 6 532 534
495 6 532 535
496 6 533 536
497 6 533 537
498 4 538 539
499 6 538 540
500 6 538 541
501 6 539 542
502 6 539 543
503 4 544 545
504 6 544 546
505 6 544 547
506 6 545 548
507 6 545 549
508 4 550 551
509 6 550 552
510 6 550 553
511 6 551 554
512 6 551 555
513 4 556 557
514 6 556 558
515 6 556 559
516 6 557 560
517 6 557 561
518 4 562 563
519 6 562 564
520 6 562 565
521 6 563 566
522 6 563 567
523 4 568 569
524 6 568 570
525 6 568 571
526 6 569 572
527 6 569 573
528 4 574 575
529 6 574 576
530 6 574 577
531 6 575 578
532 6 575 579
533 4 580 581
534 6 580 582
535 6 580 583
536 6 581 584
537 6 581 585
538 4 586 587
539 6 586 588
540 6 586 589
541 6 587 590
542 6 587 591
543 4 592 593
544 6 592 594
545 6 592 595
546 6 593 596
547 6 593 597
548 3 598 599
549 6 598 600
550 6 598 601
551 5 599 602
552 5 599 603
553 5 599 604
554 4 304 310
555 4 311 316
556 4 317 322
557 4 323 328
558 4 329 334
559 4 335 340
560 4 341 346
561 4 347 352
562 4 353 358
563 4 359 364
564 4 365 370
565 4 371 376
566 4 377 382
567 4 383 388
568 4 389 394
569 4 395 400
570 4 401 406
571 4 407 412
572 4 413 418
573 4 419 424
574 4 425 430
575 4 431 436
576 4 437 442
577 4 443 448
578 4 449 454
579 4 455 460
580 4 461 466
581 4 467 472
582 4 473 478
583 4 479 484
584 4 485 490
585 4 491 496
586 4 497 502
587 4 503 508
588 4 509 514
589 4 515 520
590 4 521 526
591 4 527 532
592 4 533 538
593 4 539 544
594 4 545 550
595 4 551 556
596 4 557 562
597 4 563 568
598 4 569 574
599 4 575 580
600 4 581 586
601 4 587 592
602 4 593 598
603 3 605 606
604 5 605 607
605 5 605 608
606 5 605 609
607 6 606 610
608 6 606 611
609 4 612 613
610 6 612 614
611 6 612 615
612 6 613 616
613 6 613 617
614 4 618 619
615 6 618 620
616 6 618 621
617 6 619 622
618 6 619 623
619 4 624 625
620 6 624 626
621 6 624 627
622 6 625 628
623 6 625 629
624 4 630 631
625 6 630 632
626 6 630 633
627 6 631 634
628 6 631 635
629 4 636 637
630 6 636 638
631 6 636 639
632 6 637 640
633 6 637 641
634 4 642 643
635 6 642 644
636 6 642 645
637 6 643 646
638 6 643 647
639 4 648 649
640 6 648 650
641 6 648 651
642 6 649 652
643 6 649 653
644 4 654 655
645 6 654 656
646 6 654 657
647 6 655 658
648 6 655 659
649 4 660 661
650 6 660 662
651 6 660 663
652 6 661 664
653 6 661 665
654 4 666 667
655 6 666 668
656 6 666 669
657 6 667 670
658 6 667 671
659 4 672 673
660 6 672 674
661 6 672 675
662 6 673 676
663 6 673 677
664 4 678 679
665 6 678 680
666 6 678 681
667 6 679 682
668 6 679 683
669 4 684 685
670 6 684 686
671 6 684 687
672 6 685 688
673 6 685 689
674 4 690 691
675 6 690 692
676 6 690 693
677 6 691 694
678 6 691 695
679 4 696 697
680 6 696 698
681 6 696 699
682 6 697 700
683 6 697 701
684 4 702 703
685 6 702 704
686 6 702 705
687 6 703 706
688 6 703 707
689 4 708 709
690 6 708 710
691 6 708 711
692 6 709 712
693 6 709 713
694 4 714 715
695 6 714 716
696 6 714 717
697 6 715 718
698 6 715 719
699 4 720 721
700 6 720 722
701 6 720 723
702 6 721 724
703 6 721 725
704 4 726 727
705 6 726 728
706 6 726 729
707 6 727 730
708 6 727 731
709 4 732 733
710 6 732 734
711 6 732 735
712 6 733 736
713 6 733 737
714 4 738 739
715 6 738 740
716 6 738 741
717 6 739 742
718 6 739 743
719 4 744 745
720 6 744 746
721 6 744 747
722 6 745 748
723 6 745 749
724 4 750 751
725 6 750 752
726 6 750 753
727 6 751 754
728 6 751 755
729 4 756 757
730 6 756 758
731 6 756 759
732 6 757 760
733 6 757 761
734 4 762 763
735 6 762 764
736 6 762 765
737 6 763 766
738 6 763 767
739 4 768 769
740 6 768 770
741 6 768 771
742 6 769 772
743 6 769 773
744 4 774 775
745 6 774 776
746 6 774 777
747 6 775 778
748 6 775 779
749 4 780 781
750 6 780 782
751 6 780 783
752 6 781 784
753 6 781 785
754 4 786 787
755 6 786 788
756 6 786 789
757 6 787 790
758 6 787 791
759 4 792 793
760 6 792 794
761 6 792 795
762 6 793 796
763 6 793 797
764 4 798 799
765 6 798 800
766 6 798 801
767 6 799 802
768 6 799 803
769 4 804 805
770 6 804 806
771 6 804 807
772 6 805 808
773 6 805 809
774 4 810 811
775 6 810 812
776 6 810 813
777 6 811 814
778 6 811 815
779 4 816 817
780 6 816 818
781 6 816 819
782 6 817 820
783 6 817 821
784 4 822 823
785 6 822 824
786 6 822 825
787 6 823 826
788 6 823 827
789 4 828 829
790 6 828 830
791 6 828 831
792 6 829 832
793 6 829 833
794 4 834 835
795 6 834 836
796 6 834 837
797 6 835 838
798 6 835 839
799 4 840 841
800 6 840 842
801 6 840 843
802 6 841 844
803 6 841 845
804 4 846 847
805 6 846 848
806 6 846 849
807 6 847 850
808 6 847 851
809 4 852 853
810 6 852 854
811 6 852 855
812 6 853 856
813 6 853 857
814 4 858 859
815 6 858 860
816 6 858 861
817 6 859 862
818 6 859 863
819 4 864 865
820 6 864 866
821 6 864 867
822 6 865 868
823 6 865 869
824 4 870 871
825 6 870 872
826 6 870 873
827 6 871 874
828 6 871 875
829 4 876 877
830 6 876 878
831 6 876 879
832 6 877 880
833 6 877 881
834 4 882 883
835 6 882 884
836 6 882 885
837 6 883 886
838 6 883 887
839 4 888 889
840 6 888 890
841 6 888 891
842 6 889 892
843 6 889 893
844 4 894 895
845 6 894 896
846 6 894 897
847 6 895 898
848 6 895 899
849 3 900 901
850 6 900 902
851 6 900 903
852 5 901 904
853 5 901 905
854 5 901 906
855 4 606 612
856 4 613 618
857 4 619 624
858 4 625 630
859 4 631 636
860 4 637 642
861 4 643 648
862 4 649 654
863 4 655 660
864 4 661 666
865 4 667 672
866 4 673 678
867 4 679 684
868 4 685 690
869 4 691 696
870 4 697 702
871 4 703 708
872 4 709 714
873 4 715 720
874 4 721 726
875 4 727 732
876 4 733 738
877 4 739 744
878 4 745 750
879 4 751 756
880 4 757 762
881 4 763 768
882 4 769 774
883 4 775 780
884 4 781 786
885 4 787 792
886 4 793 798
887 4 799 804
888 4 805 810
889 4 811 816
890 4 817 822
891 4 823 828
892 4 829 834
893 4 835 840
894 4 841 846
895 4 847 852
896 4 853 858
897 4 859 864
898 4 865 870
899 4 871 876
900 4 877 882
901 4 883 888
902 4 889 894
903 4 895 900
904 3 907 908
905 5 907 909
906 5 907 910
907 5 907 911
908 6 908 912
909 6 908 913
910 4 914 915
911 6 914 916
912 6 914 917
913 6 915 918
914 6 915 919
915 4 920 921
916 6 920 922
917 6 920 923
918 6 921 924
919 6 921 925
920 4 926 927
921 6 926 928
922 6 926 929
923 6 927 930
924 6 927 931
925 4 932 933
926 6 932 934
927 6 932 935
928 6 933 936
929 6 933 937
930 4 938 939
931 6 938 940
932 6 938 941
933 6 939 942
934 6 939 943
935 4 944 945
936 6 944 946
937 6 944 947
938 6 945 948
939 6 945 949
940 4 950 951
941 6 950 952
942 6 950 953
943 6 951 954
944 6 951 955
945 4 956 957
946 6 956 958
947 6 956 959
948 6 957 960
949 6 957 961
950 4 962 963
951 6 962 964
952 6 962 965
953 6 963 966
954 6 963 967
955 4 968 969
956 6 968 970
957 6 968 971
958 6 969 972
959 6 969 973
960 4 974 975
961 6 974 976
962 6 974 977
963 6 975 978
964 6 975 979
965 4 980 981
966 6 980 982
967 6 980 983
968 6 981 984
969 6 981 985
970 4 986 987
971 6 986 988
972 6 986 989
973 6 987 990
974 6 987 991
975 4 992 993
976 6 992 994
977 6 992 995
978 6 993 996
979 6 993 997
980 4 998 999
981 6 998 1000
982 6 998 1001
983 6 999 1002
984 6 999 1003
985 4 1004 1005
986 6 1004 1006
987 6 1004 1007
988 6 1005 1008
989 6 1005 1009
990 4 1010 1011
991 6 1010 1012
992 6 1010 1013
993 6 1011 1014
994 6 1011 1015
995 4 1016 1017
996 6 1016 1018
997 6 1016 1019
998 6 1017 1020
999 6 1017 1021
1000 4 1022 1023
1001 6 1022 1024
1002 6 1022 1025
1003 6 1023 1026
1004 6 1023 1027
1005 4 1028 1029
1006 6 1028 1030
1007 6 1028 1031
1008 6 1029 1032
1009 6 1029 1033
1010 4 1034 1035
1011 6 1034 1036
1012 6 1034 1037
1013 6 1035 1038
1014 6 1035 1039
1015 4 1040 1041
1016 6 1040 1042
1017 6 1040 1043
1018 6 1041 1044
1019 6 1041 1045
1020 4 1046 1047
1021 6 1046 1048
1022 6 1046 1049
1023 6 1047 1050
1024 6 1047 1051
1025 4 1052 1053
1026 6 1052 1054
1027 6 1052 1055
1028 6 1053 1056
1029 6 1053 1057
1030 4 1058 1059
1031 6 1058 1060
1032 6 1058 1061
1033 6 1059 1062
1034 6 1059 1063
1035 4 1064 1065
1036 6 1064 1066
1037 6 1064 1067
1038 6 1065 1068
1039 6 1065 1069
1040 4 1070 1071
1041 6 1070 1072
1042 6 1070 1073
1043 6 1071 1074
1044 6 1071 1075
1045 4 1076 1077
1046 6 1076 1078
1047 6 1076 1079
1048 6 1077 1080
1049 6 1077 1081
1050 4 1082 1083
1051 6 1082 1084
1052 6 1082 1085
1053 6 1083 1086
1054 6 1083 1087
1055 4 1088 1089
1056 6 1088 1090
1057 6 1088 1091
1058 6 1089 1092
1059 6 1089 1093
1060 4 1094 1095
1061 6 1094 1096
1062 6 1094 1097
1063 6 1095 1098
1064 6 1095 1099
1065 4 1100 1101
1066 6 1100 1102
1067 6 1100 1103
1068 6 1101 1104
1069 6 1101 1105
1070 4 1106 1107
1071 6 1106 1108
1072 6 1106 1109
1073 6 1107 1110
1074 6 1107 1111
1075 4 1112 1113
1076 6 1112 1114
1077 6 1112 1115
1078 6 1113 1116
1079 6 1113 1117
1080 4 1118 1119
1081 6 1118 1120
1082 6 1118 1121
1083 6 1119 1122
1084 6 1119 1123
1085 4 1124 1125
1086 6 1124 1126
1087 6 1124 1127
1088 6 1125 1128
1089 6 1125 1129
1090 4 1130 1131
1091 6 1130 1132
1092 6 1130 1133
1093 6 1131 1134
1094 6 1131 1135
1095 4 1136 1137
1096 6 1136 1138
1097 6 1136 1139
1098 6 1137 1140
1099 6 1137 1141
1100 4 1142 1143
1101 6 1142 1144
1102 6 1142 1145
1103 6 1143 1146
1104 6 1143 1147
1105 4 1148 1149
1106 6 1148 1150
1107 6 1148 1151
1108 6 1149 1152
1109 6 1149 1153
1110 4 1154 1155
1111 6 1154 1156
1112 6 1154 1157
1113 6 1155 1158
1114 6 1155 1159
1115 4 1160 1161
1116 6 1160 1162
1117 6 1160 1163
1118 6 1161 1164
1119 6 1161 1165
1120 4 1166 1167
1121 6 1166 1168
1122 6 1166 1169
1123 6 1167 1170
1124 6 1167 1171
1125 4 1172 1173
1126 6 1172 1174
1127 6 1172 1175
1128 6 1173 1176
1129 6 1173 1177
1130 4 1178 1179
1131 6 1178 1180
1132 6 1178 1181
1133 6 1179 1182
1134 6 1179 1183
1135 4 1184 1185
1136 6 1184 1186
1137 6 1184 1187
1138 6 1185 1188
1139 6 1185 1189
1140 4 1190 1191
1141 6 1190 1192
1142 6 1190 1193
1143 6 1191 1194
1144 6 1191 1195
1145 4 1196 1197
1146 6 1196 1198
1147 6 1196 1199
1148 6 1197 1200
1149 6 1197 1201
1150 3 1202 1203
1151 6 1202 1204
1152 6 1202 1205
1153 5 1203 1206
1154 5 1203 1207
1155 5 1203 1208
1156 4 908 914
1157 4 915 920
1158 4 921 926
1159 4 927 932
1160 4 933 938
1161 4 939 944
1162 4 945 950
1163 4 951 956
1164 4 957 962
1165 4 963 968
1166 4 969 974
1167 4 975 980
1168 4 981 986
1169 4 987 992
1170 4 993 998
1171 4 999 1004
1172 4 1005 1010
1173 4 1011 1016
1174 4 1017 1022
1175 4 1023 1028
1176 4 1029 1034
1177 4 1035 1040
1178 4 1041 1046
1179 4 1047 1052
1180 4 1053 1058
1181 4 1059 1064
1182 4 1065 1070
1183 4 1071 1076
1184 4 1077 1082
1185 4 1083 1088
1186 4 1089 1094
1187 4 1095 1100
1188 4 1101 1106
1189 4 1107 1112
1190 4 1113 1118
1191 4 1119 1124
1192 4 1125 1130
1193 4 1131 1136
1194 4 1137 1142
1195 4 1143 1148
1196 4 1149 1154
1197 4 1155 1160
1198 4 1161 1166
1199 4 1167 1172
1200 4 1173 1178
1201 4 1179 1184
1202 4 1185 1190
1203 4 1191 1196
1204 4 1197 1202
1205 3 1209 1210
1206 5 1209 1211
1207 5 1209 1212
1208 5 1209 1213
1209 6 1210 1214
1210 6 1210 1215
1211 4 1216 1217
1212 6 1216 1218
1213 6 1216 1219
1214 6 1217 1220
1215 6 1217 1221
1216 4 1222 1223
1217 6 1222 1224
1218 6 1222 1225
1219 6 1223 1226
1220 6 1223 1227
1221 4 1228 1229
1222 6 1228 1230
1223 6 1228 1231
1224 6 1229 1232
1225 6 1229 1233
1226 4 1234 1235
1227 6 1234 1236
1228 6 1234 1237
1229 6 1235 1238
1230 6 1235 1239
1231 4 1240 1241
1232 6 1240 1242
1233 6 1240 1243
1234 6 1241 1244
1235 6 1241 1245
1236 4 1246 1247
1237 6 1246 1248
1238 6 1246 1249
1239 6 1247 1250
1240 6 1247 1251
1241 4 1252 1253
1242 6 1252 1254
1243 6 1252 1255
1244 6 1253 1256
1245 6 1253 1257
1246 4 1258 1259
1247 6 1258 1260
1248 6 1258 1261
1249 6 1259 1262
1250 6 1259 1263
1251 4 1264 1265
1252 6 1264 1266
1253 6 1264 1267
1254 6 1265 1268
1255 6 1265 1269
1256 4 1270 1271
1257 6 1270 1272
1258 6 1270 1273
1259 6 1271 1274
1260 6 1271 1275
1261 4 1276 1277
1262 6 1276 1278
1263 6 1276 1279
1264 6 1277 1280
1265 6 1277 1281
1266 4 1282 1283
1267 6 1282 1284
1268 6 1282 1285
1269 6 1283 1286
1270 6 1283 1287
1271 4 1288 1289
1272 6 1288 1290
1273 6 1288 1291
1274 6 1289 1292
1275 6 1289 1293
1276 4 1294 1295
1277 6 1294 1296
1278 6 1294 1297
1279 6 1295 1298
1280 6 1295 1299
1281 4 1300 1301
1282 6 1300 1302
1283 6 1300 1303
1284 6 1301 1304
1285 6 1301 1305
1286 4 1306 1307
1287 6 1306 1308
1288 6 1306 1309
1289 6 1307 1310
1290 6 1307 1311
1291 4 1312 1313
1292 6 1312 1314
1293 6 1312 1315
1294 6 1313 1316
1295 6 1313 1317
1296 4 1318 1319
1297 6 1318 1320
1298 6 1318 1321
1299 6 1319 1322
1300 6 1319 1323
1301 4 1324 1325
1302 6 1324 1326
1303 6 1324 1327
1304 6 1325 1328
1305 6 1325 1329
1306 4 1330 1331
1307 6 1330 1332
1308 6 1330 1333
1309 6 1331 1334
1310 6 1331 1335
1311 4 1336 1337
1312 6 1336 1338
1313 6 1336 1339
1314 6 1337 1340
1315 6 1337 1341
1316 4 1342 1343
1317 6 1342 1344
1318 6 1342 1345
1319 6 1343 1346
1320 6 1343 1347
1321 4 1348 1349
1322 6 1348 1350
1323 6 1348 1351
1324 6 1349 1352
1325 6 1349 1353
1326 4 1354 1355
1327 6 1354 1356
1328 6 1354 1357
1329 6 1355 1358
1330 6 1355 1359
1331 4 1360 1361
1332 6 1360 1362
1333 6 1360 1363
1334 6 1361 1364
1335 6 1361 1365
1336 4 1366 1367
1337 6 1366 1368
1338 6 1366 1369
1339 6 1367 1370
1340 6 1367 1371
1341 4 1372 1373
1342 6 1372 1374
1343 6 1372 1375
1344 6 1373 1376
1345 6 1373 1377
1346 4 1378 1379
1347 6 1378 1380
1348 6 1378 1381
1349 6 1379 1382
1350 6 1379 1383
1351 4 1384 1385
1352 6 1384 1386
1353 6 1384 1387
1354 6 1385 1388
1355 6 1385 1389
1356 4 1390 1391
1357 6 1390 1392
1358 6 1390 1393
1359 6 1391 1394
1360 6 1391 1395
1361 4 1396 1397
1362 6 1396 1398
1363 6 1396 1399
1364 6 1397 1400
1365 6 1397 1401
1366 4 1402 1403
1367 6 1402 1404
1368 6 1402 1405
1369 6 1403 1406
1370 6 1403 1407
1371 4 1408 1409
1372 6 1408 1410
1373 6 1408 1411
1374 6 1409 1412
1375 6 1409 1413
1376 4 1414 1415
1377 6 1414 1416
1378 6 1414 1417
1379 6 1415 1418
1380 6 1415 1419
1381 4 1420 1421
1382 6 1420 1422
1383 6 1420 1423
1384 6 1421 1424
1385 6 1421 1425
1386 4 1426 1427
1387 6 1426 1428
1388 6 1426 1429
1389 6 1427 1430
1390 6 1427 1431
1391 4 1432 1433
1392 6 1432 1434
1393 6 1432 1435
1394 6 1433 1436
1395 6 1433 1437
1396 4 1438 1439
1397 6 1438 1440
1398 6 1438 1441
1399 6 1439 1442
1400 6 1439 1443
1401 4 1444 1445
1402 6 1444 1446
1403 6 1444 1447
1404 6 1445 1448
1405 6 1445 1449
1406 4 1450 1451
1407 6 1450 1452
1408 6 1450 1453
1409 6 1451 1454
1410 6 1451 1455
1411 4 1456 1457
1412 6 1456 1458
1413 6 1456 1459
1414 6 1457 1460
1415 6 1457 1461
1416 4 1462 1463
1417 6 1462 1464
1418 6 1462 1465
1419 6 1463 1466
1420 6 1463 1467
1421 4 1468 1469
1422 6 1468 1470
1423 6 1468 1471
1424 6 1469 1472
1425 6 1469 1473
1426 4 1474 1475
1427 6 1474 1476
1428 6 1474 1477
1429 6 1475 1478
1430 6 1475 1479
1431 4 1480 1481
1432 6 1480 1482
1433 6 1480 1483
1434 6 1481 1484
1435 6 1481 1485
1436 4 1486 1487
1437 6 1486 1488
1438 6 1486 1489
1439 6 1487 1490
1440 6 1487 1491
1441 4 1492 1493
1442 6 1492 1494
1443 6 1492 1495
1444 6 1493 1496
1445 6 1493 1497
1446 4 1498 1499
1447 6 1498 1500
1448 6 1498 1501
1449 6 1499 1502
1450 6 1499 1503
1451 3 1504 1505
1452 6 1504 1506
1453 6 1504 1507
1454 5 1505 1508
1455 5 1505 1509
1456 5 1505 1510
1457 4 1210 1216
1458 4 1217 1222
1459 4 1223 1228
1460 4 1229 1234
1461 4 1235 1240
1462 4 1241 1246
1463 4 1247 1252
1464 4 1253 1258
1465 4 1259 1264
1466 4 1265 1270
1467 4 1271 1276
1468 4 1277 1282
1469 4 1283 1288
1470 4 1289 1294
1471 4 1295 1300
1472 4 1301 1306
1473 4 1307 1312
1474 4 1313 1318
1475 4 1319 1324
1476 4 1325 1330
1477 4 1331 1336
1478 4 1337 1342
1479 4 1343 1348
1480 4 1349 1354
1481 4 1355 1360
1482 4 1361 1366
1483 4 1367 1372
1484 4 1373 1378
1485 4 1379 1384
1486 4 1385 1390
1487 4 1391 1396
1488 4 1397 1402
1489 4 1403 1408
1490 4 1409 1414
1491 4 1415 1420
1492 4 1421 1426
1493 4 1427 1432
1494 4 1433 1438
1495 4 1439 1444
1496 4 1445 1450
1497 4 1451 1456
1498 4 1457 1462
1499 4 1463 1468
1500 4 1469 1474
1501 4 1475 1480
1502 4 1481 1486
1503 4 1487 1492
1504 4 1493 1498
1505 4 1499 1504
1506 3 1511 1512
1507 5 1511 1513
1508 5 1511 1514
1509 5 1511 1515
1510 6 1512 1516
1511 6 1512 1517
1512 4 1518 1519
1513 6 1518 1520
1514 6 1518 1521
1515 6 1519 1522
1516 6 1519 1523
1517 4 1524 1525
1518 6 1524 1526
1519 6 1524 1527
1520 6 1525 1528
1521 6 1525 1529
1522 4 1530 1531
1523 6 1530 1532
1524 6 1530 1533
1525 6 1531 1534
1526 6 1531 1535
1527 4 1536 1537
1528 6 1536 1538
1529 6 1536 1539
1530 6 1537 1540
1531 6 1537 1541
1532 4 1542 1543
1533 6 1542 1544
1534 6 1542 1545
1535 6 1543 1546
1536 6 1543 1547
1537 4 1548 1549
1538 6 1548 1550
1539 6 1548 1551
1540 6 1549 1552
1541 6 1549 1553
1542 4 1554 1555
1543 6 1554 1556
1544 6 1554 1557
1545 6 1555 1558
1546 6 1555 1559
1547 4 1560 1561
1548 6 1560 1562
1549 6 1560 1563
1550 6 1561 1564
1551 6 1561 1565
1552 4 1566 1567
1553 6 1566 1568
1554 6 1566 1569
1555 6 1567 1570
1556 6 1567 1571
1557 4 1572 1573
1558 6 1572 1574
1559 6 1572 1575
1560 6 1573 1576
1561 6 1573 1577
1562 4 1578 1579
1563 6 1578 1580
1564 6 1578 1581
1565 6 1579 1582
1566 6 1579 1583
1567 4 1584 1585
1568 6 1584 1586
1569 6 1584 1587
1570 6 1585 1588
1571 6 1585 1589
1572 4 1590 1591
1573 6 1590 1592
1574 6 1590 1593
1575 6 1591 1594
1576 6 1591 1595
1577 4 1596 1597
1578 6 1596 1598
1579 6 1596 1599
1580 6 1597 1600
1581 6 1597 1601
1582 4 1602 1603
1583 6 1602 1604
1584 6 1602 1605
1585 6 1603 1606
1586 6 1603 1607
1587 4 1608 1609
1588 6 1608 1610
1589 6 1608 1611
1590 6 1609 1612
1591 6 1609 1613
1592 4 1614 1615
1593 6 1614 1616
1594 6 1614 1617
1595 6 1615 1618
1596 6 1615 1619
1597 4 1620 1621
1598 6 1620 1622
1599 6 1620 1623
1600 6 1621 1624
1601 6 1621 1625
1602 4 1626 1627
1603 6 1626 1628
1604 6 1626 1629
1605 6 1627 1630
1606 6 1627 1631
1607 4 1632 1633
1608 6 1632 1634
1609 6 1632 1635
1610 6 1633 1636
1611 6 1633 1637
1612 4 1638 1639
1613 6 1638 1640
1614 6 1638 1641
1615 6 1639 1642
1616 6 1639 1643
1617 4 1644 1645
1618 6 1644 1646
1619 6 1644 1647
1620 6 1645 1648
1621 6 1645 1649
1622 4 1650 1651
1623 6 1650 1652
1624 6 1650 1653
1625 6 1651 1654
1626 6 1651 1655
1627 4 1656 1657
1628 6 1656 1658
1629 6 1656 1659
1630 6 1657 1660
1631 6 1657 1661
1632 4 1662 1663
1633 6 1662 1664
1634 6 1662 1665
1635 6 1663 1666
1636 6 1663 1667
1637 4 1668 1669
1638 6 1668 1670
1639 6 1668 1671
1640 6 1669 1672
1641 6 1669 1673
1642 4 1674 1675
1643 6 1674 1676
1644 6 1674 1677
1645 6 1675 1678
1646 6 1675 1679
1647 4 1680 1681
1648 6 1680 1682
1649 6 1680 1683
1650 6 1681 1684
1651 6 1681 1685
1652 4 1686 1687
1653 6 1686 1688
1654 6 1686 1689
1655 6 1687 1690
1656 6 1687 1691
1657 4 1692 1693
1658 6 1692 1694
1659 6 1692 1695
1660 6 1693 1696
1661 6 1693 1697
1662 4 1698 1699
1663 6 1698 1700
1664 6 1698 1701
1665 6 1699 1702
1666 6 1699 1703
1667 4 1704 1705
1668 6 1704 1706
1669 6 1704 1707
1670 6 1705 1708
1671 6 1705 1709
1672 4 1710 1711
1673 6 1710 1712
1674 6 1710 1713
1675 6 1711 1714
1676 6 1711 1715
1677 4 1716 1717
1678 6 1716 1718
1679 6 1716 1719
1680 6 1717 1720
1681 6 1717 1721
1682 4 1722 1723
1683 6 1722 1724
1684 6 1722 1725
1685 6 1723 1726
1686 6 1723 1727
1687 4 1728 1729
1688 6 1728 1730
1689 6 1728 1731
1690 6 1729 1732
1691 6 1729 1733
1692 4 1734 1735
1693 6 1734 1736
1694 6 1734 1737
1695 6 1735 1738
1696 6 1735 1739
1697 4 1740 1741
1698 6 1740 1742
1699 6 1740 1743
1700 6 1741 1744
1701 6 1741 1745
1702 4 1746 1747
1703 6 1746 1748
1704 6 1746 1749
1705 6 1747 1750
1706 6 1747 1751
1707 4 1752 1753
1708 6 1752 1754
1709 6 1752 1755
1710 6 1753 1756
1711 6 1753 1757
1712 4 1758 1759
1713 6 1758 1760
1714 6 1758 1761
1715 6 1759 1762
1716 6 1759 1763
1717 4 1764 1765
1718 6 1764 1766
1719 6 1764 1767
1720 6 1765 1768
1721 6 1765 1769
1722 4 1770 1771
1723 6 1770 1772
1724 6 1770 1773
1725 6 1771 1774
1726 6 1771 1775
1727 4 1776 1777
1728 6 1776 1778
1729 6 1776 1779
1730 6 1777 1780
1731 6 1777 1781
1732 4 1782 1783
1733 6 1782 1784
1734 6 1782 1785
1735 6 1783 1786
1736 6 1783 1787
1737 4 1788 1789
1738 6 1788 1790
1739 6 1788 1791
1740 6 1789 1792
1741 6 1789 1793
1742 4 1794 1795
1743 6 1794 1796
1744 6 1794 1797
1745 6 1795 1798
1746 6 1795 1799
1747 4 1800 1801
1748 6 1800 1802
1749 6 1800 1803
1750 6 1801 1804
1751 6 1801 1805
1752 3 1806 1807
1753 6 1806 1808
1754 6 1806 1809
1755 5 1807 1810
1756 5 1807 1811
1757 5 1807 1812
1758 4 1512 1518
1759 4 1519 1524
1760 4 1525 1530
1761 4 1531 1536
1762 4 1537 1542
1763 4 1543 1548
1764 4 1549 1554
1765 4 1555 1560
1766 4 1561 1566
1767 4 1567 1572
1768 4 1573 1578
1769 4 1579 1584
1770 4 1585 1590
1771 4 1591 1596
1772 4 1597 1602
1773 4 1603 1608
1774 4 1609 1614
1775 4 1615 1620
1776 4 1621 1626
1777 4 1627 1632
1778 4 1633 1638
1779 4 1639 1644
1780 4 1645 1650
1781 4 1651 1656
1782 4 1657 1662
1783 4 1663 1668
1784 4 1669 1674
1785 4 1675 1680
1786 4 1681 1686
1787 4 1687 1692
1788 4 1693 1698
1789 4 1699 1704
1790 4 1705 1710
1791 4 1711 1716
1792 4 1717 1722
1793 4 1723 1728
1794 4 1729 1734
1795 4 1735 1740
1796 4 1741 1746
1797 4 1747 1752
1798 4 1753 1758
1799 4 1759 1764
1800 4 1765 1770
1801 4 1771 1776
1802 4 1777 1782
1803 4 1783 1788
1804 4 1789 1794
1805 4 1795 1800
1806 4 1801 1806
1807 3 1813 1814
1808 5 1813 1815
1809 5 1813 1816
1810 5 1813 1817
1811 6 1814 1818
1812 6 1814 1819
1813 4 1820 1821
1814 6 1820 1822
1815 6 1820 1823
1816 6 1821 1824
1817 6 1821 1825
1818 4 1826 1827
1819 6 1826 1828
1820 6 1826 1829
1821 6 1827 1830
1822 6 1827 1831
1823 4 1832 1833
1824 6 1832 1834
1825 6 1832 1835
1826 6 1833 1836
1827 6 1833 1837
1828 4 1838 1839
1829 6 1838 1840
1830 6 1838 1841
1831 6 1839 1842
1832 6 1839 1843
1833 4 1844 1845
1834 6 1844 1846
1835 6 1844 1847
1836 6 1845 1848
1837 6 1845 1849
1838 4 1850 1851
1839 6 1850 1852
1840 6 1850 1853
1841 6 1851 1854
1842 6 1851 1855
1843 4 1856 1857
1844 6 1856 1858
1845 6 1856 1859
1846 6 1857 1860
1847 6 1857 1861
1848 4 1862 1863
1849 6 1862 1864
1850 6 1862 1865
1851 6 1863 1866
1852 6 1863 1867
1853 4 1868 1869
1854 6 1868 1870
1855 6 1868 1871
1856 6 1869 1872
1857 6 1869 1873
1858 4 1874 1875
1859 6 1874 1876
1860 6 1874 1877
1861 6 1875 1878
1862 6 1875 1879
1863 4 1880 1881
1864 6 1880 1882
1865 6 1880 1883
1866 6 1881 1884
1867 6 1881 1885
1868 4 1886 1887
1869 6 1886 1888
1870 6 1886 1889
1871 6 1887 1890
1872 6 1887 1891
1873 4 1892 1893
1874 6 1892 1894
1875 6 1892 1895
1876 6 1893 1896
1877 6 1893 1897
1878 4 1898 1899
1879 6 1898 1900
1880 6 1898 1901
1881 6 1899 1902
1882 6 1899 1903
1883 4 1904 1905
1884 6 1904 1906
1885 6 1904 1907
1886 6 1905 1908
1887 6 1905 1909
1888 4 1910 1911
1889 6 1910 1912
1890 6 1910 1913
1891 6 1911 1914
1892 6 1911 1915
1893 4 1916 1917
1894 6 1916 1918
1895 6 1916 1919
1896 6 1917 1920
1897 6 1917 1921
1898 4 1922 1923
1899 6 1922 1924
1900 6 1922 1925
1901 6 1923 1926
1902 6 1923 1927
1903 4 1928 1929
1904 6 1928 1930
1905 6 1928 1931
1906 6 1929 1932
1907 6 1929 1933
1908 4 1934 1935
1909 6 1934 1936
1910 6 1934 1937
1911 6 1935 1938
1912 6 1935 1939
1913 4 1940 1941
1914 6 1940 1942
1915 6 1940 1943
1916 6 1941 1944
1917 6 1941 1945
1918 4 1946 1947
1919 6 1946 1948
1920 6 1946 1949
1921 6 1947 1950
1922 6 1947 1951
1923 4 1952 1953
1924 6 1952 1954
1925 6 1952 1955
1926 6 1953 1956
1927 6 1953 1957
1928 4 1958 1959
1929 6 1958 1960
1930 6 1958 1961
1931 6 1959 1962
1932 6 1959 1963
1933 4 1964 1965
1934 6 1964 1966
1935 6 1964 1967
1936 6 1965 1968
1937 6 1965 1969
1938 4 1970 1971
1939 6 1970 1972
1940 6 1970 1973
1941 6 1971 1974
1942 6 1971 1975
1943 4 1976 1977
1944 6 1976 1978
1945 6 1976 1979
1946 6 1977 1980
1947 6 1977 1981
1948 4 1982 1983
1949 6 1982 1984
1950 6 1982 1985
1951 6 1983 1986
1952 6 1983 1987
1953 4 1988 1989
1954 6 1988 1990
1955 6 1988 1991
1956 6 1989 1992
1957 6 1989 1993
1958 4 1994 1995
1959 6 1994 1996
1960 6 1994 1997
1961 6 1995 1998
1962 6 1995 1999
1963 4 2000 2001
1964 6 2000 2002
1965 6 2000 2003
1966 6 2001 2004
1967 6 2001 2005
1968 4 2006 2007
1969 6 2006 2008
1970 6 2006 2009
1971 6 2007 2010
1972 6 2007 2011
1973 4 2012 2013
1974 6 2012 2014
1975 6 2012 2015
1976 6 2013 2016
1977 6 2013 2017
1978 4 2018 2019
1979 6 2018 2020
1980 6 2018 2021
1981 6 2019 2022
1982 6 2019 2023
1983 4 2024 2025
1984 6 2024 2026
1985 6 2024 2027
1986 6 2025 2028
1987 6 2025 2029
1988 4 2030 2031
1989 6 2030 2032
1990 6 2030 2033
1991 6 2031 2034
1992 6 2031 2035
1993 4 2036 2037
1994 6 2036 2038
1995 6 2036 2039
1996 6 2037 2040
1997 6 2037 2041
1998 4 2042 2043
1999 6 2042 2044
2000 6 2042 2045
2001 6 2043 2046
2002 6 2043 2047
2003 4 2048 2049
2004 6 2048 2050
2005 6 2048 2051
2006 6 2049 2052
2007 6 2049 2053
2008 4 2054 2055
2009 6 2054 2056
2010 6 2054 2057
2011 6 2055 2058
2012 6 2055 2059
2013 4 2060 2061
2014 6 2060 2062
2015 6 2060 2063
2016 6 2061 2064
2017 6 2061 2065
2018 4 2066 2067
2019 6 2066 2068
2020 6 2066 2069
2021 6 2067 2070
2022 6 2067 2071
2023 4 2072 2073
2024 6 2072 2074
2025 6 2072 2075
2026 6 2073 2076
2027 6 2073 2077
2028 4 2078 2079
2029 6 2078 2080
2030 6 2078 2081
2031 6 2079 2082
2032 6 2079 2083
2033 4 2084 2085
2034 6 2084 2086
2035 6 2084 2087
2036 6 2085 2088
2037 6 2085 2089
2038 4 2090 2091
2039 6 2090 2092
2040 6 2090 2093
2041 6 2091 2094
2042 6 2091 2095
2043 4 2096 2097
2044 6 2096 2098
2045 6 2096 2099
2046 6 2097 2100
2047 6 2097 2101
2048 4 2102 2103
2049 6 2102 2104
2050 6 2102 2105
2051 6 2103 2106
2052 6 2103 2107
2053 3 2108 2109
2054 6 2108 2110
2055 6 2108 2111
2056 5 2109 2112
2057 5 2109 2113
2058 5 2109 2114
2059 4 1814 1820
2060 4 1821 1826
2061 4 1827 1832
2062 4 1833 1838
2063 4 1839 1844
2064 4 1845 1850
2065 4 1851 1856
2066 4 1857 1862
2067 4 1863 1868
2068 4 1869 1874
2069 4 1875 1880
2070 4 1881 1886
2071 4 1887 1892
2072 4 1893 1898
2073 4 1899 1904
2074 4 1905 1910
2075 4 1911 1916
2076 4 1917 1922
2077 4 1923 1928
2078 4 1929 1934
2079 4 1935 1940
2080 4 1941 1946
2081 4 1947 1952
2082 4 1953 1958
2083 4 1959 1964
2084 4 1965 1970
2085 4 1971 1976
2086 4 1977 1982
2087 4 1983 1988
2088 4 1989 1994
2089 4 1995 2000
2090 4 2001 2006
2091 4 2007 2012
2092 4 2013 2018
2093 4 2019 2024
2094 4 2025 2030
2095 4 2031 2036
2096 4 2037 2042
2097 4 2043 2048
2098 4 2049 2054
2099 4 2055 2060
2100 4 2061 2066
2101 4 2067 2072
2102 4 2073 2078
2103 4 2079 2084
2104 4 2085 2090
2105 4 2091 2096
2106 4 2097 2102
2107 4 2103 2108
2108 3 2115 2116
2109 5 2115 2117
2110 5 2115 2118
2111 5 2115 2119
2112 6 2116 2120
2113 6 2116 2121
2114 4 2122 2123
2115 6 2122 2124
2116 6 2122 2125
2117 6 2123 2126
2118 6 2123 2127
2119 4 2128 2129
2120 6 2128 2130
2121 6 2128 2131
2122 6 2129 2132
2123 6 2129 2133
2124 4 2134 2135
2125 6 2134 2136
2126 6 2134 2137
2127 6 2135 2138
2128 6 2135 2139
2129 4 2140 2141
2130 6 2140 2142
2131 6 2140 2143
2132 6 2141 2144
2133 6 2141 2145
2134 4 2146 2147
2135 6 2146 2148
2136 6 2146 2149
2137 6 2147 2150
2138 6 2147 2151
2139 4 2152 2153
2140 6 2152 2154
2141 6 2152 2155
2142 6 2153 2156
2143 6 2153 2157
2144 4 2158 2159
2145 6 2158 2160
2146 6 2158 2161
2147 6 2159 2162
2148 6 2159 2163
2149 4 2164 2165
2150 6 2164 2166
2151 6 2164 2167
2152 6 2165 2168
2153 6 2165 2169
2154 4 2170 2171
2155 6 2170 2172
2156 6 2170 2173
2157 6 2171 2174
2158 6 2171 2175
2159 4 2176 2177
2160 6 2176 2178
2161 6 2176 2179
2162 6 2177 2180
2163 6 2177 2181
2164 4 2182 2183
2165 6 2182 2184
2166 6 2182 2185
2167 6 2183 2186
2168 6 2183 2187
2169 4 2188 2189
2170 6 2188 2190
2171 6 2188 2191
2172 6 2189 2192
2173 6 2189 2193
2174 4 2194 2195
2175 6 2194 2196
2176 6 2194 2197
2177 6 2195 2198
2178 6 2195 2199
2179 4 2200 2201
2180 6 2200 2202
2181 6 2200 2203
2182 6 2201 2204
2183 6 2201 2205
2184 4 2206 2207
2185 6 2206 2208
2186 6 2206 2209
2187 6 2207 2210
2188 6 2207 2211
2189 4 2212 2213
2190 6 2212 2214
2191 6 2212 2215
2192 6 2213 2216
2193 6 2213 2217
2194 4 2218 2219
2195 6 2218 2220
2196 6 2218 2221
2197 6 2219 2222
2198 6 2219 2223
2199 4 2224 2225
2200 6 2224 2226
2201 6 2224 2227
2202 6 2225 2228
2203 6 2225 2229
2204 4 2230 2231
2205 6 2230 2232
2206 6 2230 2233
2207 6 2231 2234
2208 6 2231 2235
2209 4 2236 2237
2210 6 2236 2238
2211 6 2236 2239
2212 6 2237 2240
2213 6 2237 2241
2214 4 2242 2243
2215 6 2242 2244
2216 6 2242 2245
2217 6 2243 2246
2218 6 2243 2247
2219 4 2248 2249
2220 6 2248 2250
2221 6 2248 2251
2222 6 2249 2252
2223 6 2249 2253
2224 4 2254 2255
2225 6 2254 2256
2226 6 2254 2257
2227 6 2255 2258
2228 6 2255 2259
2229 4 2260 2261
2230 6 2260 2262
2231 6 2260 2263
2232 6 2261 2264
2233 6 2261 2265
2234 4 2266 2267
2235 6 2266 2268
2236 6 2266 2269
2237 6 2267 2270
2238 6 2267 2271
2239 4 2272 2273
2240 6 2272 2274
2241 6 2272 2275
2242 6 2273 2276
2243 6 2273 2277
2244 4 2278 2279
2245 6 2278 2280
2246 6 2278 2281
2247 6 2279 2282
2248 6 2279 2283
2249 4 2284 2285
2250 6 2284 2286
2251 6 2284 2287
2252 6 2285 2288
2253 6 2285 2289
2254 4 2290 2291
2255 6 2290 2292
2256 6 2290 2293
2257 6 2291 2294
2258 6 2291 2295
2259 4 2296 2297
2260 6 2296 2298
2261 6 2296 2299
2262 6 2297 2300
2263 6 2297 2301
2264 4 2302 2303
2265 6 2302 2304
2266 6 2302 2305
2267 6 2303 2306
2268 6 2303 2307
2269 4 2308 2309
2270 6 2308 2310
2271 6 2308 2311
2272 6 2309 2312
2273 6 2309 2313
2274 4 2314 2315
2275 6 2314 2316
2276 6 2314 2317
2277 6 2315 2318
2278 6 2315 2319
2279 4 2320 2321
2280 6 2320 2322
2281 6 2320 2323
2282 6 2321 2324
2283 6 2321 2325
2284 4 2326 2327
2285 6 2326 2328
2286 6 2326 2329
2287 6 2327 2330
2288 6 2327 2331
2289 4 2332 2333
2290 6 2332 2334
2291 6 2332 2335
2292 6 2333 2336
2293 6 2333 2337
2294 4 2338 2339
2295 6 2338 2340
2296 6 2338 2341
2297 6 2339 2342
2298 6 2339 2343
2299 4 2344 2345
2300 6 2344 2346
2301 6 2344 2347
2302 6 2345 2348
2303 6 2345 2349
2304 4 2350 2351
2305 6 2350 2352
2306 6 2350 2353
2307 6 2351 2354
2308 6 2351 2355
2309 4 2356 2357
2310 6 2356 2358
2311 6 2356 2359
2312 6 2357 2360
2313 6 2357 2361
2314 4 2362 2363
2315 6 2362 2364
2316 6 2362 2365
2317 6 2363 2366
2318 6 2363 2367
2319 4 2368 2369
2320 6 2368 2370
2321 6 2368 2371
2322 6 2369 2372
2323 6 2369 2373
2324 4 2374 2375
2325 6 2374 2376
2326 6 2374 2377
2327 6 2375 2378
2328 6 2375 2379
2329 4 2380 2381
2330 6 2380 2382
2331 6 2380 2383
2332 6 2381 2384
2333 6 2381 2385
2334 4 2386 2387
2335 6 2386 2388
2336 6 2386 2389
2337 6 2387 2390
2338 6 2387 2391
2339 4 2392 2393
2340 6 2392 2394
2341 6 2392 2395
2342 6 2393 2396
2343 6 2393 2397
2344 4 2398 2399
2345 6 2398 2400
2346 6 2398 2401
2347 6 2399 2402
2348 6 2399 2403
2349 4 2404 2405
2350 6 2404 2406
2351 6 2404 2407
2352 6 2405 2408
2353 6 2405 2409
2354 3 2410 2411
2355 6 2410 2412
2356 6 2410 2413
2357 5 2411 2414
2358 5 2411 2415
2359 5 2411 2416
2360 4 2116 2122
2361 4 2123 2128
2362 4 2129 2134
2363 4 2135 2140
2364 4 2141 2146
2365 4 2147 2152
2366 4 2153 2158
2367 4 2159 2164
2368 4 2165 2170
2369 4 2171 2176
2370 4 2177 2182
2371 4 2183 2188
2372 4 2189 2194
2373 4 2195 2200
2374 4 2201 2206
2375 4 2207 2212
2376 4 2213 2218
2377 4 2219 2224
2378 4 2225 2230
2379 4 2231 2236
2380 4 2237 2242
2381 4 2243 2248
2382 4 2249 2254
2383 4 2255 2260
2384 4 2261 2266
2385 4 2267 2272
2386 4 2273 2278
2387 4 2279 2284
2388 4 2285 2290
2389 4 2291 2296
2390 4 2297 2302
2391 4 2303 2308
2392 4 2309 2314
2393 4 2315 2320
2394 4 2321 2326
2395 4 2327 2332
2396 4 2333 2338
2397 4 2339 2344
2398 4 2345 2350
2399 4 2351 2356
2400 4 2357 2362
2401 4 2363 2368
2402 4 2369 2374
2403 4 2375 2380
2404 4 2381 2386
2405 4 2387 2392
2406 4 2393 2398
2407 4 2399 2404
2408 4 2405 2410
2409 3 2417 2418
2410 5 2417 2419
2411 5 2417 2420
2412 5 2417 2421
2413 6 2418 2422
2414 6 2418 2423
2415 4 2424 2425
2416 6 2424 2426
2417 6 2424 2427
2418 6 2425 2428
2419 6 2425 2429
2420 4 2430 2431
2421 6 2430 2432
2422 6 2430 2433
2423 6 2431 2434
2424 6 2431 2435
2425 4 2436 2437
2426 6 2436 2438
2427 6 2436 2439
2428 6 2437 2440
2429 6 2437 2441
2430 4 2442 2443
2431 6 2442 2444
2432 6 2442 2445
2433 6 2443 2446
2434 6 2443 2447
2435 4 2448 2449
2436 6 2448 2450
2437 6 2448 2451
2438 6 2449 2452
2439 6 2449 2453
2440 4 2454 2455
2441 6 2454 2456
2442 6 2454 2457
2443 6 2455 2458
2444 6 2455 2459
2445 4 2460 2461
2446 6 2460 2462
2447 6 2460 2463
2448 6 2461 2464
2449 6 2461 2465
2450 4 2466 2467
2451 6 2466 2468
2452 6 2466 2469
2453 6 2467 2470
2454 6 2467 2471
2455 4 2472 2473
2456 6 2472 2474
2457 6 2472 2475
2458 6 2473 2476
2459 6 2473 2477
2460 4 2478 2479
2461 6 2478 2480
2462 6 2478 2481
2463 6 2479 2482
2464 6 2479 2483
2465 4 2484 2485
2466 6 2484 2486
2467 6 2484 2487
2468 6 2485 2488
2469 6 2485 2489
2470 4 2490 2491
2471 6 2490 2492
2472 6 2490 2493
2473 6 2491 2494
2474 6 2491 2495
2475 4 2496 2497
2476 6 2496 2498
2477 6 2496 2499
2478 6 2497 2500
2479 6 2497 2501
2480 4 2502 2503
2481 6 2502 2504
2482 6 2502 2505
2483 6 2503 2506
2484 6 2503 2507
2485 4 2508 2509
2486 6 2508 2510
2487 6 2508 2511
2488 6 2509 2512
2489 6 2509 2513
2490 4 2514 2515
2491 6 2514 2516
2492 6 2514 2517
2493 6 2515 2518
2494 6 2515 2519
2495 4 2520 2521
2496 6 2520 2522
2497 6 2520 2523
2498 6 2521 2524
2499 6 2521 2525
2500 4 2526 2527
2501 6 2526 2528
2502 6 2526 2529
2503 6 2527 2530
2504 6 2527 2531
2505 4 2532 2533
2506 6 2532 2534
2507 6 2532 2535
2508 6 2533 2536
2509 6 2533 2537
2510 4 2538 2539
2511 6 2538 2540
2512 6 2538 2541
2513 6 2539 2542
2514 6 2539 2543
2515 4 2544 2545
2516 6 2544 2546
2517 6 2544 2547
2518 6 2545 2548
2519 6 2545 2549
2520 4 2550 2551
2521 6 2550 2552
2522 6 2550 2553
2523 6 2551 2554
2524 6 2551 2555
2525 4 2556 2557
2526 6 2556 2558
2527 6 2556 2559
2528 6 2557 2560
2529 6 2557 2561
2530 4 2562 2563
2531 6 2562 2564
2532 6 2562 2565
2533 6 2563 2566
2534 6 2563 2567
2535 4 2568 2569
2536 6 2568 2570
2537 6 2568 2571
2538 6 2569 2572
2539 6 2569 2573
2540 4 2574 2575
2541 6 2574 2576
2542 6 2574 2577
2543 6 2575 2578
2544 6 2575 2579
2545 4 2580 2581
2546 6 2580 2582
2547 6 2580 2583
2548 6 2581 2584
2549 6 2581 2585
2550 4 2586 2587
2551 6 2586 2588
2552 6 2586 2589
2553 6 2587 2590
2554 6 2587 2591
2555 4 2592 2593
2556 6 2592 2594
2557 6 2592 2595
2558 6 2593 2596
2559 6 2593 2597
2560 4 2598 2599
2561 6 2598 2600
2562 6 2598 2601
2563 6 2599 2602
2564 6 2599 2603
2565 4 2604 2605
2566 6 2604 2606
2567 6 2604 2607
2568 6 2605 2608
2569 6 2605 2609
2570 4 2610 2611
2571 6 2610 2612
2572 6 2610 2613
2573 6 2611 2614
2574 6 2611 2615
2575 4 2616 2617
2576 6 2616 2618
2577 6 2616 2619
2578 6 2617 2620
2579 6 2617 2621
2580 4 2622 2623
2581 6 2622 2624
2582 6 2622 2625
2583 6 2623 2626
2584 6 2623 2627
2585 4 2628 2629
2586 6 2628 2630
2587 6 2628 2631
2588 6 2629 2632
2589 6 2629 2633
2590 4 2634 2635
2591 6 2634 2636
2592 6 2634 2637
2593 6 2635 2638
2594 6 2635 2639
2595 4 2640 2641
2596 6 2640 2642
2597 6 2640 2643
2598 6 2641 2644
2599 6 2641 2645
2600 4 2646 2647
2601 6 2646 2648
2602 6 2646 2649
2603 6 2647 2650
2604 6 2647 2651
2605 4 2652 2653
2606 6 2652 2654
2607 6 2652 2655
2608 6 2653 2656
2609 6 2653 2657
2610 4 2658 2659
2611 6 2658 2660
2612 6 2658 2661
2613 6 2659 2662
2614 6 2659 2663
2615 4 2664 2665
2616 6 2664 2666
2617 6 2664 2667
2618 6 2665 2668
2619 6 2665 2669
2620 4 2670 2671
2621 6 2670 2672
2622 6 2670 2673
2623 6 2671 2674
2624 6 2671 2675
2625 4 2676 2677
2626 6 2676 2678
2627 6 2676 2679
2628 6 2677 2680
2629 6 2677 2681
2630 4 2682 2683
2631 6 2682 2684
2632 6 2682 2685
2633 6 2683 2686
2634 6 2683 2687
2635 4 2688 2689
2636 6 2688 2690
2637 6 2688 2691
2638 6 2689 2692
2639 6 2689 2693
2640 4 2694 2695
2641 6 2694 2696
2642 6 2694 2697
2643 6 2695 2698
2644 6 2695 2699
2645 4 2700 2701
2646 6 2700 2702
2647 6 2700 2703
2648 6 2701 2704
2649 6 2701 2705
2650 4 2706 2707
2651 6 2706 2708
2652 6 2706 2709
2653 6 2707 2710
2654 6 2707 2711
2655 3 2712 2713
2656 6 2712 2714
2657 6 2712 2715
2658 5 2713 2716
2659 5 2713 2717
2660 5 2713 2718
2661 4 2418 2424
2662 4 2425 2430
2663 4 2431 2436
2664 4 2437 2442
2665 4 2443 2448
2666 4 2449 2454
2667 4 2455 2460
2668 4 2461 2466
2669 4 2467 2472
2670 4 2473 2478
2671 4 2479 2484
2672 4 2485 2490
2673 4 2491 2496
2674 4 2497 2502
2675 4 2503 2508
2676 4 2509 2514
2677 4 2515 2520
2678 4 2521 2526
2679 4 2527 2532
2680 4 2533 2538
2681 4 2539 2544
2682 4 2545 2550
2683 4 2551 2556
2684 4 2557 2562
2685 4 2563 2568
2686 4 2569 2574
2687 4 2575 2580
2688 4 2581 2586
2689 4 2587 2592
2690 4 2593 2598
2691 4 2599 2604
2692 4 2605 2610
2693 4 2611 2616
2694 4 2617 2622
2695 4 2623 2628
2696 4 2629 2634
2697 4 2635 2640
2698 4 2641 2646
2699 4 2647 2652
2700 4 2653 2658
2701 4 2659 2664
2702 4 2665 2670
2703 4 2671 2676
2704 4 2677 2682
2705 4 2683 2688
2706 4 2689 2694
2707 4 2695 2700
2708 4 2701 2706
2709 4 2707 2712
2710 3 2719 2720
2711 5 2719 2721
2712 5 2719 2722
2713 5 2719 2723
2714 6 2720 2724
2715 6 2720 2725
2716 4 2726 2727
2717 6 2726 2728
2718 6 2726 2729
2719 6 2727 2730
2720 6 2727 2731
2721 4 2732 2733
2722 6 2732 2734
2723 6 2732 2735
2724 6 2733 2736
2725 6 2733 2737
2726 4 2738 2739
2727 6 2738 2740
2728 6 2738 2741
2729 6 2739 2742
2730 6 2739 2743
2731 4 2744 2745
2732 6 2744 2746
2733 6 2744 2747
2734 6 2745 2748
2735 6 2745 2749
2736 4 2750 2751
2737 6 2750 2752
2738 6 2750 2753
2739 6 2751 2754
2740 6 2751 2755
2741 4 2756 2757
2742 6 2756 2758
2743 6 2756 2759
2744 6 2757 2760
2745 6 2757 2761
2746 4 2762 2763
2747 6 2762 2764
2748 6 2762 2765
2749 6 2763 2766
2750 6 2763 2767
2751 4 2768 2769
2752 6 2768 2770
2753 6 2768 2771
2754 6 2769 2772
2755 6 2769 2773
2756 4 2774 2775
2757 6 2774 2776
2758 6 2774 2777
2759 6 2775 2778
2760 6 2775 2779
2761 4 2780 2781
2762 6 2780 2782
2763 6 2780 2783
2764 6 2781 2784
2765 6 2781 2785
2766 4 2786 2787
2767 6 2786 2788
2768 6 2786 2789
2769 6 2787 2790
2770 6 2787 2791
2771 4 2792 2793
2772 6 2792 2794
2773 6 2792 2795
2774 6 2793 2796
2775 6 2793 2797
2776 4 2798 2799
2777 6 2798 2800
2778 6 2798 2801
2779 6 2799 2802
2780 6 2799 2803
2781 4 2804 2805
2782 6 2804 2806
2783 6 2804 2807
2784 6 2805 2808
2785 6 2805 2809
2786 4 2810 2811
2787 6 2810 2812
2788 6 2810 2813
2789 6 2811 2814
2790 6 2811 2815
2791 4 2816 2817
2792 6 2816 2818
2793 6 2816 2819
2794 6 2817 2820
2795 6 2817 2821
2796 4 2822 2823
2797 6 2822 2824
2798 6 2822 2825
2799 6 2823 2826
2800 6 2823 2827
2801 4 2828 2829
2802 6 2828 2830
2803 6 2828 2831
2804 6 2829 2832
2805 6 2829 2833
2806 4 2834 2835
2807 6 2834 2836
2808 6 2834 2837
2809 6 2835 2838
2810 6 2835 2839
2811 4 2840 2841
2812 6 2840 2842
2813 6 2840 2843
2814 6 2841 2844
2815 6 2841 2845
2816 4 2846 2847
2817 6 2846 2848
2818 6 2846 2849
2819 6 2847 2850
2820 6 2847 2851
2821 4 2852 2853
2822 6 2852 2854
2823 6 2852 2855
2824 6 2853 2856
2825 6 2853 2857
2826 4 2858 2859
2827 6 2858 2860
2828 6 2858 2861
2829 6 2859 2862
2830 6 2859 2863
2831 4 2864 2865
2832 6 2864 2866
2833 6 2864 2867
2834 6 2865 2868
2835 6 2865 2869
2836 4 2870 2871
2837 6 2870 2872
2838 6 2870 2873
2839 6 2871 2874
2840 6 2871 2875
2841 4 2876 2877
2842 6 2876 2878
2843 6 2876 2879
2844 6 2877 2880
2845 6 2877 2881
2846 4 2882 2883
2847 6 2882 2884
2848 6 2882 2885
2849 6 2883 2886
2850 6 2883 2887
2851 4 2888 2889
2852 6 2888 2890
2853 6 2888 2891
2854 6 2889 2892
2855 6 2889 2893
2856 4 2894 2895
2857 6 2894 2896
2858 6 2894 2897
2859 6 2895 2898
2860 6 2895 2899
2861 4 2900 2901
2862 6 2900 2902
2863 6 2900 2903
2864 6 2901 2904
2865 6 2901 2905
2866 4 2906 2907
2867 6 2906 2908
2868 6 2906 2909
2869 6 2907 2910
2870 6 2907 2911
2871 4 2912 2913
2872 6 2912 2914
2873 6 2912 2915
2874 6 2913 2916
2875 6 2913 2917
2876 4 2918 2919
2877 6 2918 2920
2878 6 2918 2921
2879 6 2919 2922
2880 6 2919 2923
2881 4 2924 2925
2882 6 2924 2926
2883 6 2924 2927
2884 6 2925 2928
2885 6 2925 2929
2886 4 2930 2931
2887 6 2930 2932
2888 6 2930 2933
2889 6 2931 2934
2890 6 2931 2935
2891 4 2936 2937
2892 6 2936 2938
2893 6 2936 2939
2894 6 2937 2940
2895 6 2937 2941
2896 4 2942 2943
2897 6 2942 2944
2898 6 2942 2945
2899 6 2943 2946
2900 6 2943 2947
2901 4 2948 2949
2902 6 2948 2950
2903 6 2948 2951
2904 6 2949 2952
2905 6 2949 2953
2906 4 2954 2955
2907 6 2954 2956
2908 6 2954 2957
2909 6 2955 2958
2910 6 2955 2959
2911 4 2960 2961
2912 6 2960 2962
2913 6 2960 2963
2914 6 2961 2964
2915 6 2961 2965
2916 4 2966 2967
2917 6 2966 2968
2918 6 2966 2969
2919 6 2967 2970
2920 6 2967 2971
2921 4 2972 2973
2922 6 2972 2974
2923 6 2972 2975
2924 6 2973 2976
2925 6 2973 2977
2926 4 2978 2979
2927 6 2978 2980
2928 6 2978 2981
2929 6 2979 2982
2930 6 2979 2983
2931 4 2984 2985
2932 6 2984 2986
2933 6 2984 2987
2934 6 2985 2988
2935 6 2985 2989
2936 4 2990 2991
2937 6 2990 2992
2938 6 2990 2993
2939 6 2991 2994
2940 6 2991 2995
2941 4 2996 2997
2942 6 2996 2998
2943 6 2996 2999
2944 6 2997 3000
2945 6 2997 3001
2946 4 3002 3003
2947 6 3002 3004
2948 6 3002 3005
2949 6 3003 3006
2950 6 3003 3007
2951 4 3008 3009
2952 6 3008 3010
2953 6 3008 3011
2954 6 3009 3012
2955 6 3009 3013
2956 3 3014 3015
2957 6 3014 3016
2958 6 3014 3017
2959 5 3015 3018
2960 5 3015 3019
2961 5 3015 3020
2962 4 2720 2726
2963 4 2727 2732
2964 4 2733 2738
2965 4 2739 2744
2966 4 2745 2750
2967 4 2751 2756
2968 4 2757 2762
2969 4 2763 2768
2970 4 2769 2774
2971 4 2775 2780
2972 4 2781 2786
2973 4 2787 2792
2974 4 2793 2798
2975 4 2799 2804
2976 4 2805 2810
2977 4 2811 2816
2978 4 2817 2822
2979 4 2823 2828
2980 4 2829 2834
2981 4 2835 2840
2982 4 2841 2846
2983 4 2847 2852
2984 4 2853 2858
2985 4 2859 2864
2986 4 2865 2870
2987 4 2871 2876
2988 4 2877 2882
2989 4 2883 2888
2990 4 2889 2894
2991 4 2895 2900
2992 4 2901 2906
2993 4 2907 2912
2994 4 2913 2918
2995 4 2919 2924
2996 4 2925 2930
2997 4 2931 2936
2998 4 2937 2942
2999 4 2943 2948
3000 4 2949 2954
3001 4 2955 2960
3002 4 2961 2966
3003 4 2967 2972
3004 4 2973 2978
3005 4 2979 2984
3006 4 2985 2990
3007 4 2991 2996
3008 4 2997 3002
3009 4 3003 3008
3010 4 3009 3014

Angles

1 1 3 1 4
2 1 3 1 5
3 1 4 1 5
4 1 300 297 301
5 1 300 297 302
6 1 301 297 302
7 1 305 303 306
8 1 305 303 307
9 1 306 303 307
10 1 602 599 603
11 1 602 599 604
12 1 603 599 604
13 1 607 605 608
14 1 607 605 609
15 1 608 605 609
16 1 904 901 905
17 1 904 901 906
18 1 905 901 906
19 1 909 907 910
20 1 909 907 911
21 1 910 907 911
22 1 1206 1203 1207
23 1 1206 1203 1208
24 1 1207 1203 1208
25 1 1211 1209 1212
26 1 1211 1209 1213
27 1 1212 1209 1213
28 1 1508 1505 1509
29 1 1508 1505 1510
30 1 1509 1505 1510
31 1 1513 1511 1514
32 1 1513 1511 1515
33 1 1514 1511 1515
34 1 1810 1807 1811
35 1 1810 1807 1812
36 1 1811 1807 1812
37 1 1815 1813 1816
38 1 1815 1813 1817
39 1 1816 1813 1817
40 1 2112 2109 2113
41 1 2112 2109 2114
42 1 2113 2109 2114
43 1 2117 2115 2118
44 1 2117 2115 2119
45 1 2118 2115 2119
46 1 2414 2411 2415
47 1 2414 2411 2416
48 1 2415 2411 2416
49 1 2419 2417 2420
50 1 2419 2417 2421
51 1 2420 2417 2421
52 1 2716 2713 2717
53 1 2716 2713 2718
54 1 2717 2713 2718
55 1 2721 2719 2722
56 1 2721 2719 2723
57 1 2722 2719 2723
58 1 3018 3015 3019
59 1 3018 3015 3020
60 1 3019 3015 3020
61 2 6 2 7
62 2 10 8 11
63 2 12 9 13
64 2 16 14 17
65 2 18 15 19
66 2 22 20 23
67 2 24 21 25
68 2 28 26 29
69 2 30 27 31
70 2 34 32 35
71 2 36 33 37
72 2 40 38 41
73 2 42 39 43
74 2 46 44 47
75 2 48 45 49
76 2 52 50 53
77 2 54 51 55
78 2 58 56 59
79 2 60 57 61
80 2 64 62 65
81 2 66 63 67
82 2 70 68 71
83 2 72 69 73
84 2 76 74 77
85 2 78 75 79
86 2 82 80 83
87 2 84 81 85
88 2 88 86 89
89 2 90 87 91
90 2 94 92 95
91 2 96 93 97
92 2 100 98 101
93 2 102 99 103
94 2 106 104 107
95 2 108 105 109
96 2 112 110 113
97 2 114 111 115
98 2 118 116 119
99 2 120 117 121
100 2 124 122 125
101 2 126 123 127
102 2 130 128 131
103 2 132 129 133
104 2 136 134 137
105 2 138 135 139
106 2 142 140 143
107 2 144 141 145
108 2 148 146 149
109 2 150 147 151
110 2 154 152 155
111 2 156 153 157
112 2 160 158 161
113 2 162 159 163
114 2 166 164 167
115 2 168 165 169
116 2 172 170 173
117 2 174 171 175
118 2 178 176 179
119 2 180 177 181
120 2 184 182 185
121 2 186 183 187
122 2 190 188 191
123 2 192 189 193
124 2 196 194 197
125 2 198 195 199
126 2 202 200 203
127 2 204 201 205
128 2 208 206 209
129 2 210 207 211
130 2 214 212 215
131 2 216 213 217
132 2 220 218 221
133 2 222 219 223
134 2 226 224 227
135 2 228 225 229
136 2 232 230 233
137 2 234 231 235
138 2 238 236 239
139 2 240 237 241
140 2 244 242 245
141 2 246 243 247
142 2 250 248 251
143 2 252 249 253
144 2 256 254 257
145 2 258 255 259
146 2 262 260 263
147 2 264 261 265
148 2 268 266 269
149 2 270 267 271
150 2 274 272 275
151 2 276 273 277
152 2 280 278 281
153 2 282 279 283
154 2 286 284 287
155 2 288 285 289
156 2 292 290 293
157 2 294 291 295
158 2 298 296 299
159 2 308 304 309
160 2 312 310 313
161 2 314 311 315
162 2 318 316 319
163 2 320 317 321
164 2 324 322 325
165 2 326 323 327
166 2 330 328 331
167 2 332 329 333
168 2 336 334 337
169 2 338 335 339
170 2 342 340 343
171 2 344 341 345
172 2 348 346 349
173 2 350 347 351
174 2 354 352 355
175 2 356 353 357
176 2 360 358 361
177 2 362 359 363
178 2 366 364 367
179 2 368 365 369
180 2 372 370 373
181 2 374 371 375
182 2 378 376 379
183 2 380 377 381
184 2 384 382 385
185 2 386 383 387
186 2 390 388 391
187 2 392 389 393
188 2 396 394 397
189 2 398 395 399
190 2 402 400 403
191 2 404 401 405
192 2 408 406 409
193 2 410 407 411
194 2 414 412 415
195 2 416 413 417
196 2 420 418 421
197 2 422 419 423
198 2 426 424 427
199 2 428 425 429
200 2 432 430 433
201 2 434 431 435
202 2 438 436 439
203 2 440 437 441
204 2 444 442 445
205 2 446 443 447
206 2 450 448 451
207 2 452 449 453
208 2 456 454 457
209 2 458 455 459
210 2 462 460 463
211 2 464 461 465
212 2 468 466 469
213 2 470 467 471
214 2 474 472 475
215 2 476 473 477
216 2 480 478 481
217 2 482 479 483
218 2 486 484 487
219 2 488 485 489
220 2 492 490 493
221 2 494 491 495
222 2 498 496 499
223 2 500 497 501
224 2 504 502 505
225 2 506 503 507
226 2 510 508 511
227 2 512 509 513
228 2 516 514 517
229 2 518 515 519
230 2 522 520 523
231 2 524 521 525
232 2 528 526 529
233 2 530 527 531
234 2 534 532 535
235 2 536 533 537
236 2 540 538 541
237 2 542 539 543
238 2 546 544 547
239 2 548 545 549
240 2 552 550 553
241 2 554 551 555
242 2 558 556 559
243 2 560 557 561
244 2 564 562 565
245 2 566 563 567
246 2 570 568 571
247 2 572 569 573
248 2 576 574 577
249 2 578 575 579
250 2 582 580 583
251 2 584 581 585
252 2 588 586 589
253 2 590 587 591
254 2 594 592 595
255 2 596 593 597
256 2 600 598 601
257 2 610 606 611
258 2 614 612 615
259 2 616 613 617
260 2 620 618 621
261 2 622 619 623
262 2 626 624 627
263 2 628 625 629
264 2 632 630 633
265 2 634 631 635
266 2 638 636 639
267 2 640 637 641
268 2 644 642 645
269 2 646 643 647
270 2 650 648 651
271 2 652 649 653
272 2 656 654 657
273 2 658 655 659
274 2 662 660 663
275 2 664 661 665
276 2 668 666 669
277 2 670 667 671
278 2 674 672 675
279 2 676 673 677
280 2 680 678 681
281 2 682 679 683
282 2 686 684 687
283 2 688 685 689
284 2 692 690 693
285 2 694 691 695
286 2 698 696 699
287 2 700 697 701
288 2 704 702 705
289 2 706 703 707
290 2 710 708 711
291 2 712 709 713
292 2 716 714 717
293 2 718 715 719
294 2 722 720 723
295 2 724 721 725
296 2 728 726 729
297 2 730 727 731
298 2 734 732 735
299 2 736 733 737
300 2 740 738 741
301 2 742 739 743
302 2 746 744 747
303 2 748 745 749
304 2 752 750 753
305 2 754 751 755
306 2 758 756 759
307 2 760 757 761
308 2 764 762 765
309 2 766 763 767
310 2 770 768 771
311 2 772 769 773
312 2 776 774 777
313 2 778 775 779
314 2 782 780 783
315 2 784 781 785
316 2 788 786 789
317 2 790 787 791
318 2 794 792 795
319 2 796 793 797
320 2 800 798 801
321 2 802 799 803
322 2 806 804 807
323 2 808 805 809
324 2 812 810 813
325 2 814 811 815
326 2 818 816 819
327 2 820 817 821
328 2 824 822 825
329 2 826 823 827
330 2 830 828 831
331 2 832 829 833
332 2 836 834 837
333 2 838 835 839
334 2 842 840 843
335 2 844 841 845
336 2 848 846 849
337 2 850 847 851
338 2 854 852 855
339 2 856 853 857
340 2 860 858 861
341 2 862 859 863
342 2 866 864 867
343 2 868 865 869
344 2 872 870 873
345 2 874 871 875
346 2 878 876 879
347 2 880 877 881
348 2 884 882 885
349 2 886 883 887
350 2 890 888 891
351 2 892 889 893
352 2 896 894 897
353 2 898 895 899
354 2 902 900 903
355 2 912 908 913
356 2 916 914 917
357 2 918 915 919
358 2 922 920 923
359 2 924 921 925
360 2 928 926 929
361 2 930 927 931
362 2 934 932 935
363 2 936 933 937
364 2 940 938 941
365 2 942 939 943
366 2 946 944 947
367 2 948 945 949
368 2 952 950 953
369 2 954 951 955
370 2 958 956 959
371 2 960 957 961
372 2 964 962 965
373 2 966 963 967
374 2 970 968 971
375 2 972 969 973
376 2 976 974 977
377 2 978 975 979
378 2 982 980 983
379 2 984 981 985
380 2 988 986 989
381 2 990 987 991
382 2 994 992 995
383 2 996 993 997
384 2 1000 998 1001
385 2 1002 999 1003
386 2 1006 1004 1007
387 2 1008 1005 1009
388 2 1012 1010 1013
389 2 1014 1011 1015
390 2 1018 1016 1019
391 2 1020 1017 1021
392 2 1024 1022 1025
393 2 1026 1023 1027
394 2 1030 1028 1031
395 2 1032 1029 1033
396 2 1036 1034 1037
397 2 1038 1035 1039
398 2 1042 1040 1043
399 2 1044 1041 1045
400 2 1048 1046 1049
401 2 1050 1047 1051
402 2 1054 1052 1055
403 2 1056 1053 1057
404 2 1060 1058 1061
405 2 1062 1059 1063
406 2 1066 1064 1067
407 2 1068 1065 1069
408 2 1072 1070 1073
409 2 1074 1071 1075
410 2 1078 1076 1079
411 2 1080 1077 1081
412 2 1084 1082 1085
413 2 1086 1083 1087
414 2 1090 1088 1091
415 2 1092 1089 1093
416 2 1096 1094 1097
417 2 1098 1095 1099
418 2 1102 1100 1103
419 2 1104 1101 1105
420 2 1108 1106 1109
421 2 1110 1107 1111
422 2 1114 1112 1115
423 2 1116 1113 1117
424 2 1120 1118 1121
425 2 1122 1119 1123
426 2 1126 1124 1127
427 2 1128 1125 1129
428 2 1132 1130 1133
429 2 1134 1131 1135
430 2 1138 1136 1139
431 2 1140 1137 1141
432 2 1144 1142 1145
433 2 1146 1143 1147
434 2 1150 1148 1151
435 2 1152 1149 1153
436 2 1156 1154 1157
437 2 1158 1155 1159
438 2 1162 1160 1163
439 2 1164 1161 1165
440 2 1168 1166 1169
441 2 1170 1167 1171
442 2 1174 1172 1175
443 2 1176 1173 1177
444 2 1180 1178 1181
445 2 1182 1179 1183
446 2 1186 1184 1187
447 2 1188 1185 1189
448 2 1192 1190 1193
449 2 1194 1191 1195
450 2 1198 1196 1199
451 2 1200 1197 1201
452 2 1204 1202 1205
453 2 1214 1210 1215
454 2 1218 1216 1219
455 2 1220 1217 1221
456 2 1224 1222 1225
457 2 1226 1223 1227
458 2 1230 1228 1231
459 2 1232 1229 1233
460 2 1236 1234 1237
461 2 1238 1235 1239
462 2 1242 1240 1243
463 2 1244 1241 1245
464 2 1248 1246 1249
465 2 1250 1247 1251
466 2 1254 1252 1255
467 2 1256 1253 1257
468 2 1260 1258 1261
469 2 1262 1259 1263
470 2 1266 1264 1267
471 2 1268 1265 1269
472 2 1272 1270 1273
473 2 1274 1271 1275
474 2 1278 1276 1279
475 2 1280 1277 1281
476 2 1284 1282 1285
477 2 1286 1283 1287
478 2 1290 1288 1291
479 2 1292 1289 1293
480 2 1296 1294 1297
481 2 1298 1295 1299
482 2 1302 1300 1303
483 2 1304 1301 1305
484 2 1308 1306 1309
485 2 1310 1307 1311
486 2 1314 1312 1315
487 2 1316 1313 1317
488 2 1320 1318 1321
489 2 1322 1319 1323
490 2 1326 1324 1327
491 2 1328 1325 1329
492 2 1332 1330 1333
493 2 1334 1331 1335
494 2 1338 1336 1339
495 2 1340 1337 1341
496 2 1344 1342 1345
497 2 1346 1343 1347
498 2 1350 1348 1351
499 2 1352 1349 1353
500 2 1356 1354 1357
501 2 1358 1355 1359
502 2 1362 1360 1363
503 2 1364 1361 1365
504 2 1368 1366 1369
505 2 1370 1367 1371
506 2 1374 1372 1375
507 2 1376 1373 1377
508 2 1380 1378 1381
509 2 1382 1379 1383
510 2 1386 1384 1387
511 2 1388 1385 1389
512 2 1392 1390 1393
513 2 1394 1391 1395
514 2 1398 1396 1399
515 2 1400 1397 1401
516 2 1404 1402 1405
517 2 1406 1403 1407
518 2 1410 1408 1411
519 2 1412 1409 1413
520 2 1416 1414 1417
521 2 1418 1415 1419
522 2 1422 1420 1423
523 2 1424 1421 1425
524 2 1428 1426 1429
525 2 1430 1427 1431
526 2 1434 1432 1435
527 2 1436 1433 1437
528 2 1440 1438 1441
529 2 1442 1439 1443
530 2 1446 1444 1447
531 2 1448 1445 1449
532 2 1452 1450 1453
533 2 1454 1451 1455
534 2 1458 1456 1459
535 2 1460 1457 1461
536 2 1464 1462 1465
537 2 1466 1463 1467
538 2 1470 1468 1471
539 2 1472 1469 1473
540 2 1476 1474 1477
541 2 1478 1475 1479
542 2 1482 1480 1483
543 2 1484 1481 1485
544 2 1488 1486 1489
545 2 1490 1487 1491
546 2 1494 1492 1495
547 2 1496 1493 1497
548 2 1500 1498 1501
549 2 1502 1499 1503
550 2 1506 1504 1507
551 2 1516 1512 1517
552 2 1520 1518 1521
553 2 1522 1519 1523
554 2 1526 1524 1527
555 2 1528 1525 1529
556 2 1532 1530 1533
557 2 1534 1531 1535
558 2 1538 1536 1539
559 2 1540 1537 1541
560 2 1544 1542 1545
561 2 1546 1543 1547
562 2 1550 1548 1551
563 2 1552 1549 1553
564 2 1556 1554 1557
565 2 1558 1555 1559
566 2 1562 1560 1563
567 2 1564 1561 1565
568 2 1568 1566 1569
569 2 1570 1567 1571
570 2 1574 1572 1575
571 2 1576 1573 1577
572 2 1580 1578 1581
573 2 1582 1579 1583
574 2 1586 1584 1587
575 2 1588 1585 1589
576 2 1592 1590 1593
577 2 1594 1591 1595
578 2 1598 1596 1599
579 2 1600 1597 1601
580 2 1604 1602 1605
581 2 1606 1603 1607
582 2 1610 1608 1611
583 2 1612 1609 1613
584 2 1616 1614 1617
585 2 1618 1615 1619
586 2 1622 1620 1623
587 2 1624 1621 1625
588 2 1628 1626 1629
589 2 1630 1627 1631
590 2 1634 1632 1635
591 2 1636 1633 1637
592 2 1640 1638 1641
593 2 1642 1639 1643
594 2 1646 1644 1647
595 2 1648 1645 1649
596 2 1652 1650 1653
597 2 1654 1651 1655
598 2 1658 1656 1659
599 2 1660 1657 1661
600 2 1664 1662 1665
601 2 1666 1663 1667
602 2 1670 1668 1671
603 2 1672 1669 1673
604 2 1676 1674 1677
605 2 1678 1675 1679
606 2 1682 1680 1683
607 2 1684 1681 1685
608 2 1688 1686 1689
609 2 1690 1687 1691
610 2 1694 1692 1695
611 2 1696 1693 1697
612 2 1700 1698 1701
613 2 1702 1699 1703
614 2 1706 1704 1707
615 2 1708 1705 1709
616 2 1712 1710 1713
617 2 1714 1711 1715
618 2 1718 1716 1719
619 2 1720 1717 1721
620 2 1724 1722 1725
621 2 1726 1723 1727
622 2 1730 1728 1731
623 2 1732 1729 1733
624 2 1736 1734 1737
625 2 1738 1735 1739
626 2 1742 1740 1743
627 2 1744 1741 1745
628 2 1748 1746 1749
629 2 1750 1747 1751
630 2 1754 1752 1755
631 2 1756 1753 1757
632 2 1760 1758 1761
633 2 1762 1759 1763
634 2 1766 1764 1767
635 2 1768 1765 1769
636 2 1772 1770 1773
637 2 1774 1771 1775
638 2 1778 1776 1779
639 2 1780 1777 1781
640 2 1784 1782 1785
641 2 1786 1783 1787
642 2 1790 1788 1791
643 2 1792 1789 1793
644 2 1796 1794 1797
645 2 1798 1795 1799
646 2 1802 1800 1803
647 2 1804 1801 1805
648 2 1808 1806 1809
649 2 1818 1814 1819
650 2 1822 1820 1823
651 2 1824 1821 1825
652 2 1828 1826 1829
653 2 1830 1827 1831
654 2 1834 1832 1835
655 2 1836 1833 1837
656 2 1840 1838 1841
657 2 1842 1839 1843
658 2 1846 1844 1847
659 2 1848 1845 1849
660 2 1852 1850 1853
661 2 1854 1851 1855
662 2 1858 1856 1859
663 2 1860 1857 1861
664 2 1864 1862 1865
665 2 1866 1863 1867
666 2 1870 1868 1871
667 2 1872 1869 1873
668 2 1876 1874 1877
669 2 1878 1875 1879
670 2 1882 1880 1883
671 2 1884 1881 1885
672 2 1888 1886 1889
673 2 1890 1887 1891
674 2 1894 1892 1895
675 2 1896 1893 1897
676 2 1900 1898 1901
677 2 1902 1899 1903
678 2 1906 1904 1907
679 2 1908 1905 1909
680 2 1912 1910 1913
681 2 1914 1911 1915
682 2 1918 1916 1919
683 2 1920 1917 1921
684 2 1924 1922 1925
685 2 1926 1923 1927
686 2 1930 1928 1931
687 2 1932 1929 1933
688 2 1936 1934 1937
689 2 1938 1935 1939
690 2 1942 1940 1943
691 2 1944 1941 1945
692 2 1948 1946 1949
693 2 1950 1947 1951
694 2 1954 1952 1955
695 2 1956 1953 1957
696 2 1960 1958 1961
697 2 1962 1959 1963
698 2 1966 1964 1967
699 2 1968 1965 1969
700 2 1972 1970 1973
701 2 1974 1971 1975
702 2 1978 1976 1979
703 2 1980 1977 1981
704 2 1984 1982 1985
705 2 1986 1983 1987
706 2 1990 1988 1991
707 2 1992 1989 1993
708 2 1996 1994 1997
709 2 1998 1995 1999
710 2 2002 2000 2003
711 2 2004 2001 2005
712 2 2008 2006 2009
713 2 2010 2007 2011
714 2 2014 2012 2015
715 2 2016 2013 2017
716 2 2020 2018 2021
717 2 2022 2019 2023
718 2 2026 2024 2027
719 2 2028 2025 2029
720 2 2032 2030 2033
721 2 2034 2031 2035
722 2 2038 2036 2039
723 2 2040 2037 2041
724 2 2044 2042 2045
725 2 2046 2043 2047
726 2 2050 2048 2051
727 2 2052 2049 2053
728 2 2056 2054 2057
729 2 2058 2055 2059
730 2 2062 2060 2063
731 2 2064 2061 2065
732 2 2068 2066 2069
733 2 2070 2067 2071
734 2 2074 2072 2075
735 2 2076 2073 2077
736 2 2080 2078 2081
737 2 2082 2079 2083
738 2 2086 2084 2087
739 2 2088 2085 2089
740 2 2092 2090 2093
741 2 2094 2091 2095
742 2 2098 2096 2099
743 2 2100 2097 2101
744 2 2104 2102 2105
745 2 2106 2103 2107
746 2 2110 2108 2111
747 2 2120 2116 2121
748 2 2124 2122 2125
749 2 2126 2123 2127
750 2 2130 2128 2131
751 2 2132 2129 2133
752 2 2136 2134 2137
753 2 2138 2135 2139
754 2 2142 2140 2143
755 2 2144 2141 2145
756 2 2148 2146 2149
757 2 2150 2147 2151
758 2 2154 2152 2155
759 2 2156 2153 2157
760 2 2160 2158 2161
761 2 2162 2159 2163
762 2 2166 2164 2167
763 2 2168 2165 2169
764 2 2172 2170 2173
765 2 2174 2171 2175
766 2 2178 2176 2179
767 2 2180 2177 2181
768 2 2184 2182 2185
769 2 2186 2183 2187
770 2 2190 2188 2191
771 2 2192 2189 2193
772 2 2196 2194 2197
773 2 2198 2195 2199
774 2 2202 2200 2203
775 2 2204 2201 2205
776 2 2208 2206 2209
777 2 2210 2207 2211
778 2 2214 2212 2215
779 2 2216 2213 2217
780 2 2220 2218 2221
781 2 2222 2219 2223
782 2 2226 2224 2227
783 2 2228 2225 2229
784 2 2232 2230 2233
785 2 2234 2231 2235
786 2 2238 2236 2239
787 2 2240 2237 2241
788 2 2244 2242 2245
789 2 2246 2243 2247
790 2 2250 2248 2251
791 2 2252 2249 2253
792 2 2256 2254 2257
793 2 2258 2255 2259
794 2 2262 2260 2263
795 2 2264 2261 2265
796 2 2268 2266 2269
797 2 2270 2267 2271
798 2 2274 2272 2275
799 2 2276 2273 2277
800 2 2280 2278 2281
801 2 2282 2279 2283
802 2 2286 2284 2287
803 2 2288 2285 2289
804 2 2292 2290 2293
805 2 2294 2291 2295
806 2 2298 2296 2299
807 2 2300 2297 2301
808 2 2304 2302 2305
809 2 2306 2303 2307
810 2 2310 2308 2311
811 2 2312 2309 2313
812 2 2316 2314 2317
813 2 2318 2315 2319
814 2 2322 2320 2323
815 2 2324 2321 2325
816 2 2328 2326 2329
817 2 2330 2327 2331
818 2 2334 2332 2335
819 2 2336 2333 2337
820 2 2340 2338 2341
821 2 2342 2339 2343
822 2 2346 2344 2347
823 2 2348 2345 2349
824 2 2352 2350 2353
825 2 2354 2351 2355
826 2 2358 2356 2359
827 2 2360 2357 2361
828 2 2364 2362 2365
829 2 2366 2363 2367
830 2 2370 2368 2371
831 2 2372 2369 2373
832 2 2376 2374 2377
833 2 2378 2375 2379
834 2 2382 2380 2383
835 2 2384 2381 2385
836 2 2388 2386 2389
837 2 2390 2387 2391
838 2 2394 2392 2395
839 2 2396 2393 2397
840 2 2400 2398 2401
841 2 2402 2399 2403
842 2 2406 2404 2407
843 2 2408 2405 2409
844 2 2412 2410 2413
845 2 2422 2418 2423
846 2 2426 2424 2427
847 2 2428 2425 2429
848 2 2432 2430 2433
849 2 2434 2431 2435
850 2 2438 2436 2439
851 2 2440 2437 2441
852 2 2444 2442 2445
853 2 2446 2443 2447
854 2 2450 2448 2451
855 2 2452 2449 2453
856 2 2456 2454 2457
857 2 2458 2455 2459
858 2 2462 2460 2463
859 2 2464 2461 2465
860 2 2468 2466 2469
861 2 2470 2467 2471
862 2 2474 2472 2475
863 2 2476 2473 2477
864 2 2480 2478 2481
865 2 2482 2479 2483
866 2 2486 2484 2487
867 2 2488 2485 2489
868 2 2492 2490 2493
869 2 2494 2491 2495
870 2 2498 2496 2499
871 2 2500 2497 2501
872 2 2504 2502 2505
873 2 2506 2503 2507
874 2 2510 2508 2511
875 2 2512 2509 2513
876 2 2516 2514 2517
877 2 2518 2515 2519
878 2 2522 2520 2523
879 2 2524 2521 2525
880 2 2528 2526 2529
881 2 2530 2527 2531
882 2 2534 2532 2535
883 2 2536 2533 2537
884 2 2540 2538 2541
885 2 2542 2539 2543
886 2 2546 2544 2547
887 2 2548 2545 2549
888 2 2552 2550 2553
889 2 2554 2551 2555
890 2 2558 2556 2559
891 2 2560 2557 2561
892 2 2564 2562 2565
893 2 2566 2563 2567
894 2 2570 2568 2571
895 2 2572 2569 2573
896 2 2576 2574 2577
897 2 2578 2575 2579
898 2 2582 2580 2583
899 2 2584 2581 2585
900 2 2588 2586 2589
901 2 2590 2587 2591
902 2 2594 2592 2595
903 2 2596 2593 2597
904 2 2600 2598 2601
905 2 2602 2599 2603
906 2 2606 2604 2607
907 2 2608 2605 2609
908 2 2612 2610 2613
909 2 2614 2611 2615
910 2 2618 2616 2619
911 2 2620 2617 2621
912 2 2624 2622 2625
913 2 2626 2623 2627
914 2 2630 2628 2631
915 2 2632 2629 2633
916 2 2636 2634 2637
917 2 2638 2635 2639
918 2 2642 2640 2643
919 2 2644 2641 2645
920 2 2648 2646 2649
921 2 2650 2647 2651
922 2 2654 2652 2655
923 2 2656 2653 2657
924 2 2660 2658 2661
925 2 2662 2659 2663
926 2 2666 2664 2667
927 2 2668 2665 2669
928 2 2672 2670 2673
929 2 2674 2671 2675
930 2 2678 2676 2679
931 2 2680 2677 2681
932 2 2684 2682 2685
933 2 2686 2683 2687
934 2 2690 2688 2691
935 2 2692 2689 2693
936 2 2696 2694 2697
937 2 2698 2695 2699
938 2 2702 2700 2703
939 2 2704 2701 2705
940 2 2708 2706 2709
941 2 2710 2707 2711
942 2 2714 2712 2715
943 2 2724 2720 2725
944 2 2728 2726 2729
945 2 2730 2727 2731
946 2 2734 2732 2735
947 2 2736 2733 2737
948 2 2740 2738 2741
949 2 2742 2739 2743
950 2 2746 2744 2747
951 2 2748 2745 2749
952 2 2752 2750 2753
953 2 2754 2751 2755
954 2 2758 2756 2759
955 2 2760 2757 2761
956 2 2764 2762 2765
957 2 2766 2763 2767
958 2 2770 2768 2771
959 2 2772 2769 2773
960 2 2776 2774 2777
961 2 2778 2775 2779
962 2 2782 2780 2783
963 2 2784 2781 2785
964 2 2788 2786 2789
965 2 2790 2787 2791
966 2 2794 2792 2795
967 2 2796 2793 2797
968 2 2800 2798 2801
969 2 2802 2799 2803
970 2 2806 2804 2807
971 2 2808 2805 2809
972 2 2812 2810 2813
973 2 2814 2811 2815
974 2 2818 2816 2819
975 2 2820 2817 2821
976 2 2824 2822 2825
977 2 2826 2823 2827
978 2 2830 2828 2831
979 2 2832 2829 2833
980 2 2836 2834 2837
981 2 2838 2835 2839
982 2 2842 2840 2843
983 2 2844 2841 2845
984 2 2848 2846 2849
985 2 2850 2847 2851
986 2 2854 2852 2855
987 2 2856 2853 2857
988 2 2860 2858 2861
989 2 2862 2859 2863
990 2 2866 2864 2867
991 2 2868 2865 2869
992 2 2872 2870 2873
993 2 2874 2871 2875
994 2 2878 2876 2879
995 2 2880 2877 2881
996 2 2884 2882 2885
997 2 2886 2883 2887
998 2 2890 2888 2891
999 2 2892 2889 2893
1000 2 2896 2894 2897
1001 2 2898 2895 2899
1002 2 2902 2900 2903
1003 2 2904 2901 2905
1004 2 2908 2906 2909
1005 2 2910 2907 2911
1006 2 2914 2912 2915
1007 2 2916 2913 2917
1008 2 2920 2918 2921
1009 2 2922 2919 2923
1010 2 2926 2924 2927
1011 2 2928 2925 2929
1012 2 2932 2930 2933
1013 2 2934 2931 2935
1014 2 2938 2936 2939
1015 2 2940 2937 2941
1016 2 2944 2942 2945
1017 2 2946 2943 2947
1018 2 2950 2948 2951
1019 2 2952 2949 2953
1020 2 2956 2954 2957
1021 2 2958 2955 2959
1022 2 2962 2960 2963
1023 2 2964 2961 2965
1024 2 2968 2966 2969
1025 2 2970 2967 2971
1026 2 2974 2972 2975
1027 2 2976 2973 2977
1028 2 2980 2978 2981
1029 2 2982 2979 2983
1030 2 2986 2984 2987
1031 2 2988 2985 2989
1032 2 2992 2990 2993
1033 2 2994 2991 2995
1034 2 2998 2996 2999
1035 2 3000 2997 3001
1036 2 3004 3002 3005
1037 2 3006 3003 3007
1038 2 3010 3008 3011
1039 2 3012 3009 3013
1040 2 3016 3014 3017
1041 4 1 2 6
1042 4 1 2 7
1043 4 297 296 298
1044 4 297 296 299
1045 4 303 304 308
1046 4 303 304 309
1047 4 599 598 600
1048 4 599 598 601
1049 4 605 606 610
1050 4 605 606 611
1051 4 901 900 902
1052 4 901 900 903
1053 4 907 908 912
1054 4 907 908 913
1055 4 1203 1202 1204
1056 4 1203 1202 1205
1057 4 1209 1210 1214
1058 4 1209 1210 1215
1059 4 1505 1504 1506
1060 4 1505 1504 1507
1061 4 1511 1512 1516
1062 4 1511 1512 1517
1063 4 1807 1806 1808
1064 4 1807 1806 1809
1065 4 1813 1814 1818
1066 4 1813 1814 1819
1067 4 2109 2108 2110
1068 4 2109 2108 2111
1069 4 2115 2116 2120
1070 4 2115 2116 2121
1071 4 2411 2410 2412
1072 4 2411 2410 2413
1073 4 2417 2418 2422
1074 4 2417 2418 2423
1075 4 2713 2712 2714
1076 4 2713 2712 2715
1077 4 2719 2720 2724
1078 4 2719 2720 2725
1079 4 3015 3014 3016
1080 4 3015 3014 3017
1081 5 2 1 3
1082 5 2 1 4
1083 5 2 1 5
1084 5 296 297 300
1085 5 296 297 301
1086 5 296 297 302
1087 5 304 303 305
1088 5 304 303 306
1089 5 304 303 307
1090 5 598 599 602
1091 5 598 599 603
1092 5 598 599 604
1093 5 606 605 607
1094 5 606 605 608
1095 5 606 605 609
1096 5 900 901 904
1097 5 900 901 905
1098 5 900 901 906
1099 5 908 907 909
1100 5 908 907 910
1101 5 908 907 911
1102 5 1202 1203 1206
1103 5 1202 1203 1207
1104 5 1202 1203 1208
1105 5 1210 1209 1211
1106 5 1210 1209 1212
1107 5 1210 1209 1213
1108 5 1504 1505 1508
1109 5 1504 1505 1509
1110 5 1504 1505 1510
1111 5 1512 1511 1513
1112 5 1512 1511 1514
1113 5 1512 1511 1515
1114 5 1806 1807 1810
1115 5 1806 1807 1811
1116 5 1806 1807 1812
1117 5 1814 1813 1815
1118 5 1814 1813 1816
1119 5 1814 1813 1817
1120 5 2108 2109 2112
1121 5 2108 2109 2113
1122 5 2108 2109 2114
1123 5 2116 2115 2117
1124 5 2116 2115 2118
1125 5 2116 2115 2119
1126 5 2410 2411 2414
1127 5 2410 2411 2415
1128 5 2410 2411 2416
1129 5 2418 2417 2419
1130 5 2418 2417 2420
1131 5 2418 2417 2421
1132 5 2712 2713 2716
1133 5 2712 2713 2717
1134 5 2712 2713 2718
1135 5 2720 2719 2721
1136 5 2720 2719 2722
1137 5 2720 2719 2723
1138 5 3014 3015 3018
1139 5 3014 3015 3019
1140 5 3014 3015 3020
1141 6 2 8 10
1142 6 2 8 11
1143 6 8 9 12
1144 6 8 9 13
1145 6 6 2 8
1146 6 7 2 8
1147 6 9 8 10
1148 6 9 8 11
1149 6 9 14 16
1150 6 9 14 17
1151 6 14 15 18
1152 6 14 15 19
1153 6 12 9 14
1154 6 13 9 14
1155 6 15 14 16
1156 6 15 14 17
1157 6 15 20 22
1158 6 15 20 23
1159 6 20 21 24
1160 6 20 21 25
1161 6 18 15 20
1162 6 19 15 20
1163 6 21 20 22
1164 6 21 20 23
1165 6 21 26 28
1166 6 21 26 29
1167 6 26 27 30
1168 6 26 27 31
1169 6 24 21 26
1170 6 25 21 26
1171 6 27 26 28
1172 6 27 26 29
1173 6 27 32 34
1174 6 27 32 35
1175 6 32 33 36
1176 6 32 33 37
1177 6 30 27 32
1178 6 31 27 32
1179 6 33 32 34
1180 6 33 32 35
1181 6 33 38 40
1182 6 33 38 41
1183 6 38 39 42
1184 6 38 39 43
1185 6 36 33 38
1186 6 37 33 38
1187 6 39 38 40
1188 6 39 38 41
1189 6 39 44 46
1190 6 39 44 47
1191 6 44 45 48
1192 6 44 45 49
1193 6 42 39 44
1194 6 43 39 44
1195 6 45 44 46
1196 6 45 44 47
1197 6 45 50 52
1198 6 45 50 53
1199 6 50 51 54
1200 6 50 51 55
1201 6 48 45 50
1202 6 49 45 50
1203 6 51 50 52
1204 6 51 50 53
1205 6 51 56 58
1206 6 51 56 59
1207 6 56 57 60
1208 6 56 57 61
1209 6 54 51 56
1210 6 55 51 56
1211 6 57 56 58
1212 6 57 56 59
1213 6 57 62 64
1214 6 57 62 65
1215 6 62 63 66
1216 6 62 63 67
1217 6 60 57 62
1218 6 61 57 62
1219 6 63 62 64
1220 6 63 62 65
1221 6 63 68 70
1222 6 63 68 71
1223 6 68 69 72
1224 6 68 69 73
1225 6 66 63 68
1226 6 67 63 68
1227 6 69 68 70
1228 6 69 68 71
1229 6 69 74 76
1230 6 69 74 77
1231 6 74 75 78
1232 6 74 75 79
1233 6 72 69 74
1234 6 73 69 74
1235 6 75 74 76
1236 6 75 74 77
1237 6 75 80 82
1238 6 75 80 83
1239 6 80 81 84
1240 6 80 81 85
1241 6 78 75 80
1242 6 79 75 80
1243 6 81 80 82
1244 6 81 80 83
1245 6 81 86 88
1246 6 81 86 89
1247 6 86 87 90
1248 6 86 87 91
1249 6 84 81 86
1250 6 85 81 86
1251 6 87 86 88
1252 6 87 86 89
1253 6 87 92 94
1254 6 87 92 95
1255 6 92 93 96
1256 6 92 93 97
1257 6 90 87 92
1258 6 91 87 92
1259 6 93 92 94
1260 6 93 92 95
1261 6 93 98 100
1262 6 93 98 101
1263 6 98 99 102
1264 6 98 99 103
1265 6 96 93 98
1266 6 97 93 98
1267 6 99 98 100
1268 6 99 98 101
1269 6 99 104 106
1270 6 99 104 107
1271 6 104 105 108
1272 6 104 105 109
1273 6 102 99 104
1274 6 103 99 104
1275 6 105 104 106
1276 6 105 104 107
1277 6 105 110 112
1278 6 105 110 113
1279 6 110 111 114
1280 6 110 111 115
1281 6 108 105 110
1282 6 109 105 110
1283 6 111 110 112
1284 6 111 110 113
1285 6 111 116 118
1286 6 111 116 119
1287 6 116 117 120
1288 6 116 117 121
1289 6 114 111 116
1290 6 115 111 116
1291 6 117 116 118
1292 6 117 116 119
1293 6 117 122 124
1294 6 117 122 125
1295 6 122 123 126
1296 6 122 123 127
1297 6 120 117 122
1298 6 121 117 122
1299 6 123 122 124
1300 6 123 122 125
1301 6 123 128 130
1302 6 123 128 131
1303 6 128 129 132
1304 6 128 129 133
1305 6 126 123 128
1306 6 127 123 128
1307 6 129 128 130
1308 6 129 128 131
1309 6 129 134 136
1310 6 129 134 137
1311 6 134 135 138
1312 6 134 135 139
1313 6 132 129 134
1314 6 133 129 134
1315 6 135 134 136
1316 6 135 134 137
1317 6 135 140 142
1318 6 135 140 143
1319 6 140 141 144
1320 6 140 141 145
1321 6 138 135 140
1322 6 139 135 140
1323 6 141 140 142
1324 6 141 140 143
1325 6 141 146 148
1326 6 141 146 149
1327 6 146 147 150
1328 6 146 147 151
1329 6 144 141 146
1330 6 145 141 146
1331 6 147 146 148
1332 6 147 146 149
1333 6 147 152 154
1334 6 147 152 155
1335 6 152 153 156
1336 6 152 153 157
1337 6 150 147 152
1338 6 151 147 152
1339 6 153 152 154
1340 6 153 152 155
1341 6 153 158 160
1342 6 153 158 161
1343 6 158 159 162
1344 6 158 159 163
1345 6 156 153 158
1346 6 157 153 158
1347 6 159 158 160
1348 6 159 158 161
1349 6 159 164 166
1350 6 159 164 167
1351 6 164 165 168
1352 6 164 165 169
1353 6 162 159 164
1354 6 163 159 164
1355 6 165 164 166
1356 6 165 164 167
1357 6 165 170 172
1358 6 165 170 173
1359 6 170 171 174
1360 6 170 171 175
1361 6 168 165 170
1362 6 169 165 170
1363 6 171 170 172
1364 6 171 170 173
1365 6 171 176 178
1366 6 171 176 179
1367 6 176 177 180
1368 6 176 177 181
1369 6 174 171 176
1370 6 175 171 176
1371 6 177 176 178
1372 6 177 176 179
1373 6 177 182 184
1374 6 177 182 185
1375 6 182 183 186
1376 6 182 183 187
1377 6 180 177 182
1378 6 181 177 182
1379 6 183 182 184
1380 6 183 182 185
1381 6 183 188 190
1382 6 183 188 191
1383 6 188 189 192
1384 6 188 189 193
1385 6 186 183 188
1386 6 187 183 188
1387 6 189 188 190
1388 6 189 188 191
1389 6 189 194 196
1390 6 189 194 197
1391 6 194 195 198
1392 6 194 195 199
1393 6 192 189 194
1394 6 193 189 194
1395 6 195 194 196
1396 6 195 194 197
1397 6 195 200 202
1398 6 195 200 203
1399 6 200 201 204
1400 6 200 201 205
1401 6 198 195 200
1402 6 199 195 200
1403 6 201 200 202
1404 6 201 200 203
1405 6 201 206 208
1406 6 201 206 209
1407 6 206 207 210
1408 6 206 207 211
1409 6 204 201 206
1410 6 205 201 206
1411 6 207 206 208
1412 6 207 206 209
1413 6 207 212 214
1414 6 207 212 215
1415 6 212 213 216
1416 6 212 213 217
1417 6 210 207 212
1418 6 211 207 212
1419 6 213 212 214
1420 6 213 212 215
1421 6 213 218 220
1422 6 213 218 221
1423 6 218 219 222
1424 6 218 219 223
1425 6 216 213 218
1426 6 217 213 218
1427 6 219 218 220
1428 6 219 218 221
1429 6 219 224 226
1430 6 219 224 227
1431 6 224 225 228
1432 6 224 225 229
1433 6 222 219 224
1434 6 223 219 224
1435 6 225 224 226
1436 6 225 224 227
1437 6 225 230 232
1438 6 225 230 233
1439 6 230 231 234
1440 6 230 231 235
1441 6 228 225 230
1442 6 229 225 230
1443 6 231 230 232
1444 6 231 230 233
1445 6 231 236 238
1446 6 231 236 239
1447 6 236 237 240
1448 6 236 237 241
1449 6 234 231 236
1450 6 235 231 236
1451 6 237 236 238
1452 6 237 236 239
1453 6 237 242 244
1454 6 237 242 245
1455 6 242 243 246
1456 6 242 243 247
1457 6 240 237 242
1458 6 241 237 242
1459 6 243 242 244
1460 6 243 242 245
1461 6 243 248 250
1462 6 243 248 251
1463 6 248 249 252
1464 6 248 249 253
1465 6 246 243 248
1466 6 247 243 248
1467 6 249 248 250
1468 6 249 248 251
1469 6 249 254 256
1470 6 249 254 257
1471 6 254 255 258
1472 6 254 255 259
1473 6 252 249 254
1474 6 253 249 254
1475 6 255 254 256
1476 6 255 254 257
1477 6 255 260 262
1478 6 255 260 263
1479 6 260 261 264
1480 6 260 261 265
1481 6 258 255 260
1482 6 259 255 260
1483 6 261 260 262
1484 6 261 260 263
1485 6 261 266 268
1486 6 261 266 269
1487 6 266 267 270
1488 6 266 267 271
1489 6 264 261 266
1490 6 265 261 266
1491 6 267 266 268
1492 6 267 266 269
1493 6 267 272 274
1494 6 267 272 275
1495 6 272 273 276
1496 6 272 273 277
1497 6 270 267 272
1498 6 271 267 272
1499 6 273 272 274
1500 6 273 272 275
1501 6 273 278 280
1502 6 273 278 281
1503 6 278 279 282
1504 6 278 279 283
1505 6 276 273 278
1506 6 277 273 278
1507 6 279 278 280
1508 6 279 278 281
1509 6 279 284 286
1510 6 279 284 287
1511 6 284 285 288
1512 6 284 285 289
1513 6 282 279 284
1514 6 283 279 284
1515 6 285 284 286
1516 6 285 284 287
1517 6 285 290 292
1518 6 285 290 293
1519 6 290 291 294
1520 6 290 291 295
1521 6 288 285 290
1522 6 289 285 290
1523 6 291 290 292
1524 6 291 290 293
1525 6 291 296 298
1526 6 291 296 299
1527 6 294 291 296
1528 6 295 291 296
1529 6 304 310 312
1530 6 304 310 313
1531 6 310 311 314
1532 6 310 311 315
1533 6 308 304 310
1534 6 309 304 310
1535 6 311 310 312
1536 6 311 310 313
1537 6 311 316 318
1538 6 311 316 319
1539 6 316 317 320
1540 6 316 317 321
1541 6 314 311 316
1542 6 315 311 316
1543 6 317 316 318
1544 6 317 316 319
1545 6 317 322 324
1546 6 317 322 325
1547 6 322 323 326
1548 6 322 323 327
1549 6 320 317 322
1550 6 321 317 322
1551 6 323 322 324
1552 6 323 322 325
1553 6 323 328 330
1554 6 323 328 331
1555 6 328 329 332
1556 6 328 329 333
1557 6 326 323 328
1558 6 327 323 328
1559 6 329 328 330
1560 6 329 328 331
1561 6 329 334 336
1562 6 329 334 337
1563 6 334 335 338
1564 6 334 335 339
1565 6 332 329 334
1566 6 333 329 334
1567 6 335 334 336
1568 6 335 334 337
1569 6 335 340 342
1570 6 335 340 343
1571 6 340 341 344
1572 6 340 341 345
1573 6 338 335 340
1574 6 339 335 340
1575 6 341 340 342
1576 6 341 340 343
1577 6 341 346 348
1578 6 341 346 349
1579 6 346 347 350
1580 6 346 347 351
1581 6 344 341 346
1582 6 345 341 346
1583 6 347 346 348
1584 6 347 346 349
1585 6 347 352 354
1586 6 347 352 355
1587 6 352 353 356
1588 6 352 353 357
1589 6 350 347 352
1590 6 351 347 352
1591 6 353 352 354
1592 6 353 352 355
1593 6 353 358 360
1594 6 353 358 361
1595 6 358 359 362
1596 6 358 359 363
1597 6 356 353 358
1598 6 357 353 358
1599 6 359 358 360
1600 6 359 358 361
1601 6 359 364 366
1602 6 359 364 367
1603 6 364 365 368
1604 6 364 365 369
1605 6 362 359 364
1606 6 363 359 364
1607 6 365 364 366
1608 6 365 364 367
1609 6 365 370 372
1610 6 365 370 373
1611 6 370 371 374
1612 6 370 371 375
1613 6 368 365 370
1614 6 369 365 370
1615 6 371 370 372
1616 6 371 370 373
1617 6 371 376 378
1618 6 371 376 379
1619 6 376 377 380
1620 6 376 377 381
1621 6 374 371 376
1622 6 375 371 376
1623 6 377 376 378
1624 6 377 376 379
1625 6 377 382 384
1626 6 377 382 385
1627 6 382 383 386
1628 6 382 383 387
1629 6 380 377 382
1630 6 381 377 382
1631 6 383 382 384
1632 6 383 382 385
1633 6 383 388 390
1634 6 383 388 391
1635 6 388 389 392
1636 6 388 389 393
1637 6 386 383 388
1638 6 387 383 388
1639 6 389 388 390
1640 6 389 388 391
1641 6 389 394 396
1642 6 389 394 397
1643 6 394 395 398
1644 6 394 395 399
1645 6 392 389 394
1646 6 393 389 394
1647 6 395 394 396
1648 6 395 394 397
1649 6 395 400 402
1650 6 395 400 403
1651 6 400 401 404
1652 6 400 401 405
1653 6 398 395 400
1654 6 399 395 400
1655 6 401 400 402
1656 6 401 400 403
1657 6 401 406 408
1658 6 401 406 409
1659 6 406 407 410
1660 6 406 407 411
1661 6 404 401 406
1662 6 405 401 406
1663 6 407 406 408
1664 6 407 406 409
1665 6 407 412 414
1666 6 407 412 415
1667 6 412 413 416
1668 6 412 413 417
1669 6 410 407 412
1670 6 411 407 412
1671 6 413 412 414
1672 6 413 412 415
1673 6 413 418 420
1674 6 413 418 421
1675 6 418 419 422
1676 6 418 419 423
1677 6 416 413 418
1678 6 417 413 418
1679 6 419 418 420
1680 6 419 418 421
1681 6 419 424 426
1682 6 419 424 427
1683 6 424 425 428
1684 6 424 425 429
1685 6 422 419 424
1686 6 423 419 424
1687 6 425 424 426
1688 6 425 424 427
1689 6 425 430 432
1690 6 425 430 433
1691 6 430 431 434
1692 6 430 431 435
1693 6 428 425 430
1694 6 429 425 430
1695 6 431 430 432
1696 6 431 430 433
1697 6 431 436 438
1698 6 431 436 439
1699 6 436 437 440
1700 6 436 437 441
1701 6 434 431 436
1702 6 435 431 436
1703 6 437 436 438
1704 6 437 436 439
1705 6 437 442 444
1706 6 437 442 445
1707 6 442 443 446
1708 6 442 443 447
1709 6 440 437 442
1710 6 441 437 442
1711 6 443 442 444
1712 6 443 442 445
1713 6 443 448 450
1714 6 443 448 451
1715 6 448 449 452
1716 6 448 449 453
1717 6 446 443 448
1718 6 447 443 448
1719 6 449 448 450
1720 6 449 448 451
1721 6 449 454 456
1722 6 449 454 457
1723 6 454 455 458
1724 6 454 455 459
1725 6 452 449 454
1726 6 453 449 454
1727 6 455 454 456
1728 6 455 454 457
1729 6 455 460 462
1730 6 455 460 463
1731 6 460 461 464
1732 6 460 461 465
1733 6 458 455 460
1734 6 459 455 460
1735 6 461 460 462
1736 6 461 460 463
1737 6 461 466 468
1738 6 461 466 469
1739 6 466 467 470
1740 6 466 467 471
1741 6 464 461 466
1742 6 465 461 466
1743 6 467 466 468
1744 6 467 466 469
1745 6 467 472 474
1746 6 467 472 475
1747 6 472 473 476
1748 6 472 473 477
1749 6 470 467 472
1750 6 471 467 472
1751 6 473 472 474
1752 6 473 472 475
1753 6 473 478 480
1754 6 473 478 481
1755 6 478 479 482
1756 6 478 479 483
1757 6 476 473 478
1758 6 477 473 478
1759 6 479 478 480
1760 6 479 478 481
1761 6 479 484 486
1762 6 479 484 487
1763 6 484 485 488
1764 6 484 485 489
1765 6 482 479 484
1766 6 483 479 484
1767 6 485 484 486
1768 6 485 484 487
1769 6 485 490 492
1770 6 485 490 493
1771 6 490 491 494
1772 6 490 491 495
1773 6 488 485 490
1774 6 489 485 490
1775 6 491 490 492
1776 6 491 490 493
1777 6 491 496 498
1778 6 491 496 499
1779 6 496 497 500
1780 6 496 497 501
1781 6 494 491 496
1782 6 495 491 496
1783 6 497 496 498
1784 6 497 496 499
1785 6 497 502 504
1786 6 497 502 505
1787 6 502 503 506
1788 6 502 503 507
1789 6 500 497 502
1790 6 501 497 502
1791 6 503 502 504
1792 6 503 502 505
1793 6 503 508 510
1794 6 503 508 511
1795 6 508 509 512
1796 6 508 509 513
1797 6 506 503 508
1798 6 507 503 508
1799 6 509 508 510
1800 6 509 508 511
1801 6 509 514 516
1802 6 509 514 517
1803 6 514 515 518
1804 6 514 515 519
1805 6 512 509 514
1806 6 513 509 514
1807 6 515 514 516
1808 6 515 514 517
1809 6 515 520 522
1810 6 515 520 523
1811 6 520 521 524
1812 6 520 521 525
1813 6 518 515 520
1814 6 519 515 520
1815 6 521 520 522
1816 6 521 520 523
1817 6 521 526 528
1818 6 521 526 529
1819 6 526 527 530
1820 6 526 527 531
1821 6 524 521 526
1822 6 525 521 526
1823 6 527 526 528
1824 6 527 526 529
1825 6 527 532 534
1826 6 527 532 535
1827 6 532 533 536
1828 6 532 533 537
1829 6 530 527 532
1830 6 531 527 532
1831 6 533 532 534
1832 6 533 532 535
1833 6 533 538 540
1834 6 533 538 541
1835 6 538 539 542
1836 6 538 539 543
1837 6 536 533 538
1838 6 537 533 538
1839 6 539 538 540
1840 6 539 538 541
1841 6 539 544 546
1842 6 539 544 547
1843 6 544 545 548
1844 6 544 545 549
1845 6 542 539 544
1846 6 543 539 544
1847 6 545 544 546
1848 6 545 544 547
1849 6 545 550 552
1850 6 545 550 553
1851 6 550 551 554
1852 6 550 551 555
1853 6 548 545 550
1854 6 549 545 550
1855 6 551 550 552
1856 6 551 550 553
1857 6 551 556 558
1858 6 551 556 559
1859 6 556 557 560
1860 6 556 557 561
1861 6 554 551 556
1862 6 555 551 556
1863 6 557 556 558
1864 6 557 556 559
1865 6 557 562 564
1866 6 557 562 565
1867 6 562 563 566
1868 6 562 563 567
1869 6 560 557 562
1870 6 561 557 562
1871 6 563 562 564
1872 6 563 562 565
1873 6 563 568 570
1874 6 563 568 571
1875 6 568 569 572
1876 6 568 569 573
1877 6 566 563 568
1878 6 567 563 568
1879 6 569 568 570
1880 6 569 568 571
1881 6 569 574 576
1882 6 569 574 577
1883 6 574 575 578
1884 6 574 575 579
1885 6 572 569 574
1886 6 573 569 574
1887 6 575 574 576
1888 6 575 574 577
1889 6 575 580 582
1890 6 575 580 583
1891 6 580 581 584
1892 6 580 581 585
1893 6 578 575 580
1894 6 579 575 580
1895 6 581 580 582
1896 6 581 580 583
1897 6 581 586 588
1898 6 581 586 589
1899 6 586 587 590
1900 6 586 587 591
1901 6 584 581 586
1902 6 585 581 586
1903 6 587 586 588
1904 6 587 586 589
1905 6 587 592 594
1906 6 587 592 595
1907 6 592 593 596
1908 6 592 593 597
1909 6 590 587 592
1910 6 591 587 592
1911 6 593 592 594
1912 6 593 592 595
1913 6 593 598 600
1914 6 593 598 601
1915 6 596 593 598
1916 6 597 593 598
1917 6 606 612 614
1918 6 606 612 615
1919 6 612 613 616
1920 6 612 613 617
1921 6 610 606 612
1922 6 611 606 612
1923 6 613 612 614
1924 6 613 612 615
1925 6 613 618 620
1926 6 613 618 621
1927 6 618 619 622
1928 6 618 619 623
1929 6 616 613 618
1930 6 617 613 618
1931 6 619 618 620
1932 6 619 618 621
1933 6 619 624 626
1934 6 619 624 627
1935 6 624 625 628
1936 6 624 625 629
1937 6 622 619 624
1938 6 623 619 624
1939 6 625 624 626
1940 6 625 624 627
1941 6 625 630 632
1942 6 625 630 633
1943 6 630 631 634
1944 6 630 631 635
1945 6 628 625 630
1946 6 629 625 630
1947 6 631 630 632
1948 6 631 630 633
1949 6 631 636 638
1950 6 631 636 639
1951 6 636 637 640
1952 6 636 637 641
1953 6 634 631 636
1954 6 635 631 636
1955 6 637 636 638
1956 6 637 636 639
1957 6 637 642 644
1958 6 637 642 645
1959 6 642 643 646
1960 6 642 643 647
1961 6 640 637 642
1962 6 641 637 642
1963 6 643 642 644
1964 6 643 642 645
1965 6 643 648 650
1966 6 643 648 651
1967 6 648 649 652
1968 6 648 649 653
1969 6 646 643 648
1970 6 647 643 648
1971 6 649 648 650
1972 6 649 648 651
1973 6 649 654 656
1974 6 649 654 657
1975 6 654 655 658
1976 6 654 655 659
1977 6 652 649 654
1978 6 653 649 654
1979 6 655 654 656
1980 6 655 654 657
1981 6 655 660 662
1982 6 655 660 663
1983 6 660 661 664
1984 6 660 661 665
1985 6 658 655 660
1986 6 659 655 660
1987 6 661 660 662
1988 6 661 660 663
1989 6 661 666 668
1990 6 661 666 669
1991 6 666 667 670
1992 6 666 667 671
1993 6 664 661 666
1994 6 665 661 666
1995 6 667 666 668
1996 6 667 666 669
1997 6 667 672 674
1998 6 667 672 675
1999 6 672 673 676
2000 6 672 673 677
2001 6 670 667 672
2002 6 671 667 672
2003 6 673 672 674
2004 6 673 672 675
2005 6 673 678 680
2006 6 673 678 681
2007 6 678 679 682
2008 6 678 679 683
2009 6 676 673 678
2010 6 677 673 678
2011 6 679 678 680
2012 6 679 678 681
2013 6 679 684 686
2014 6 679 684 687
2015 6 684 685 688
2016 6 684 685 689
2017 6 682 679 684
2018 6 683 679 684
2019 6 685 684 686
2020 6 685 684 687
2021 6 685 690 692
2022 6 685 690 693
2023 6 690 691 694
2024 6 690 691 695
2025 6 688 685 690
2026 6 689 685 690
2027 6 691 690 692
2028 6 691 690 693
2029 6 691 696 698
2030 6 691 696 699
2031 6 696 697 700
2032 6 696 697 701
2033 6 694 691 696
2034 6 695 691 696
2035 6 697 696 698
2036 6 697 696 699
2037 6 697 702 704
2038 6 697 702 705
2039 6 702 703 706
2040 6 702 703 707
2041 6 700 697 702
2042 6 701 697 702
2043 6 703 702 704
2044 6 703 702 705
2045 6 703 708 710
2046 6 703 708 711
2047 6 708 709 712
2048 6 708 709 713
2049 6 706 703 708
2050 6 707 703 708
2051 6 709 708 710
2052 6 709 708 711
2053 6 709 714 716
2054 6 709 714 717
2055 6 714 715 718
2056 6 714 715 719
2057 6 712 709 714
2058 6 713 709 714
2059 6 715 714 716
2060 6 715 714 717
2061 6 715 720 722
2062 6 715 720 723
2063 6 720 721 724
2064 6 720 721 725
2065 6 718 715 720
2066 6 719 715 720
2067 6 721 720 722
2068 6 721 720 723
2069 6 721 726 728
2070 6 721 726 729
2071 6 726 727 730
2072 6 726 727 731
2073 6 724 721 726
2074 6 725 721 726
2075 6 727 726 728
2076 6 727 726 729
2077 6 727 732 734
2078 6 727 732 735
2079 6 732 733 736
2080 6 732 733 737
2081 6 730 727 732
2082 6 731 727 732
2083 6 733 732 734
2084 6 733 732 735
2085 6 733 738 740
2086 6 733 738 741
2087 6 738 739 742
2088 6 738 739 743
2089 6 736 733 738
2090 6 737 733 738
2091 6 739 738 740
2092 6 739 738 741
2093 6 739 744 746
2094 6 739 744 747
2095 6 744 745 748
2096 6 744 745 749
2097 6 742 739 744
2098 6 743 739 744
2099 6 745 744 746
2100 6 745 744 747
2101 6 745 750 752
2102 6 745 750 753
2103 6 750 751 754
2104 6 750 751 755
2105 6 748 745 750
2106 6 749 745 750
2107 6 751 750 752
2108 6 751 750 753
2109 6 751 756 758
2110 6 751 756 759
2111 6 756 757 760
2112 6 756 757 761
2113 6 754 751 756
2114 6 755 751 756
2115 6 757 756 758
2116 6 757 756 759
2117 6 757 762 764
2118 6 757 762 765
2119 6 762 763 766
2120 6 762 763 767
2121 6 760 757 762
2122 6 761 757 762
2123 6 763 762 764
2124 6 763 762 765
2125 6 763 768 770
2126 6 763 768 771
2127 6 768 769 772
2128 6 768 769 773
2129 6 766 763 768
2130 6 767 763 768
2131 6 769 768 770
2132 6 769 768 771
2133 6 769 774 776
2134 6 769 774 777
2135 6 774 775 778
2136 6 774 775 779
2137 6 772 769 774
2138 6 773 769 774
2139 6 775 774 776
2140 6 775 774 777
2141 6 775 780 782
2142 6 775 780 783
2143 6 780 781 784
2144 6 780 781 785
2145 6 778 775 780
2146 6 779 775 780
2147 6 781 780 782
2148 6 781 780 783
2149 6 781 786 788
2150 6 781 786 789
2151 6 786 787 790
2152 6 786 787 791
2153 6 784 781 786
2154 6 785 781 786
2155 6 787 786 788
2156 6 787 786 789
2157 6 787 792 794
2158 6 787 792 795
2159 6 792 793 796
2160 6 792 793 797
2161 6 790 787 792
2162 6 791 787 792
2163 6 793 792 794
2164 6 793 792 795
2165 6 793 798 800
2166 6 793 798 801
2167 6 798 799 802
2168 6 798 799 803
2169 6 796 793 798
2170 6 797 793 798
2171 6 799 798 800
2172 6 799 798 801
2173 6 799 804 806
2174 6 799 804 807
2175 6 804 805 808
2176 6 804 805 809
2177 6 802 799 804
2178 6 803 799 804
2179 6 805 804 806
2180 6 805 804 807
2181 6 805 810 812
2182 6 805 810 813
2183 6 810 811 814
2184 6 810 811 815
2185 6 808 805 810
2186 6 809 805 810
2187 6 811 810 812
2188 6 811 810 813
2189 6 811 816 818
2190 6 811 816 819
2191 6 816 817 820
2192 6 816 817 821
2193 6 814 811 816
2194 6 815 811 816
2195 6 817 816 818
2196 6 817 816 819
2197 6 817 822 824
2198 6 817 822 825
2199 6 822 823 826
2200 6 822 823 827
2201 6 820 817 822
2202 6 821 817 822
2203 6 823 822 824
2204 6 823 822 825
2205 6 823 828 830
2206 6 823 828 831
2207 6 828 829 832
2208 6 828 829 833
2209 6 826 823 828
2210 6 827 823 828
2211 6 829 828 830
2212 6 829 828 831
2213 6 829 834 836
2214 6 829 834 837
2215 6 834 835 838
2216 6 834 835 839
2217 6 832 829 834
2218 6 833 829 834
2219 6 835 834 836
2220 6 835 834 837
2221 6 835 840 842
2222 6 835 840 843
2223 6 840 841 844
2224 6 840 841 845
2225 6 838 835 840
2226 6 839 835 840
2227 6 841 840 842
2228 6 841 840 843
2229 6 841 846 848
2230 6 841 846 849
2231 6 846 847 850
2232 6 846 847 851
2233 6 844 841 846
2234 6 845 841 846
2235 6 847 846 848
2236 6 847 846 849
2237 6 847 852 854
2238 6 847 852 855
2239 6 852 853 856
2240 6 852 853 857
2241 6 850 847 852
2242 6 851 847 852
2243 6 853 852 854
2244 6 853 852 855
2245 6 853 858 860
2246 6 853 858 861
2247 6 858 859 862
2248 6 858 859 863
2249 6 856 853 858
2250 6 857 853 858
2251 6 859 858 860
2252 6 859 858 861
2253 6 859 864 866
2254 6 859 864 867
2255 6 864 865 868
2256 6 864 865 869
2257 6 862 859 864
2258 6 863 859 864
2259 6 865 864 866
2260 6 865 864 867
2261 6 865 870 872
2262 6 865 870 873
2263 6 870 871 874
2264 6 870 871 875
2265 6 868 865 870
2266 6 869 865 870
2267 6 871 870 872
2268 6 871 870 873
2269 6 871 876 878
2270 6 871 876 879
2271 6 876 877 880
2272 6 876 877 881
2273 6 874 871 876
2274 6 875 871 876
2275 6 877 876 878
2276 6 877 876 879
2277 6 877 882 884
2278 6 877 882 885
2279 6 882 883 886
2280 6 882 883 887
2281 6 880 877 882
2282 6 881 877 882
2283 6 883 882 884
2284 6 883 882 885
2285 6 883 888 890
2286 6 883 888 891
2287 6 888 889 892
2288 6 888 889 893
2289 6 886 883 888
2290 6 887 883 888
2291 6 889 888 890
2292 6 889 888 891
2293 6 889 894 896
2294 6 889 894 897
2295 6 894 895 898
2296 6 894 895 899
2297 6 892 889 894
2298 6 893 889 894
2299 6 895 894 896
2300 6 895 894 897
2301 6 895 900 902
2302 6 895 900 903
2303 6 898 895 900
2304 6 899 895 900
2305 6 908 914 916
2306 6 908 914 917
2307 6 914 915 918
2308 6 914 915 919
2309 6 912 908 914
2310 6 913 908 914
2311 6 915 914 916
2312 6 915 914 917
2313 6 915 920 922
2314 6 915 920 923
2315 6 920 921 924
2316 6 920 921 925
2317 6 918 915 920
2318 6 919 915 920
2319 6 921 920 922
2320 6 921 920 923
2321 6 921 926 928
2322 6 921 926 929
2323 6 926 927 930
2324 6 926 927 931
2325 6 924 921 926
2326 6 925 921 926
2327 6 927 926 928
2328 6 927 926 929
2329 6 927 932 934
2330 6 927 932 935
2331 6 932 933 936
2332 6 932 933 937
2333 6 930 927 932
2334 6 931 927 932
2335 6 933 932 934
2336 6 933 932 935
2337 6 933 938 940
2338 6 933 938 941
2339 6 938 939 942
2340 6 938 939 943
2341 6 936 933 938
2342 6 937 933 938
2343 6 939 938 940
2344 6 939 938 941
2345 6 939 944 946
2346 6 939 944 947
2347 6 944 945 948
2348 6 944 945 949
2349 6 942 939 944
2350 6 943 939 944
2351 6 945 944 946
2352 6 945 944 947
2353 6 945 950 952
2354 6 945 950 953
2355 6 950 951 954
2356 6 950 951 955
2357 6 948 945 950
2358 6 949 945 950
2359 6 951 950 952
2360 6 951 950 953
2361 6 951 956 958
2362 6 951 956 959
2363 6 956 957 960
2364 6 956 957 961
2365 6 954 951 956
2366 6 955 951 956
2367 6 957 956 958
2368 6 957 956 959
2369 6 957 962 964
2370 6 957 962 965
2371 6 962 963 966
2372 6 962 963 967
2373 6 960 957 962
2374 6 961 957 962
2375 6 963 962 964
2376 6 963 962 965
2377 6 963 968 970
2378 6 963 968 971
2379 6 968 969 972
2380 6 968 969 973
2381 6 966 963 968
2382 6 967 963 968
2383 6 969 968 970
2384 6 969 968 971
2385 6 969 974 976
2386 6 969 974 977
2387 6 974 975 978
2388 6 974 975 979
2389 6 972 969 974
2390 6 973 969 974
2391 6 975 974 976
2392 6 975 974 977
2393 6 975 980 982
2394 6 975 980 983
2395 6 980 981 984
2396 6 980 981 985
2397 6 978 975 980
2398 6 979 975 980
2399 6 981 980 982
2400 6 981 980 983
2401 6 981 986 988
2402 6 981 986 989
2403 6 986 987 990
2404 6 986 987 991
2405 6 984 981 986
2406 6 985 981 986
2407 6 987 986 988
2408 6 987 986 989
2409 6 987 992 994
2410 6 987 992 995
2411 6 992 993 996
2412 6 992 993 997
2413 6 990 987 992
2414 6 991 987 992
2415 6 993 992 994
2416 6 993 992 995
2417 6 993 998 1000
2418 6 993 998 1001
2419 6 998 999 1002
2420 6 998 999 1003
2421 6 996 993 998
2422 6 997 993 998
2423 6 999 998 1000
2424 6 999 998 1001
2425 6 999 1004 1006
2426 6 999 1004 1007
2427 6 1004 1005 1008
2428 6 1004 1005 1009
2429 6 1002 999 1004
2430 6 1003 999 1004
2431 6 1005 1004 1006
2432 6 1005 1004 1007
2433 6 1005 1010 1012
2434 6 1005 1010 1013
2435 6 1010 1011 1014
2436 6 1010 1011 1015
2437 6 1008 1005 1010
2438 6 1009 1005 1010
2439 6 1011 1010 1012
2440 6 1011 1010 1013
2441 6 1011 1016 1018
2442 6 1011 1016 1019
2443 6 1016 1017 1020
2444 6 1016 1017 1021
2445 6 1014 1011 1016
2446 6 1015 1011 1016
2447 6 1017 1016 1018
2448 6 1017 1016 1019
2449 6 1017 1022 1024
2450 6 1017 1022 1025
2451 6 1022 1023 1026
2452 6 1022 1023 1027
2453 6 1020 1017 1022
2454 6 1021 1017 1022
2455 6 1023 1022 1024
2456 6 1023 1022 1025
2457 6 1023 1028 1030
2458 6 1023 1028 1031
2459 6 1028 1029 1032
2460 6 1028 1029 1033
2461 6 1026 1023 1028
2462 6 1027 1023 1028
2463 6 1029 1028 1030
2464 6 1029 1028 1031
2465 6 1029 1034 1036
2466 6 1029 1034 1037
2467 6 1034 1035 1038
2468 6 1034 1035 1039
2469 6 1032 1029 1034
2470 6 1033 1029 1034
2471 6 1035 1034 1036
2472 6 1035 1034 1037
2473 6 1035 1040 1042
2474 6 1035 1040 1043
2475 6 1040 1041 1044
2476 6 1040 1041 1045
2477 6 1038 1035 1040
2478 6 1039 1035 1040
2479 6 1041 1040 1042
2480 6 1041 1040 1043
2481 6 1041 1046 1048
2482 6 1041 1046 1049
2483 6 1046 1047 1050
2484 6 1046 1047 1051
2485 6 1044 1041 1046
2486 6 1045 1041 1046
2487 6 1047 1046 1048
2488 6 1047 1046 1049
2489 6 1047 1052 1054
2490 6 1047 1052 1055
2491 6 1052 1053 1056
2492 6 1052 1053 1057
2493 6 1050 1047 1052
2494 6 1051 1047 1052
2495 6 1053 1052 1054
2496 6 1053 1052 1055
2497 6 1053 1058 1060
2498 6 1053 1058 1061
2499 6 1058 1059 1062
2500 6 1058 1059 1063
2501 6 1056 1053 1058
2502 6 1057 1053 1058
2503 6 1059 1058 1060
2504 6 1059 1058 1061
2505 6 1059 1064 1066
2506 6 1059 1064 1067
2507 6 1064 1065 1068
2508 6 1064 1065 1069
2509 6 1062 1059 1064
2510 6 1063 1059 1064
2511 6 1065 1064 1066
2512 6 1065 1064 1067
2513 6 1065 1070 1072
2514 6 1065 1070 1073
2515 6 1070 1071 1074
2516 6 1070 1071 1075
2517 6 1068 1065 1070
2518 6 1069 1065 1070
2519 6 1071 1070 1072
2520 6 1071 1070 1073
2521 6 1071 1076 1078
2522 6 1071 1076 1079
2523 6 1076 1077 1080
2524 6 1076 1077 1081
2525 6 1074 1071 1076
2526 6 1075 1071 1076
2527 6 1077 1076 1078
2528 6 1077 1076 1079
2529 6 1077 1082 1084
2530 6 1077 1082 1085
2531 6 1082 1083 1086
2532 6 1082 1083 1087
2533 6 1080 1077 1082
2534 6 1081 1077 1082
2535 6 1083 1082 1084
2536 6 1083 1082 1085
2537 6 1083 1088 1090
2538 6 1083 1088 1091
2539 6 1088 1089 1092
2540 6 1088 1089 1093
2541 6 1086 1083 1088
2542 6 1087 1083 1088
2543 6 1089 1088 1090
2544 6 1089 1088 1091
2545 6 1089 1094 1096
2546 6 1089 1094 1097
2547 6 1094 1095 1098
2548 6 1094 1095 1099
2549 6 1092 1089 1094
2550 6 1093 1089 1094
2551 6 1095 1094 1096
2552 6 1095 1094 1097
2553 6 1095 1100 1102
2554 6 1095 1100 1103
2555 6 1100 1101 1104
2556 6 1100 1101 1105
2557 6 1098 1095 1100
2558 6 1099 1095 1100
2559 6 1101 1100 1102
2560 6 1101 1100 1103
2561 6 1101 1106 1108
2562 6 1101 1106 1109
2563 6 1106 1107 1110
2564 6 1106 1107 1111
2565 6 1104 1101 1106
2566 6 1105 1101 1106
2567 6 1107 1106 1108
2568 6 1107 1106 1109
2569 6 1107 1112 1114
2570 6 1107 1112 1115
2571 6 1112 1113 1116
2572 6 1112 1113 1117
2573 6 1110 1107 1112
2574 6 1111 1107 1112
2575 6 1113 1112 1114
2576 6 1113 1112 1115
2577 6 1113 1118 1120
2578 6 1113 1118 1121
2579 6 1118 1119 1122
2580 6 1118 1119 1123
2581 6 1116 1113 1118
2582 6 1117 1113 1118
2583 6 1119 1118 1120
2584 6 1119 1118 1121
2585 6 1119 1124 1126
2586 6 1119 1124 1127
2587 6 1124 1125 1128
2588 6 1124 1125 1129
2589 6 1122 1119 1124
2590 6 1123 1119 1124
2591 6 1125 1124 1126
2592 6 1125 1124 1127
2593 6 1125 1130 1132
2594 6 1125 1130 1133
2595 6 1130 1131 1134
2596 6 1130 1131 1135
2597 6 1128 1125 1130
2598 6 1129 1125 1130
2599 6 1131 1130 1132
2600 6 1131 1130 1133
2601 6 1131 1136 1138
2602 6 1131 1136 1139
2603 6 1136 1137 1140
2604 6 1136 1137 1141
2605 6 1134 1131 1136
2606 6 1135 1131 1136
2607 6 1137 1136 1138
2608 6 1137 1136 1139
2609 6 1137 1142 1144
2610 6 1137 1142 1145
2611 6 1142 1143 1146
2612 6 1142 1143 1147
2613 6 1140 1137 1142
2614 6 1141 1137 1142
2615 6 1143 1142 1144
2616 6 1143 1142 1145
2617 6 1143 1148 1150
2618 6 1143 1148 1151
2619 6 1148 1149 1152
2620 6 1148 1149 1153
2621 6 1146 1143 1148
2622 6 1147 1143 1148
2623 6 1149 1148 1150
2624 6 1149 1148 1151
2625 6 1149 1154 1156
2626 6 1149 1154 1157
2627 6 1154 1155 1158
2628 6 1154 1155 1159
2629 6 1152 1149 1154
2630 6 1153 1149 1154
2631 6 1155 1154 1156
2632 6 1155 1154 1157
2633 6 1155 1160 1162
2634 6 1155 1160 1163
2635 6 1160 1161 1164
2636 6 1160 1161 1165
2637 6 1158 1155 1160
2638 6 1159 1155 1160
2639 6 1161 1160 1162
2640 6 1161 1160 1163
2641 6 1161 1166 1168
2642 6 1161 1166 1169
2643 6 1166 1167 1170
2644 6 1166 1167 1171
2645 6 1164 1161 1166
2646 6 1165 1161 1166
2647 6 1167 1166 1168
2648 6 1167 1166 1169
2649 6 1167 1172 1174
2650 6 1167 1172 1175
2651 6 1172 1173 1176
2652 6 1172 1173 1177
2653 6 1170 1167 1172
2654 6 1171 1167 1172
2655 6 1173 1172 1174
2656 6 1173 1172 1175
2657 6 1173 1178 1180
2658 6 1173 1178 1181
2659 6 1178 1179 1182
2660 6 1178 1179 1183
2661 6 1176 1173 1178
2662 6 1177 1173 1178
2663 6 1179 1178 1180
2664 6 1179 1178 1181
2665 6 1179 1184 1186
2666 6 1179 1184 1187
2667 6 1184 1185 1188
2668 6 1184 1185 1189
2669 6 1182 1179 1184
2670 6 1183 1179 1184
2671 6 1185 1184 1186
2672 6 1185 1184 1187
2673 6 1185 1190 1192
2674 6 1185 1190 1193
2675 6 1190 1191 1194
2676 6 1190 1191 1195
2677 6 1188 1185 1190
2678 6 1189 1185 1190
2679 6 1191 1190 1192
2680 6 1191 1190 1193
2681 6 1191 1196 1198
2682 6 1191 1196 1199
2683 6 1196 1197 1200
2684 6 1196 1197 1201
2685 6 1194 1191 1196
2686 6 1195 1191 1196
2687 6 1197 1196 1198
2688 6 1197 1196 1199
2689 6 1197 1202 1204
2690 6 1197 1202 1205
2691 6 1200 1197 1202
2692 6 1201 1197 1202
2693 6 1210 1216 1218
2694 6 1210 1216 1219
2695 6 1216 1217 1220
2696 6 1216 1217 1221
2697 6 1214 1210 1216
2698 6 1215 1210 1216
2699 6 1217 1216 1218
2700 6 1217 1216 1219
2701 6 1217 1222 1224
2702 6 1217 1222 1225
2703 6 1222 1223 1226
2704 6 1222 1223 1227
2705 6 1220 1217 1222
2706 6 1221 1217 1222
2707 6 1223 1222 1224
2708 6 1223 1222 1225
2709 6 1223 1228 1230
2710 6 1223 1228 1231
2711 6 1228 1229 1232
2712 6 1228 1229 1233
2713 6 1226 1223 1228
2714 6 1227 1223 1228
2715 6 1229 1228 1230
2716 6 1229 1228 1231
2717 6 1229 1234 1236
2718 6 1229 1234 1237
2719 6 1234 1235 1238
2720 6 1234 1235 1239
2721 6 1232 1229 1234
2722 6 1233 1229 1234
2723 6 1235 1234 1236
2724 6 1235 1234 1237
2725 6 1235 1240 1242
2726 6 1235 1240 1243
2727 6 1240 1241 1244
2728 6 1240 1241 1245
2729 6 1238 1235 1240
2730 6 1239 1235 1240
2731 6 1241 1240 1242
2732 6 1241 1240 1243
2733 6 1241 1246 1248
2734 6 1241 1246 1249
2735 6 1246 1247 1250
2736 6 1246 1247 1251
2737 6 1244 1241 1246
2738 6 1245 1241 1246
2739 6 1247 1246 1248
2740 6 1247 1246 1249
2741 6 1247 1252 1254
2742 6 1247 1252 1255
2743 6 1252 1253 1256
2744 6 1252 1253 1257
2745 6 1250 1247 1252
2746 6 1251 1247 1252
2747 6 1253 1252 1254
2748 6 1253 1252 1255
2749 6 1253 1258 1260
2750 6 1253 1258 1261
2751 6 1258 1259 1262
2752 6 1258 1259 1263
2753 6 1256 1253 1258
2754 6 1257 1253 1258
2755 6 1259 1258 1260
2756 6 1259 1258 1261
2757 6 1259 1264 1266
2758 6 1259 1264 1267
2759 6 1264 1265 1268
2760 6 1264 1265 1269
2761 6 1262 1259 1264
2762 6 1263 1259 1264
2763 6 1265 1264 1266
2764 6 1265 1264 1267
2765 6 1265 1270 1272
2766 6 1265 1270 1273
2767 6 1270 1271 1274
2768 6 1270 1271 1275
2769 6 1268 1265 1270
2770 6 1269 1265 1270
2771 6 1271 1270 1272
2772 6 1271 1270 1273
2773 6 1271 1276 1278
2774 6 1271 1276 1279
2775 6 1276 1277 1280
2776 6 1276 1277 1281
2777 6 1274 1271 1276
2778 6 1275 1271 1276
2779 6 1277 1276 1278
2780 6 1277 1276 1279
2781 6 1277 1282 1284
2782 6 1277 1282 1285
2783 6 1282 1283 1286
2784 6 1282 1283 1287
2785 6 1280 1277 1282
2786 6 1281 1277 1282
2787 6 1283 1282 1284
2788 6 1283 1282 1285
2789 6 1283 1288 1290
2790 6 1283 1288 1291
2791 6 1288 1289 1292
2792 6 1288 1289 1293
2793 6 1286 1283 1288
2794 6 1287 1283 1288
2795 6 1289 1288 1290
2796 6 1289 1288 1291
2797 6 1289 1294 1296
2798 6 1289 1294 1297
2799 6 1294 1295 1298
2800 6 1294 1295 1299
2801 6 1292 1289 1294
2802 6 1293 1289 1294
2803 6 1295 1294 1296
2804 6 1295 1294 1297
2805 6 1295 1300 1302
2806 6 1295 1300 1303
2807 6 1300 1301 1304
2808 6 1300 1301 1305
2809 6 1298 1295 1300
2810 6 1299 1295 1300
2811 6 1301 1300 1302
2812 6 1301 1300 1303
2813 6 1301 1306 1308
2814 6 1301 1306 1309
2815 6 1306 1307 1310
2816 6 1306 1307 1311
2817 6 1304 1301 1306
2818 6 1305 1301 1306
2819 6 1307 1306 1308
2820 6 1307 1306 1309
2821 6 1307 1312 1314
2822 6 1307 1312 1315
2823 6 1312 1313 1316
2824 6 1312 1313 1317
2825 6 1310 1307 1312
2826 6 1311 1307 1312
2827 6 1313 1312 1314
2828 6 1313 1312 1315
2829 6 1313 1318 1320
2830 6 1313 1318 1321
2831 6 1318 1319 1322
2832 6 1318 1319 1323
2833 6 1316 1313 1318
2834 6 1317 1313 1318
2835 6 1319 1318 1320
2836 6 1319 1318 1321
2837 6 1319 1324 1326
2838 6 1319 1324 1327
2839 6 1324 1325 1328
2840 6 1324 1325 1329
2841 6 1322 1319 1324
2842 6 1323 1319 1324
2843 6 1325 1324 1326
2844 6 1325 1324 1327
2845 6 1325 1330 1332
2846 6 1325 1330 1333
2847 6 1330 1331 1334
2848 6 1330 1331 1335
2849 6 1328 1325 1330
2850 6 1329 1325 1330
2851 6 1331 1330 1332
2852 6 1331 1330 1333
2853 6 1331 1336 1338
2854 6 1331 1336 1339
2855 6 1336 1337 1340
2856 6 1336 1337 1341
2857 6 1334 1331 1336
2858 6 1335 1331 1336
2859 6 1337 1336 1338
2860 6 1337 1336 1339
2861 6 1337 1342 1344
2862 6 1337 1342 1345
2863 6 1342 1343 1346
2864 6 1342 1343 1347
2865 6 1340 1337 1342
2866 6 1341 1337 1342
2867 6 1343 1342 1344
2868 6 1343 1342 1345
2869 6 1343 1348 1350
2870 6 1343 1348 1351
2871 6 1348 1349 1352
2872 6 1348 1349 1353
2873 6 1346 1343 1348
2874 6 1347 1343 1348
2875 6 1349 1348 1350
2876 6 1349 1348 1351
2877 6 1349 1354 1356
2878 6 1349 1354 1357
2879 6 1354 1355 1358
2880 6 1354 1355 1359
2881 6 1352 1349 1354
2882 6 1353 1349 1354
2883 6 1355 1354 1356
2884 6 1355 1354 1357
2885 6 1355 1360 1362
2886 6 1355 1360 1363
2887 6 1360 1361 1364
2888 6 1360 1361 1365
2889 6 1358 1355 1360
2890 6 1359 1355 1360
2891 6 1361 1360 1362
2892 6 1361 1360 1363
2893 6 1361 1366 1368
2894 6 1361 1366 1369
2895 6 1366 1367 1370
2896 6 1366 1367 1371
2897 6 1364 1361 1366
2898 6 1365 1361 1366
2899 6 1367 1366 1368
2900 6 1367 1366 1369
2901 6 1367 1372 1374
2902 6 1367 1372 1375
2903 6 1372 1373 1376
2904 6 1372 1373 1377
2905 6 1370 1367 1372
2906 6 1371 1367 1372
2907 6 1373 1372 1374
2908 6 1373 1372 1375
2909 6 1373 1378 1380
2910 6 1373 1378 1381
2911 6 1378 1379 1382
2912 6 1378 1379 1383
2913 6 1376 1373 1378
2914 6 1377 1373 1378
2915 6 1379 1378 1380
2916 6 1379 1378 1381
2917 6 1379 1384 1386
2918 6 1379 1384 1387
2919 6 1384 1385 1388
2920 6 1384 1385 1389
2921 6 1382 1379 1384
2922 6 1383 1379 1384
2923 6 1385 1384 1386
2924 6 1385 1384 1387
2925 6 1385 1390 1392
2926 6 1385 1390 1393
2927 6 1390 1391 1394
2928 6 1390 1391 1395
2929 6 1388 1385 1390
2930 6 1389 1385 1390
2931 6 1391 1390 1392
2932 6 1391 1390 1393
2933 6 1391 1396 1398
2934 6 1391 1396 1399
2935 6 1396 1397 1400
2936 6 1396 1397 1401
2937 6 1394 1391 1396
2938 6 1395 1391 1396
2939 6 1397 1396 1398
2940 6 1397 1396 1399
2941 6 1397 1402 1404
2942 6 1397 1402 1405
2943 6 1402 1403 1406
2944 6 1402 1403 1407
2945 6 1400 1397 1402
2946 6 1401 1397 1402
2947 6 1403 1402 1404
2948 6 1403 1402 1405
2949 6 1403 1408 1410
2950 6 1403 1408 1411
2951 6 1408 1409 1412
2952 6 1408 1409 1413
2953 6 1406 1403 1408
2954 6 1407 1403 1408
2955 6 1409 1408 1410
2956 6 1409 1408 1411
2957 6 1409 1414 1416
2958 6 1409 1414 1417
2959 6 1414 1415 1418
2960 6 1414 1415 1419
2961 6 1412 1409 1414
2962 6 1413 1409 1414
2963 6 1415 1414 1416
2964 6 1415 1414 1417
2965 6 1415 1420 1422
2966 6 1415 1420 1423
2967 6 1420 1421 1424
2968 6 1420 1421 1425
2969 6 1418 1415 1420
2970 6 1419 1415 1420
2971 6 1421 1420 1422
2972 6 1421 1420 1423
2973 6 1421 1426 1428
2974 6 1421 1426 1429
2975 6 1426 1427 1430
2976 6 1426 1427 1431
2977 6 1424 1421 1426
2978 6 1425 1421 1426
2979 6 1427 1426 1428
2980 6 1427 1426 1429
2981 6 1427 1432 1434
2982 6 1427 1432 1435
2983 6 1432 1433 1436
2984 6 1432 1433 1437
2985 6 1430 1427 1432
2986 6 1431 1427 1432
2987 6 1433 1432 1434
2988 6 1433 1432 1435
2989 6 1433 1438 1440
2990 6 1433 1438 1441
2991 6 1438 1439 1442
2992 6 1438 1439 1443
2993 6 1436 1433 1438
2994 6 1437 1433 1438
2995 6 1439 1438 1440
2996 6 1439 1438 1441
2997 6 1439 1444 1446
2998 6 1439 1444 1447
2999 6 1444 1445 1448
3000 6 1444 1445 1449
3001 6 1442 1439 1444
3002 6 1443 1439 1444
3003 6 1445 1444 1446
3004 6 1445 1444 1447
3005 6 1445 1450 1452
3006 6 1445 1450 1453
3007 6 1450 1451 1454
3008 6 1450 1451 1455
3009 6 1448 1445 1450
3010 6 1449 1445 1450
3011 6 1451 1450 1452
3012 6 1451 1450 1453
3013 6 1451 1456 1458
3014 6 1451 1456 1459
3015 6 1456 1457 1460
3016 6 1456 1457 1461
3017 6 1454 1451 1456
3018 6 1455 1451 1456
3019 6 1457 1456 1458
3020 6 1457 1456 1459
3021 6 1457 1462 1464
3022 6 1457 1462 1465
3023 6 1462 1463 1466
3024 6 1462 1463 1467
3025 6 1460 1457 1462
3026 6 1461 1457 1462
3027 6 1463 1462 1464
3028 6 1463 1462 1465
3029 6 1463 1468 1470
3030 6 1463 1468 1471
3031 6 1468 1469 1472
3032 6 1468 1469 1473
3033 6 1466 1463 1468
3034 6 1467 1463 1468
3035 6 1469 1468 1470
3036 6 1469 1468 1471
3037 6 1469 1474 1476
3038 6 1469 1474 1477
3039 6 1474 1475 1478
3040 6 1474 1475 1479
3041 6 1472 1469 1474
3042 6 1473 1469 1474
3043 6 1475 1474 1476
3044 6 1475 1474 1477
3045 6 1475 1480 1482
3046 6 1475 1480 1483
3047 6 1480 1481 1484
3048 6 1480 1481 1485
3049 6 1478 1475 1480
3050 6 1479 1475 1480
3051 6 1481 1480 1482
3052 6 1481 1480 1483
3053 6 1481 1486 1488
3054 6 1481 1486 1489
3055 6 1486 1487 1490
3056 6 1486 1487 1491
3057 6 1484 1481 1486
3058 6 1485 1481 1486
3059 6 1487 1486 1488
3060 6 1487 1486 1489
3061 6 1487 1492 1494
3062 6 1487 1492 1495
3063 6 1492 1493 1496
3064 6 1492 1493 1497
3065 6 1490 1487 1492
3066 6 1491 1487 1492
3067 6 1493 1492 1494
3068 6 1493 1492 1495
3069 6 1493 1498 1500
3070 6 1493 1498 1501
3071 6 1498 1499 1502
3072 6 1498 1499 1503
3073 6 1496 1493 1498
3074 6 1497 1493 1498
3075 6 1499 1498 1500
3076 6 1499 1498 1501
3077 6 1499 1504 1506
3078 6 1499 1504 1507
3079 6 1502 1499 1504
3080 6 1503 1499 1504
3081 6 1512 1518 1520
3082 6 1512 1518 1521
3083 6 1518 1519 1522
3084 6 1518 1519 1523
3085 6 1516 1512 1518
3086 6 1517 1512 1518
3087 6 1519 1518 1520
3088 6 1519 1518 1521
3089 6 1519 1524 1526
3090 6 1519 1524 1527
3091 6 1524 1525 1528
3092 6 1524 1525 1529
3093 6 1522 1519 1524
3094 6 1523 1519 1524
3095 6 1525 1524 1526
3096 6 1525 1524 1527
3097 6 1525 1530 1532
3098 6 1525 1530 1533
3099 6 1530 1531 1534
3100 6 1530 1531 1535
3101 6 1528 1525 1530
3102 6 1529 1525 1530
3103 6 1531 1530 1532
3104 6 1531 1530 1533
3105 6 1531 1536 1538
3106 6 1531 1536 1539
3107 6 1536 1537 1540
3108 6 1536 1537 1541
3109 6 1534 1531 1536
3110 6 1535 1531 1536
3111 6 1537 1536 1538
3112 6 1537 1536 1539
3113 6 1537 1542 1544
3114 6 1537 1542 1545
3115 6 1542 1543 1546
3116 6 1542 1543 1547
3117 6 1540 1537 1542
3118 6 1541 1537 1542
3119 6 1543 1542 1544
3120 6 1543 1542 1545
3121 6 1543 1548 1550
3122 6 1543 1548 1551
3123 6 1548 1549 1552
3124 6 1548 1549 1553
3125 6 1546 1543 1548
3126 6 1547 1543 1548
3127 6 1549 1548 1550
3128 6 1549 1548 1551
3129 6 1549 1554 1556
3130 6 1549 1554 1557
3131 6 1554 1555 1558
3132 6 1554 1555 1559
3133 6 1552 1549 1554
3134 6 1553 1549 1554
3135 6 1555 1554 1556
3136 6 1555 1554 1557
3137 6 1555 1560 1562
3138 6 1555 1560 1563
3139 6 1560 1561 1564
3140 6 1560 1561 1565
3141 6 1558 1555 1560
3142 6 1559 1555 1560
3143 6 1561 1560 1562
3144 6 1561 1560 1563
3145 6 1561 1566 1568
3146 6 1561 1566 1569
3147 6 1566 1567 1570
3148 6 1566 1567 1571
3149 6 1564 1561 1566
3150 6 1565 1561 1566
3151 6 1567 1566 1568
3152 6 1567 1566 1569
3153 6 1567 1572 1574
3154 6 1567 1572 1575
3155 6 1572 1573 1576
3156 6 1572 1573 1577
3157 6 1570 1567 1572
3158 6 1571 1567 1572
3159 6 1573 1572 1574
3160 6 1573 1572 1575
3161 6 1573 1578 1580
3162 6 1573 1578 1581
3163 6 1578 1579 1582
3164 6 1578 1579 1583
3165 6 1576 1573 1578
3166 6 1577 1573 1578
3167 6 1579 1578 1580
3168 6 1579 1578 1581
3169 6 1579 1584 1586
3170 6 1579 1584 1587
3171 6 1584 1585 1588
3172 6 1584 1585 1589
3173 6 1582 1579 1584
3174 6 1583 1579 1584
3175 6 1585 1584 1586
3176 6 1585 1584 1587
3177 6 1585 1590 1592
3178 6 1585 1590 1593
3179 6 1590 1591 1594
3180 6 1590 1591 1595
3181 6 1588 1585 1590
3182 6 1589 1585 1590
3183 6 1591 1590 1592
3184 6 1591 1590 1593
3185 6 1591 1596 1598
3186 6 1591 1596 1599
3187 6 1596 1597 1600
3188 6 1596 1597 1601
3189 6 1594 1591 1596
3190 6 1595 1591 1596
3191 6 1597 1596 1598
3192 6 1597 1596 1599
3193 6 1597 1602 1604
3194 6 1597 1602 1605
3195 6 1602 1603 1606
3196 6 1602 1603 1607
3197 6 1600 1597 1602
3198 6 1601 1597 1602
3199 6 1603 1602 1604
3200 6 1603 1602 1605
3201 6 1603 1608 1610
3202 6 1603 1608 1611
3203 6 1608 1609 1612
3204 6 1608 1609 1613
3205 6 1606 1603 1608
3206 6 1607 1603 1608
3207 6 1609 1608 1610
3208 6 1609 1608 1611
3209 6 1609 1614 1616
3210 6 1609 1614 1617
3211 6 1614 1615 1618
3212 6 1614 1615 1619
3213 6 1612 1609 1614
3214 6 1613 1609 1614
3215 6 1615 1614 1616
3216 6 1615 1614 1617
3217 6 1615 1620 1622
3218 6 1615 1620 1623
3219 6 1620 1621 1624
3220 6 1620 1621 1625
3221 6 1618 1615 1620
3222 6 1619 1615 1620
3223 6 1621 1620 1622
3224 6 1621 1620 1623
3225 6 1621 1626 1628
3226 6 1621 1626 1629
3227 6 1626 1627 1630
3228 6 1626 1627 1631
3229 6 1624 1621 1626
3230 6 1625 1621 1626
3231 6 1627 1626 1628
3232 6 1627 1626 1629
3233 6 1627 1632 1634
3234 6 1627 1632 1635
3235 6 1632 1633 1636
3236 6 1632 1633 1637
3237 6 1630 1627 1632
3238 6 1631 1627 1632
3239 6 1633 1632 1634
3240 6 1633 1632 1635
3241 6 1633 1638 1640
3242 6 1633 1638 1641
3243 6 1638 1639 1642
3244 6 1638 1639 1643
3245 6 1636 1633 1638
3246 6 1637 1633 1638
3247 6 1639 1638 1640
3248 6 1639 1638 1641
3249 6 1639 1644 1646
3250 6 1639 1644 1647
3251 6 1644 1645 1648
3252 6 1644 1645 1649
3253 6 1642 1639 1644
3254 6 1643 1639 1644
3255 6 1645 1644 1646
3256 6 1645 1644 1647
3257 6 1645 1650 1652
3258 6 1645 1650 1653
3259 6 1650 1651 1654
3260 6 1650 1651 1655
3261 6 1648 1645 1650
3262 6 1649 1645 1650
3263 6 1651 1650 1652
3264 6 1651 1650 1653
3265 6 1651 1656 1658
3266 6 1651 1656 1659
3267 6 1656 1657 1660
3268 6 1656 1657 1661
3269 6 1654 1651 1656
3270 6 1655 1651 1656
3271 6 1657 1656 1658
3272 6 1657 1656 1659
3273 6 1657 1662 1664
3274 6 1657 1662 1665
3275 6 1662 1663 1666
3276 6 1662 1663 1667
3277 6 1660 1657 1662
3278 6 1661 1657 1662
3279 6 1663 1662 1664
3280 6 1663 1662 1665
3281 6 1663 1668 1670
3282 6 1663 1668 1671
3283 6 1668 1669 1672
3284 6 1668 1669 1673
3285 6 1666 1663 1668
3286 6 1667 1663 1668
3287 6 1669 1668 1670
3288 6 1669 1668 1671
3289 6 1669 1674 1676
3290 6 1669 1674 1677
3291 6 1674 1675 1678
3292 6 1674 1675 1679
3293 6 1672 1669 1674
3294 6 1673 1669 1674
3295 6 1675 1674 1676
3296 6 1675 1674 1677
3297 6 1675 1680 1682
3298 6 1675 1680 1683
3299 6 1680 1681 1684
3300 6 1680 1681 1685
3301 6 1678 1675 1680
3302 6 1679 1675 1680
3303 6 1681 1680 1682
3304 6 1681 1680 1683
3305 6 1681 1686 1688
3306 6 1681 1686 1689
3307 6 1686 1687 1690
3308 6 1686 1687 1691
3309 6 1684 1681 1686
3310 6 1685 1681 1686
3311 6 1687 1686 1688
3312 6 1687 1686 1689
3313 6 1687 1692 1694
3314 6 1687 1692 1695
3315 6 1692 1693 1696
3316 6 1692 1693 1697
3317 6 1690 1687 1692
3318 6 1691 1687 1692
3319 6 1693 1692 1694
3320 6 1693 1692 1695
3321 6 1693 1698 1700
3322 6 1693 1698 1701
3323 6 1698 1699 1702
3324 6 1698 1699 1703
3325 6 1696 1693 1698
3326 6 1697 1693 1698
3327 6 1699 1698 1700
3328 6 1699 1698 1701
3329 6 1699 1704 1706
3330 6 1699 1704 1707
3331 6 1704 1705 1708
3332 6 1704 1705 1709
3333 6 1702 1699 1704
3334 6 1703 1699 1704
3335 6 1705 1704 1706
3336 6 1705 1704 1707
3337 6 1705 1710 1712
3338 6 1705 1710 1713
3339 6 1710 1711 1714
3340 6 1710 1711 1715
3341 6 1708 1705 1710
3342 6 1709 1705 1710
3343 6 1711 1710 1712
3344 6 1711 1710 1713
3345 6 1711 1716 1718
3346 6 1711 1716 1719
3347 6 1716 1717 1720
3348 6 1716 1717 1721
3349 6 1714 1711 1716
3350 6 1715 1711 1716
3351 6 1717 1716 1718
3352 6 1717 1716 1719
3353 6 1717 1722 1724
3354 6 1717 1722 1725
3355 6 1722 1723 1726
3356 6 1722 1723 1727
3357 6 1720 1717 1722
3358 6 1721 1717 1722
3359 6 1723 1722 1724
3360 6 1723 1722 1725
3361 6 1723 1728 1730
3362 6 1723 1728 1731
3363 6 1728 1729 1732
3364 6 1728 1729 1733
3365 6 1726 1723 1728
3366 6 1727 1723 1728
3367 6 1729 1728 1730
3368 6 1729 1728 1731
3369 6 1729 1734 1736
3370 6 1729 1734 1737
3371 6 1734 1735 1738
3372 6 1734 1735 1739
3373 6 1732 1729 1734
3374 6 1733 1729 1734
3375 6 1735 1734 1736
3376 6 1735 1734 1737
3377 6 1735 1740 1742
3378 6 1735 1740 1743
3379 6 1740 1741 1744
3380 6 1740 1741 1745
3381 6 1738 1735 1740
3382 6 1739 1735 1740
3383 6 1741 1740 1742
3384 6 1741 1740 1743
3385 6 1741 1746 1748
3386 6 1741 1746 1749
3387 6 1746 1747 1750
3388 6 1746 1747 1751
3389 6 1744 1741 1746
3390 6 1745 1741 1746
3391 6 1747 1746 1748
3392 6 1747 1746 1749
3393 6 1747 1752 1754
3394 6 1747 1752 1755
3395 6 1752 1753 1756
3396 6 1752 1753 1757
3397 6 1750 1747 1752
3398 6 1751 1747 1752
3399 6 1753 1752 1754
3400 6 1753 1752 1755
3401 6 1753 1758 1760
3402 6 1753 1758 1761
3403 6 1758 1759 1762
3404 6 1758 1759 1763
3405 6 1756 1753 1758
3406 6 1757 1753 1758
3407 6 1759 1758 1760
3408 6 1759 1758 1761
3409 6 1759 1764 1766
3410 6 1759 1764 1767
3411 6 1764 1765 1768
3412 6 1764 1765 1769
3413 6 1762 1759 1764
3414 6 1763 1759 1764
3415 6 1765 1764 1766
3416 6 1765 1764 1767
3417 6 1765 1770 1772
3418 6 1765 1770 1773
3419 6 1770 1771 1774
3420 6 1770 1771 1775
3421 6 1768 1765 1770
3422 6 1769 1765 1770
3423 6 1771 1770 1772
3424 6 1771 1770 1773
3425 6 1771 1776 1778
3426 6 1771 1776 1779
3427 6 1776 1777 1780
3428 6 1776 1777 1781
3429 6 1774 1771 1776
3430 6 1775 1771 1776
3431 6 1777 1776 1778
3432 6 1777 1776 1779
3433 6 1777 1782 1784
3434 6 1777 1782 1785
3435 6 1782 1783 1786
3436 6 1782 1783 1787
3437 6 1780 1777 1782
3438 6 1781 1777 1782
3439 6 1783 1782 1784
3440 6 1783 1782 1785
3441 6 1783 1788 1790
3442 6 1783 1788 1791
3443 6 1788 1789 1792
3444 6 1788 1789 1793
3445 6 1786 1783 1788
3446 6 1787 1783 1788
3447 6 1789 1788 1790
3448 6 1789 1788 1791
3449 6 1789 1794 1796
3450 6 1789 1794 1797
3451 6 1794 1795 1798
3452 6 1794 1795 1799
3453 6 1792 1789 1794
3454 6 1793 1789 1794
3455 6 1795 1794 1796
3456 6 1795 1794 1797
3457 6 1795 1800 1802
3458 6 1795 1800 1803
3459 6 1800 1801 1804
3460 6 1800 1801 1805
3461 6 1798 1795 1800
3462 6 1799 1795 1800
3463 6 1801 1800 1802
3464 6 1801 1800 1803
3465 6 1801 1806 1808
3466 6 1801 1806 1809
3467 6 1804 1801 1806
3468 6 1805 1801 1806
3469 6 1814 1820 1822
3470 6 1814 1820 1823
3471 6 1820 1821 1824
3472 6 1820 1821 1825
3473 6 1818 1814 1820
3474 6 1819 1814 1820
3475 6 1821 1820 1822
3476 6 1821 1820 1823
3477 6 1821 1826 1828
3478 6 1821 1826 1829
3479 6 1826 1827 1830
3480 6 1826 1827 1831
3481 6 1824 1821 1826
3482 6 1825 1821 1826
3483 6 1827 1826 1828
3484 6 1827 1826 1829
3485 6 1827 1832 1834
3486 6 1827 1832 1835
3487 6 1832 1833 1836
3488 6 1832 1833 1837
3489 6 1830 1827 1832
3490 6 1831 1827 1832
3491 6 1833 1832 1834
3492 6 1833 1832 1835
3493 6 1833 1838 1840
3494 6 1833 1838 1841
3495 6 1838 1839 1842
3496 6 1838 1839 1843
3497 6 1836 1833 1838
3498 6 1837 1833 1838
3499 6 1839 1838 1840
3500 6 1839 1838 1841
3501 6 1839 1844 1846
3502 6 1839 1844 1847
3503 6 1844 1845 1848
3504 6 1844 1845 1849
3505 6 1842 1839 1844
3506 6 1843 1839 1844
3507 6 1845 1844 1846
3508 6 1845 1844 1847
3509 6 1845 1850 1852
3510 6 1845 1850 1853
3511 6 1850 1851 1854
3512 6 1850 1851 1855
3513 6 1848 1845 1850
3514 6 1849 1845 1850
3515 6 1851 1850 1852
3516 6 1851 1850 1853
3517 6 1851 1856 1858
3518 6 1851 1856 1859
3519 6 1856 1857 1860
3520 6 1856 1857 1861
3521 6 1854 1851 1856
3522 6 1855 1851 1856
3523 6 1857 1856 1858
3524 6 1857 1856 1859
3525 6 1857 1862 1864
3526 6 1857 1862 1865
3527 6 1862 1863 1866
3528 6 1862 1863 1867
3529 6 1860 1857 1862
3530 6 1861 1857 1862
3531 6 1863 1862 1864
3532 6 1863 1862 1865
3533 6 1863 1868 1870
3534 6 1863 1868 1871
3535 6 1868 1869 1872
3536 6 1868 1869 1873
3537 6 1866 1863 1868
3538 6 1867 1863 1868
3539 6 1869 1868 1870
3540 6 1869 1868 1871
3541 6 1869 1874 1876
3542 6 1869 1874 1877
3543 6 1874 1875 1878
3544 6 1874 1875 1879
3545 6 1872 1869 1874
3546 6 1873 1869 1874
3547 6 1875 1874 1876
3548 6 1875 1874 1877
3549 6 1875 1880 1882
3550 6 1875 1880 1883
3551 6 1880 1881 1884
3552 6 1880 1881 1885
3553 6 1878 1875 1880
3554 6 1879 1875 1880
3555 6 1881 1880 1882
3556 6 1881 1880 1883
3557 6 1881 1886 1888
3558 6 1881 1886 1889
3559 6 1886 1887 1890
3560 6 1886 1887 1891
3561 6 1884 1881 1886
3562 6 1885 1881 1886
3563 6 1887 1886 1888
3564 6 1887 1886 1889
3565 6 1887 1892 1894
3566 6 1887 1892 1895
3567 6 1892 1893 1896
3568 6 1892 1893 1897
3569 6 1890 1887 1892
3570 6 1891 1887 1892
3571 6 1893 1892 1894
3572 6 1893 1892 1895
3573 6 1893 1898 1900
3574 6 1893 1898 1901
3575 6 1898 1899 1902
3576 6 1898 1899 1903
3577 6 1896 1893 1898
3578 6 1897 1893 1898
3579 6 1899 1898 1900
3580 6 1899 1898 1901
3581 6 1899 1904 1906
3582 6 1899 1904 1907
3583 6 1904 1905 1908
3584 6 1904 1905 1909
3585 6 1902 1899 1904
3586 6 1903 1899 1904
3587 6 1905 1904 1906
3588 6 1905 1904 1907
3589 6 1905 1910 1912
3590 6 1905 1910 1913
3591 6 1910 1911 1914
3592 6 1910 1911 1915
3593 6 1908 1905 1910
3594 6 1909 1905 1910
3595 6 1911 1910 1912
3596 6 1911 1910 1913
3597 6 1911 1916 1918
3598 6 1911 1916 1919
3599 6 1916 1917 1920
3600 6 1916 1917 1921
3601 6 1914 1911 1916
3602 6 1915 1911 1916
3603 6 1917 1916 1918
3604 6 1917 1916 1919
3605 6 1917 1922 1924
3606 6 1917 1922 1925
3607 6 1922 1923 1926
3608 6 1922 1923 1927
3609 6 1920 1917 1922
3610 6 1921 1917 1922
3611 6 1923 1922 1924
3612 6 1923 1922 1925
3613 6 1923 1928 1930
3614 6 1923 1928 1931
3615 6 1928 1929 1932
3616 6 1928 1929 1933
3617 6 1926 1923 1928
3618 6 1927 1923 1928
3619 6 1929 1928 1930
3620 6 1929 1928 1931
3621 6 1929 1934 1936
3622 6 1929 1934 1937
3623 6 1934 1935 1938
3624 6 1934 1935 1939
3625 6 1932 1929 1934
3626 6 1933 1929 1934
3627 6 1935 1934 1936
3628 6 1935 1934 1937
3629 6 1935 1940 1942
3630 6 1935 1940 1943
3631 6 1940 1941 1944
3632 6 1940 1941 1945
3633 6 1938 1935 1940
3634 6 1939 1935 1940
3635 6 1941 1940 1942
3636 6 1941 1940 1943
3637 6 1941 1946 1948
3638 6 1941 1946 1949
3639 6 1946 1947 1950
3640 6 1946 1947 1951
3641 6 1944 1941 1946
3642 6 1945 1941 1946
3643 6 1947 1946 1948
3644 6 1947 1946 1949
3645 6 1947 1952 1954
3646 6 1947 1952 1955
3647 6 1952 1953 1956
3648 6 1952 1953 1957
3649 6 1950 1947 1952
3650 6 1951 1947 1952
3651 6 1953 1952 1954
3652 6 1953 1952 1955
3653 6 1953 1958 1960
3654 6 1953 1958 1961
3655 6 1958 1959 1962
3656 6 1958 1959 1963
3657 6 1956 1953 1958
3658 6 1957 1953 1958
3659 6 1959 1958 1960
3660 6 1959 1958 1961
3661 6 1959 1964 1966
3662 6 1959 1964 1967
3663 6 1964 1965 1968
3664 6 1964 1965 1969
3665 6 1962 1959 1964
3666 6 1963 1959 1964
3667 6 1965 1964 1966
3668 6 1965 1964 1967
3669 6 1965 1970 1972
3670 6 1965 1970 1973
3671 6 1970 1971 1974
3672 6 1970 1971 1975
3673 6 1968 1965 1970
3674 6 1969 1965 1970
3675 6 1971 1970 1972
3676 6 1971 1970 1973
3677 6 1971 1976 1978
3678 6 1971 1976 1979
3679 6 1976 1977 1980
3680 6 1976 1977 1981
3681 6 1974 1971 1976
3682 6 1975 1971 1976
3683 6 1977 1976 1978
3684 6 1977 1976 1979
3685 6 1977 1982 1984
3686 6 1977 1982 1985
3687 6 1982 1983 1986
3688 6 1982 1983 1987
3689 6 1980 1977 1982
3690 6 1981 1977 1982
3691 6 1983 1982 1984
3692 6 1983 1982 1985
3693 6 1983 1988 1990
3694 6 1983 1988 1991
3695 6 1988 1989 1992
3696 6 1988 1989 1993
3697 6 1986 1983 1988
3698 6 1987 1983 1988
3699 6 1989 1988 1990
3700 6 1989 1988 1991
3701 6 1989 1994 1996
3702 6 1989 1994 1997
3703 6 1994 1995 1998
3704 6 1994 1995 1999
3705 6 1992 1989 1994
3706 6 1993 1989 1994
3707 6 1995 1994 1996
3708 6 1995 1994 1997
3709 6 1995 2000 2002
3710 6 1995 2000 2003
3711 6 2000 2001 2004
3712 6 2000 2001 2005
3713 6 1998 1995 2000
3714 6 1999 1995 2000
3715 6 2001 2000 2002
3716 6 2001 2000 2003
3717 6 2001 2006 2008
3718 6 2001 2006 2009
3719 6 2006 2007 2010
3720 6 2006 2007 2011
3721 6 2004 2001 2006
3722 6 2005 2001 2006
3723 6 2007 2006 2008
3724 6 2007 2006 2009
3725 6 2007 2012 2014
3726 6 2007 2012 2015
3727 6 2012 2013 2016
3728 6 2012 2013 2017
3729 6 2010 2007 2012
3730 6 2011 2007 2012
3731 6 2013 2012 2014
3732 6 2013 2012 2015
3733 6 2013 2018 2020
3734 6 2013 2018 2021
3735 6 2018 2019 2022
3736 6 2018 2019 2023
3737 6 2016 2013 2018
3738 6 2017 2013 2018
3739 6 2019 2018 2020
3740 6 2019 2018 2021
3741 6 2019 2024 2026
3742 6 2019 2024 2027
3743 6 2024 2025 2028
3744 6 2024 2025 2029
3745 6 2022 2019 2024
3746 6 2023 2019 2024
3747 6 2025 2024 2026
3748 6 2025 2024 2027
3749 6 2025 2030 2032
3750 6 2025 2030 2033
3751 6 2030 2031 2034
3752 6 2030 2031 2035
3753 6 2028 2025 2030
3754 6 2029 2025 2030
3755 6 2031 2030 2032
3756 6 2031 2030 2033
3757 6 2031 2036 2038
3758 6 2031 2036 2039
3759 6 2036 2037 2040
3760 6 2036 2037 2041
3761 6 2034 2031 2036
3762 6 2035 2031 2036
3763 6 2037 2036 2038
3764 6 2037 2036 2039
3765 6 2037 2042 2044
3766 6 2037 2042 2045
3767 6 2042 2043 2046
3768 6 2042 2043 2047
3769 6 2040 2037 2042
3770 6 2041 2037 2042
3771 6 2043 2042 2044
3772 6 2043 2042 2045
3773 6 2043 2048 2050
3774 6 2043 2048 2051
3775 6 2048 2049 2052
3776 6 2048 2049 2053
3777 6 2046 2043 2048
3778 6 2047 2043 2048
3779 6 2049 2048 2050
3780 6 2049 2048 2051
3781 6 2049 2054 2056
3782 6 2049 2054 2057
3783 6 2054 2055 2058
3784 6 2054 2055 2059
3785 6 2052 2049 2054
3786 6 2053 2049 2054
3787 6 2055 2054 2056
3788 6 2055 2054 2057
3789 6 2055 2060 2062
3790 6 2055 2060 2063
3791 6 2060 2061 2064
3792 6 2060 2061 2065
3793 6 2058 2055 2060
3794 6 2059 2055 2060
3795 6 2061 2060 2062
3796 6 2061 2060 2063
3797 6 2061 2066 2068
3798 6 2061 2066 2069
3799 6 2066 2067 2070
3800 6 2066 2067 2071
3801 6 2064 2061 2066
3802 6 2065 2061 2066
3803 6 2067 2066 2068
3804 6 2067 2066 2069
3805 6 2067 2072 2074
3806 6 2067 2072 2075
3807 6 2072 2073 2076
3808 6 2072 2073 2077
3809 6 2070 2067 2072
3810 6 2071 2067 2072
3811 6 2073 2072 2074
3812 6 2073 2072 2075
3813 6 2073 2078 2080
3814 6 2073 2078 2081
3815 6 2078 2079 2082
3816 6 2078 2079 2083
3817 6 2076 2073 2078
3818 6 2077 2073 2078
3819 6 2079 2078 2080
3820 6 2079 2078 2081
3821 6 2079 2084 2086
3822 6 2079 2084 2087
3823 6 2084 2085 2088
3824 6 2084 2085 2089
3825 6 2082 2079 2084
3826 6 2083 2079 2084
3827 6 2085 2084 2086
3828 6 2085 2084 2087
3829 6 2085 2090 2092
3830 6 2085 2090 2093
3831 6 2090 2091 2094
3832 6 2090 2091 2095
3833 6 2088 2085 2090
3834 6 2089 2085 2090
3835 6 2091 2090 2092
3836 6 2091 2090 2093
3837 6 2091 2096 2098
3838 6 2091 2096 2099
3839 6 2096 2097 2100
3840 6 2096 2097 2101
3841 6 2094 2091 2096
3842 6 2095 2091 2096
3843 6 2097 2096 2098
3844 6 2097 2096 2099
3845 6 2097 2102 2104
3846 6 2097 2102 2105
3847 6 2102 2103 2106
3848 6 2102 2103 2107
3849 6 2100 2097 2102
3850 6 2101 2097 2102
3851 6 2103 2102 2104
3852 6 2103 2102 2105
3853 6 2103 2108 2110
3854 6 2103 2108 2111
3855 6 2106 2103 2108
3856 6 2107 2103 2108
3857 6 2116 2122 2124
3858 6 2116 2122 2125
3859 6 2122 2123 2126
3860 6 2122 2123 2127
3861 6 2120 2116 2122
3862 6 2121 2116 2122
3863 6 2123 2122 2124
3864 6 2123 2122 2125
3865 6 2123 2128 2130
3866 6 2123 2128 2131
3867 6 2128 2129 2132
3868 6 2128 2129 2133
3869 6 2126 2123 2128
3870 6 2127 2123 2128
3871 6 2129 2128 2130
3872 6 2129 2128 2131
3873 6 2129 2134 2136
3874 6 2129 2134 2137
3875 6 2134 2135 2138
3876 6 2134 2135 2139
3877 6 2132 2129 2134
3878 6 2133 2129 2134
3879 6 2135 2134 2136
3880 6 2135 2134 2137
3881 6 2135 2140 2142
3882 6 2135 2140 2143
3883 6 2140 2141 2144
3884 6 2140 2141 2145
3885 6 2138 2135 2140
3886 6 2139 2135 2140
3887 6 2141 2140 2142
3888 6 2141 2140 2143
3889 6 2141 2146 2148
3890 6 2141 2146 2149
3891 6 2146 2147 2150
3892 6 2146 2147 2151
3893 6 2144 2141 2146
3894 6 2145 2141 2146
3895 6 2147 2146 2148
3896 6 2147 2146 2149
3897 6 2147 2152 2154
3898 6 2147 2152 2155
3899 6 2152 2153 2156
3900 6 2152 2153 2157
3901 6 2150 2147 2152
3902 6 2151 2147 2152
3903 6 2153 2152 2154
3904 6 2153 2152 2155
3905 6 2153 2158 2160
3906 6 2153 2158 2161
3907 6 2158 2159 2162
3908 6 2158 2159 2163
3909 6 2156 2153 2158
3910 6 2157 2153 2158
3911 6 2159 2158 2160
3912 6 2159 2158 2161
3913 6 2159 2164 2166
3914 6 2159 2164 2167
3915 6 2164 2165 2168
3916 6 2164 2165 2169
3917 6 2162 2159 2164
3918 6 2163 2159 2164
3919 6 2165 2164 2166
3920 6 2165 2164 2167
3921 6 2165 2170 2172
3922 6 2165 2170 2173
3923 6 2170 2171 2174
3924 6 2170 2171 2175
3925 6 2168 2165 2170
3926 6 2169 2165 2170
3927 6 2171 2170 2172
3928 6 2171 2170 2173
3929 6 2171 2176 2178
3930 6 2171 2176 2179
3931 6 2176 2177 2180
3932 6 2176 2177 2181
3933 6 2174 2171 2176
3934 6 2175 2171 2176
3935 6 2177 2176 2178
3936 6 2177 2176 2179
3937 6 2177 2182 2184
3938 6 2177 2182 2185
3939 6 2182 2183 2186
3940 6 2182 2183 2187
3941 6 2180 2177 2182
3942 6 2181 2177 2182
3943 6 2183 2182 2184
3944 6 2183 2182 2185
3945 6 2183 2188 2190
3946 6 2183 2188 2191
3947 6 2188 2189 2192
3948 6 2188 2189 2193
3949 6 2186 2183 2188
3950 6 2187 2183 2188
3951 6 2189 2188 2190
3952 6 2189 2188 2191
3953 6 2189 2194 2196
3954 6 2189 2194 2197
3955 6 2194 2195 2198
3956 6 2194 2195 2199
3957 6 2192 2189 2194
3958 6 2193 2189 2194
3959 6 2195 2194 2196
3960 6 2195 2194 2197
3961 6 2195 2200 2202
3962 6 2195 2200 2203
3963 6 2200 2201 2204
3964 6 2200 2201 2205
3965 6 2198 2195 2200
3966 6 2199 2195 2200
3967 6 2201 2200 2202
3968 6 2201 2200 2203
3969 6 2201 2206 2208
3970 6 2201 2206 2209
3971 6 2206 2207 2210
3972 6 2206 2207 2211
3973 6 2204 2201 2206
3974 6 2205 2201 2206
3975 6 2207 2206 2208
3976 6 2207 2206 2209
3977 6 2207 2212 2214
3978 6 2207 2212 2215
3979 6 2212 2213 2216
3980 6 2212 2213 2217
3981 6 2210 2207 2212
3982 6 2211 2207 2212
3983 6 2213 2212 2214
3984 6 2213 2212 2215
3985 6 2213 2218 2220
3986 6 2213 2218 2221
3987 6 2218 2219 2222
3988 6 2218 2219 2223
3989 6 2216 2213 2218
3990 6 2217 2213 2218
3991 6 2219 2218 2220
3992 6 2219 2218 2221
3993 6 2219 2224 2226
3994 6 2219 2224 2227
3995 6 2224 2225 2228
3996 6 2224 2225 2229
3997 6 2222 2219 2224
3998 6 2223 2219 2224
3999 6 2225 2224 2226
4000 6 2225 2224 2227
4001 6 2225 2230 2232
4002 6 2225 2230 2233
4003 6 2230 2231 2234
4004 6 2230 2231 2235
4005 6 2228 2225 2230
4006 6 2229 2225 2230
4007 6 2231 2230 2232
4008 6 2231 2230 2233
4009 6 2231 2236 2238
4010 6 2231 2236 2239
4011 6 2236 2237 2240
4012 6 2236 2237 2241
4013 6 2234 2231 2236
4014 6 2235 2231 2236
4015 6 2237 2236 2238
4016 6 2237 2236 2239
4017 6 2237 2242 2244
4018 6 2237 2242 2245
4019 6 2242 2243 2246
4020 6 2242 2243 2247
4021 6 2240 2237 2242
4022 6 2241 2237 2242
4023 6 2243 2242 2244
4024 6 2243 2242 2245
4025 6 2243 2248 2250
4026 6 2243 2248 2251
4027 6 2248 2249 2252
4028 6 2248 2249 2253
4029 6 2246 2243 2248
4030 6 2247 2243 2248
4031 6 2249 2248 2250
4032 6 2249 2248 2251
4033 6 2249 2254 2256
4034 6 2249 2254 2257
4035 6 2254 2255 2258
4036 6 2254 2255 2259
4037 6 2252 2249 2254
4038 6 2253 2249 2254
4039 6 2255 2254 2256
4040 6 2255 2254 2257
4041 6 2255 2260 2262
4042 6 2255 2260 2263
4043 6 2260 2261 2264
4044 6 2260 2261 2265
4045 6 2258 2255 2260
4046 6 2259 2255 2260
4047 6 2261 2260 2262
4048 6 2261 2260 2263
4049 6 2261 2266 2268
4050 6 2261 2266 2269
4051 6 2266 2267 2270
4052 6 2266 2267 2271
4053 6 2264 2261 2266
4054 6 2265 2261 2266
4055 6 2267 2266 2268
4056 6 2267 2266 2269
4057 6 2267 2272 2274
4058 6 2267 2272 2275
4059 6 2272 2273 2276
4060 6 2272 2273 2277
4061 6 2270 2267 2272
4062 6 2271 2267 2272
4063 6 2273 2272 2274
4064 6 2273 2272 2275
4065 6 2273 2278 2280
4066 6 2273 2278 2281
4067 6 2278 2279 2282
4068 6 2278 2279 2283
4069 6 2276 2273 2278
4070 6 2277 2273 2278
4071 6 2279 2278 2280
4072 6 2279 2278 2281
4073 6 2279 2284 2286
4074 6 2279 2284 2287
4075 6 2284 2285 2288
4076 6 2284 2285 2289
4077 6 2282 2279 2284
4078 6 2283 2279 2284
4079 6 2285 2284 2286
4080 6 2285 2284 2287
4081 6 2285 2290 2292
4082 6 2285 2290 2293
4083 6 2290 2291 2294
4084 6 2290 2291 2295
4085 6 2288 2285 2290
4086 6 2289 2285 2290
4087 6 2291 2290 2292
4088 6 2291 2290 2293
4089 6 2291 2296 2298
4090 6 2291 2296 2299
4091 6 2296 2297 2300
4092 6 2296 2297 2301
4093 6 2294 2291 2296
4094 6 2295 2291 2296
4095 6 2297 2296 2298
4096 6 2297 2296 2299
4097 6 2297 2302 2304
4098 6 2297 2302 2305
4099 6 2302 2303 2306
4100 6 2302 2303 2307
4101 6 2300 2297 2302
4102 6 2301 2297 2302
4103 6 2303 2302 2304
4104 6 2303 2302 2305
4105 6 2303 2308 2310
4106 6 2303 2308 2311
4107 6 2308 2309 2312
4108 6 2308 2309 2313
4109 6 2306 2303 2308
4110 6 2307 2303 2308
4111 6 2309 2308 2310
4112 6 2309 2308 2311
4113 6 2309 2314 2316
4114 6 2309 2314 2317
4115 6 2314 2315 2318
4116 6 2314 2315 2319
4117 6 2312 2309 2314
4118 6 2313 2309 2314
4119 6 2315 2314 2316
4120 6 2315 2314 2317
4121 6 2315 2320 2322
4122 6 2315 2320 2323
4123 6 2320 2321 2324
4124 6 2320 2321 2325
4125 6 2318 2315 2320
4126 6 2319 2315 2320
4127 6 2321 2320 2322
4128 6 2321 2320 2323
4129 6 2321 2326 2328
4130 6 2321 2326 2329
4131 6 2326 2327 2330
4132 6 2326 2327 2331
4133 6 2324 2321 2326
4134 6 2325 2321 2326
4135 6 2327 2326 2328
4136 6 2327 2326 2329
4137 6 2327 2332 2334
4138 6 2327 2332 2335
4139 6 2332 2333 2336
4140 6 2332 2333 2337
4141 6 2330 2327 2332
4142 6 2331 2327 2332
4143 6 2333 2332 2334
4144 6 2333 2332 2335
4145 6 2333 2338 2340
4146 6 2333 2338 2341
4147 6 2338 2339 2342
4148 6 2338 2339 2343
4149 6 2336 2333 2338
4150 6 2337 2333 2338
4151 6 2339 2338 2340
4152 6 2339 2338 2341
4153 6 2339 2344 2346
4154 6 2339 2344 2347
4155 6 2344 2345 2348
4156 6 2344 2345 2349
4157 6 2342 2339 2344
4158 6 2343 2339 2344
4159 6 2345 2344 2346
4160 6 2345 2344 2347
4161 6 2345 2350 2352
4162 6 2345 2350 2353
4163 6 2350 2351 2354
4164 6 2350 2351 2355
4165 6 2348 2345 2350
4166 6 2349 2345 2350
4167 6 2351 2350 2352
4168 6 2351 2350 2353
4169 6 2351 2356 2358
4170 6 2351 2356 2359
4171 6 2356 2357 2360
4172 6 2356 2357 2361
4173 6 2354 2351 2356
4174 6 2355 2351 2356
4175 6 2357 2356 2358
4176 6 2357 2356 2359
4177 6 2357 2362 2364
4178 6 2357 2362 2365
4179 6 2362 2363 2366
4180 6 2362 2363 2367
4181 6 2360 2357 2362
4182 6 2361 2357 2362
4183 6 2363 2362 2364
4184 6 2363 2362 2365
4185 6 2363 2368 2370
4186 6 2363 2368 2371
4187 6 2368 2369 2372
4188 6 2368 2369 2373
4189 6 2366 2363 2368
4190 6 2367 2363 2368
4191 6 2369 2368 2370
4192 6 2369 2368 2371
4193 6 2369 2374 2376
4194 6 2369 2374 2377
4195 6 2374 2375 2378
4196 6 2374 2375 2379
4197 6 2372 2369 2374
4198 6 2373 2369 2374
4199 6 2375 2374 2376
4200 6 2375 2374 2377
4201 6 2375 2380 2382
4202 6 2375 2380 2383
4203 6 2380 2381 2384
4204 6 2380 2381 2385
4205 6 2378 2375 2380
4206 6 2379 2375 2380
4207 6 2381 2380 2382
4208 6 2381 2380 2383
4209 6 2381 2386 2388
4210 6 2381 2386 2389
4211 6 2386 2387 2390
4212 6 2386 2387 2391
4213 6 2384 2381 2386
4214 6 2385 2381 2386
4215 6 2387 2386 2388
4216 6 2387 2386 2389
4217 6 2387 2392 2394
4218 6 2387 2392 2395
4219 6 2392 2393 2396
4220 6 2392 2393 2397
4221 6 2390 2387 2392
4222 6 2391 2387 2392
4223 6 2393 2392 2394
4224 6 2393 2392 2395
4225 6 2393 2398 2400
4226 6 2393 2398 2401
4227 6 2398 2399 2402
4228 6 2398 2399 2403
4229 6 2396 2393 2398
4230 6 2397 2393 2398
4231 6 2399 2398 2400
4232 6 2399 2398 2401
4233 6 2399 2404 2406
4234 6 2399 2404 2407
4235 6 2404 2405 2408
4236 6 2404 2405 2409
4237 6 2402 2399 2404
4238 6 2403 2399 2404
4239 6 2405 2404 2406
4240 6 2405 2404 2407
4241 6 2405 2410 2412
4242 6 2405 2410 2413
4243 6 2408 2405 2410
4244 6 2409 2405 2410
4245 6 2418 2424 2426
4246 6 2418 2424 2427
4247 6 2424 2425 2428
4248 6 2424 2425 2429
4249 6 2422 2418 2424
4250 6 2423 2418 2424
4251 6 2425 2424 2426
4252 6 2425 2424 2427
4253 6 2425 2430 2432
4254 6 2425 2430 2433
4255 6 2430 2431 2434
4256 6 2430 2431 2435
4257 6 2428 2425 2430
4258 6 2429 2425 2430
4259 6 2431 2430 2432
4260 6 2431 2430 2433
4261 6 2431 2436 2438
4262 6 2431 2436 2439
4263 6 2436 2437 2440
4264 6 2436 2437 2441
4265 6 2434 2431 2436
4266 6 2435 2431 2436
4267 6 2437 2436 2438
4268 6 2437 2436 2439
4269 6 2437 2442 2444
4270 6 2437 2442 2445
4271 6 2442 2443 2446
4272 6 2442 2443 2447
4273 6 2440 2437 2442
4274 6 2441 2437 2442
4275 6 2443 2442 2444
4276 6 2443 2442 2445
4277 6 2443 2448 2450
4278 6 2443 2448 2451
4279 6 2448 2449 2452
4280 6 2448 2449 2453
4281 6 2446 2443 2448
4282 6 2447 2443 2448
4283 6 2449 2448 2450
4284 6 2449 2448 2451
4285 6 2449 2454 2456
4286 6 2449 2454 2457
4287 6 2454 2455 2458
4288 6 2454 2455 2459
4289 6 2452 2449 2454
4290 6 2453 2449 2454
4291 6 2455 2454 2456
4292 6 2455 2454 2457
4293 6 2455 2460 2462
4294 6 2455 2460 2463
4295 6 2460 2461 2464
4296 6 2460 2461 2465
4297 6 2458 2455 2460
4298 6 2459 2455 2460
4299 6 2461 2460 2462
4300 6 2461 2460 2463
4301 6 2461 2466 2468
4302 6 2461 2466 2469
4303 6 2466 2467 2470
4304 6 2466 2467 2471
4305 6 2464 2461 2466
4306 6 2465 2461 2466
4307 6 2467 2466 2468
4308 6 2467 2466 2469
4309 6 2467 2472 2474
4310 6 2467 2472 2475
4311 6 2472 2473 2476
4312 6 2472 2473 2477
4313 6 2470 2467 2472
4314 6 2471 2467 2472
4315 6 2473 2472 2474
4316 6 2473 2472 2475
4317 6 2473 2478 2480
4318 6 2473 2478 2481
4319 6 2478 2479 2482
4320 6 2478 2479 2483
4321 6 2476 2473 2478
4322 6 2477 2473 2478
4323 6 2479 2478 2480
4324 6 2479 2478 2481
4325 6 2479 2484 2486
4326 6 2479 2484 2487
4327 6 2484 2485 2488
4328 6 2484 2485 2489
4329 6 2482 2479 2484
4330 6 2483 2479 2484
4331 6 2485 2484 2486
4332 6 2485 2484 2487
4333 6 2485 2490 2492
4334 6 2485 2490 2493
4335 6 2490 2491 2494
4336 6 2490 2491 2495
4337 6 2488 2485 2490
4338 6 2489 2485 2490
4339 6 2491 2490 2492
4340 6 2491 2490 2493
4341 6 2491 2496 2498
4342 6 2491 2496 2499
4343 6 2496 2497 2500
4344 6 2496 2497 2501
4345 6 2494 2491 2496
4346 6 2495 2491 2496
4347 6 2497 2496 2498
4348 6 2497 2496 2499
4349 6 2497 2502 2504
4350 6 2497 2502 2505
4351 6 2502 2503 2506
4352 6 2502 2503 2507
4353 6 2500 2497 2502
4354 6 2501 2497 2502
4355 6 2503 2502 2504
4356 6 2503 2502 2505
4357 6 2503 2508 2510
4358 6 2503 2508 2511
4359 6 2508 2509 2512
4360 6 2508 2509 2513
4361 6 2506 2503 2508
4362 6 2507 2503 2508
4363 6 2509 2508 2510
4364 6 2509 2508 2511
4365 6 2509 2514 2516
4366 6 2509 2514 2517
4367 6 2514 2515 2518
4368 6 2514 2515 2519
4369 6 2512 2509 2514
4370 6 2513 2509 2514
4371 6 2515 2514 2516
4372 6 2515 2514 2517
4373 6 2515 2520 2522
4374 6 2515 2520 2523
4375 6 2520 2521 2524
4376 6 2520 2521 2525
4377 6 2518 2515 2520
4378 6 2519 2515 2520
4379 6 2521 2520 2522
4380 6 2521 2520 2523
4381 6 2521 2526 2528
4382 6 2521 2526 2529
4383 6 2526 2527 2530
4384 6 2526 2527 2531
4385 6 2524 2521 2526
4386 6 2525 2521 2526
4387 6 2527 2526 2528
4388 6 2527 2526 2529
4389 6 2527 2532 2534
4390 6 2527 2532 2535
4391 6 2532 2533 2536
4392 6 2532 2533 2537
4393 6 2530 2527 2532
4394 6 2531 2527 2532
4395 6 2533 2532 2534
4396 6 2533 2532 2535
4397 6 2533 2538 2540
4398 6 2533 2538 2541
4399 6 2538 2539 2542
4400 6 2538 2539 2543
4401 6 2536 2533 2538
4402 6 2537 2533 2538
4403 6 2539 2538 2540
4404 6 2539 2538 2541
4405 6 2539 2544 2546
4406 6 2539 2544 2547
4407 6 2544 2545 2548
4408 6 2544 2545 2549
4409 6 2542 2539 2544
4410 6 2543 2539 2544
4411 6 2545 2544 2546
4412 6 2545 2544 2547
4413 6 2545 2550 2552
4414 6 2545 2550 2553
4415 6 2550 2551 2554
4416 6 2550 2551 2555
4417 6 2548 2545 2550
4418 6 2549 2545 2550
4419 6 2551 2550 2552
4420 6 2551 2550 2553
4421 6 2551 2556 2558
4422 6 2551 2556 2559
4423 6 2556 2557 2560
4424 6 2556 2557 2561
4425 6 2554 2551 2556
4426 6 2555 2551 2556
4427 6 2557 2556 2558
4428 6 2557 2556 2559
4429 6 2557 2562 2564
4430 6 2557 2562 2565
4431 6 2562 2563 2566
4432 6 2562 2563 2567
4433 6 2560 2557 2562
4434 6 2561 2557 2562
4435 6 2563 2562 2564
4436 6 2563 2562 2565
4437 6 2563 2568 2570
4438 6 2563 2568 2571
4439 6 2568 2569 2572
4440 6 2568 2569 2573
4441 6 2566 2563 2568
4442 6 2567 2563 2568
4443 6 2569 2568 2570
4444 6 2569 2568 2571
4445 6 2569 2574 2576
4446 6 2569 2574 2577
4447 6 2574 2575 2578
4448 6 2574 2575 2579
4449 6 2572 2569 2574
4450 6 2573 2569 2574
4451 6 2575 2574 2576
4452 6 2575 2574 2577
4453 6 2575 2580 2582
4454 6 2575 2580 2583
4455 6 2580 2581 2584
4456 6 2580 2581 2585
4457 6 2578 2575 2580
4458 6 2579 2575 2580
4459 6 2581 2580 2582
4460 6 2581 2580 2583
4461 6 2581 2586 2588
4462 6 2581 2586 2589
4463 6 2586 2587 2590
4464 6 2586 2587 2591
4465 6 2584 2581 2586
4466 6 2585 2581 2586
4467 6 2587 2586 2588
4468 6 2587 2586 2589
4469 6 2587 2592 2594
4470 6 2587 2592 2595
4471 6 2592 2593 2596
4472 6 2592 2593 2597
4473 6 2590 2587 2592
4474 6 2591 2587 2592
4475 6 2593 2592 2594
4476 6 2593 2592 2595
4477 6 2593 2598 2600
4478 6 2593 2598 2601
4479 6 2598 2599 2602
4480 6 2598 2599 2603
4481 6 2596 2593 2598
4482 6 2597 2593 2598
4483 6 2599 2598 2600
4484 6 2599 2598 2601
4485 6 2599 2604 2606
4486 6 2599 2604 2607
4487 6 2604 2605 2608
4488 6 2604 2605 2609
4489 6 2602 2599 2604
4490 6 2603 2599 2604
4491 6 2605 2604 2606
4492 6 2605 2604 2607
4493 6 2605 2610 2612
4494 6 2605 2610 2613
4495 6 2610 2611 2614
4496 6 2610 2611 2615
4497 6 2608 2605 2610
4498 6 2609 2605 2610
4499 6 2611 2610 2612
4500 6 2611 2610 2613
4501 6 2611 2616 2618
4502 6 2611 2616 2619
4503 6 2616 2617 2620
4504 6 2616 2617 2621
4505 6 2614 2611 2616
4506 6 2615 2611 2616
4507 6 2617 2616 2618
4508 6 2617 2616 2619
4509 6 2617 2622 2624
4510 6 2617 2622 2625
4511 6 2622 2623 2626
4512 6 2622 2623 2627
4513 6 2620 2617 2622
4514 6 2621 2617 2622
4515 6 2623 2622 2624
4516 6 2623 2622 2625
4517 6 2623 2628 2630
4518 6 2623 2628 2631
4519 6 2628 2629 2632
4520 6 2628 2629 2633
4521 6 2626 2623 2628
4522 6 2627 2623 2628
4523 6 2629 2628 2630
4524 6 2629 2628 2631
4525 6 2629 2634 2636
4526 6 2629 2634 2637
4527 6 2634 2635 2638
4528 6 2634 2635 2639
4529 6 2632 2629 2634
4530 6 2633 2629 2634
4531 6 2635 2634 2636
4532 6 2635 2634 2637
4533 6 2635 2640 2642
4534 6 2635 2640 2643
4535 6 2640 2641 2644
4536 6 2640 2641 2645
4537 6 2638 2635 2640
4538 6 2639 2635 2640
4539 6 2641 2640 2642
4540 6 2641 2640 2643
4541 6 2641 2646 2648
4542 6 2641 2646 2649
4543 6 2646 2647 2650
4544 6 2646 2647 2651
4545 6 2644 2641 2646
4546 6 2645 2641 2646
4547 6 2647 2646 2648
4548 6 2647 2646 2649
4549 6 2647 2652 2654
4550 6 2647 2652 2655
4551 6 2652 2653 2656
4552 6 2652 2653 2657
4553 6 2650 2647 2652
4554 6 2651 2647 2652
4555 6 2653 2652 2654
4556 6 2653 2652 2655
4557 6 2653 2658 2660
4558 6 2653 2658 2661
4559 6 2658 2659 2662
4560 6 2658 2659 2663
4561 6 2656 2653 2658
4562 6 2657 2653 2658
4563 6 2659 2658 2660
4564 6 2659 2658 2661
4565 6 2659 2664 2666
4566 6 2659 2664 2667
4567 6 2664 2665 2668
4568 6 2664 2665 2669
4569 6 2662 2659 2664
4570 6 2663 2659 2664
4571 6 2665 2664 2666
4572 6 2665 2664 2667
4573 6 2665 2670 2672
4574 6 2665 2670 2673
4575 6 2670 2671 2674
4576 6 2670 2671 2675
4577 6 2668 2665 2670
4578 6 2669 2665 2670
4579 6 2671 2670 2672
4580 6 2671 2670 2673
4581 6 2671 2676 2678
4582 6 2671 2676 2679
4583 6 2676 2677 2680
4584 6 2676 2677 2681
4585 6 2674 2671 2676
4586 6 2675 2671 2676
4587 6 2677 2676 2678
4588 6 2677 2676 2679
4589 6 2677 2682 2684
4590 6 2677 2682 2685
4591 6 2682 2683 2686
4592 6 2682 2683 2687
4593 6 2680 2677 2682
4594 6 2681 2677 2682
4595 6 2683 2682 2684
4596 6 2683 2682 2685
4597 6 2683 2688 2690
4598 6 2683 2688 2691
4599 6 2688 2689 2692
4600 6 2688 2689 2693
4601 6 2686 2683 2688
4602 6 2687 2683 2688
4603 6 2689 2688 2690
4604 6 2689 2688 2691
4605 6 2689 2694 2696
4606 6 2689 2694 2697
4607 6 2694 2695 2698
4608 6 2694 2695 2699
4609 6 2692 2689 2694
4610 6 2693 2689 2694
4611 6 2695 2694 2696
4612 6 2695 2694 2697
4613 6 2695 2700 2702
4614 6 2695 2700 2703
4615 6 2700 2701 2704
4616 6 2700 2701 2705
4617 6 2698 2695 2700
4618 6 2699 2695 2700
4619 6 2701 2700 2702
4620 6 2701 2700 2703
4621 6 2701 2706 2708
4622 6 2701 2706 2709
4623 6 2706 2707 2710
4624 6 2706 2707 2711
4625 6 2704 2701 2706
4626 6 2705 2701 2706
4627 6 2707 2706 2708
4628 6 2707 2706 2709
4629 6 2707 2712 2714
4630 6 2707 2712 2715
4631 6 2710 2707 2712
4632 6 2711 2707 2712
4633 6 2720 2726 2728
4634 6 2720 2726 2729
4635 6 2726 2727 2730
4636 6 2726 2727 2731
4637 6 2724 2720 2726
4638 6 2725 2720 2726
4639 6 2727 2726 2728
4640 6 2727 2726 2729
4641 6 2727 2732 2734
4642 6 2727 2732 2735
4643 6 2732 2733 2736
4644 6 2732 2733 2737
4645 6 2730 2727 2732
4646 6 2731 2727 2732
4647 6 2733 2732 2734
4648 6 2733 2732 2735
4649 6 2733 2738 2740
4650 6 2733 2738 2741
4651 6 2738 2739 2742
4652 6 2738 2739 2743
4653 6 2736 2733 2738
4654 6 2737 2733 2738
4655 6 2739 2738 2740
4656 6 2739 2738 2741
4657 6 2739 2744 2746
4658 6 2739 2744 2747
4659 6 2744 2745 2748
4660 6 2744 2745 2749
4661 6 2742 2739 2744
4662 6 2743 2739 2744
4663 6 2745 2744 2746
4664 6 2745 2744 2747
4665 6 2745 2750 2752
4666 6 2745 2750 2753
4667 6 2750 2751 2754
4668 6 2750 2751 2755
4669 6 2748 2745 2750
4670 6 2749 2745 2750
4671 6 2751 2750 2752
4672 6 2751 2750 2753
4673 6 2751 2756 2758
4674 6 2751 2756 2759
4675 6 2756 2757 2760
4676 6 2756 2757 2761
4677 6 2754 2751 2756
4678 6 2755 2751 2756
4679 6 2757 2756 2758
4680 6 2757 2756 2759
4681 6 2757 2762 2764
4682 6 2757 2762 2765
4683 6 2762 2763 2766
4684 6 2762 2763 2767
4685 6 2760 2757 2762
4686 6 2761 2757 2762
4687 6 2763 2762 2764
4688 6 2763 2762 2765
4689 6 2763 2768 2770
4690 6 2763 2768 2771
4691 6 2768 2769 2772
4692 6 2768 2769 2773
4693 6 2766 2763 2768
4694 6 2767 2763 2768
4695 6 2769 2768 2770
4696 6 2769 2768 2771
4697 6 2769 2774 2776
4698 6 2769 2774 2777
4699 6 2774 2775 2778
4700 6 2774 2775 2779
4701 6 2772 2769 2774
4702 6 2773 2769 2774
4703 6 2775 2774 2776
4704 6 2775 2774 2777
4705 6 2775 2780 2782
4706 6 2775 2780 2783
4707 6 2780 2781 2784
4708 6 2780 2781 2785
4709 6 2778 2775 2780
4710 6 2779 2775 2780
4711 6 2781 2780 2782
4712 6 2781 2780 2783
4713 6 2781 2786 2788
4714 6 2781 2786 2789
4715 6 2786 2787 2790
4716 6 2786 2787 2791
4717 6 2784 2781 2786
4718 6 2785 2781 2786
4719 6 2787 2786 2788
4720 6 2787 2786 2789
4721 6 2787 2792 2794
4722 6 2787 2792 2795
4723 6 2792 2793 2796
4724 6 2792 2793 2797
4725 6 2790 2787 2792
4726 6 2791 2787 2792
4727 6 2793 2792 2794
4728 6 2793 2792 2795
4729 6 2793 2798 2800
4730 6 2793 2798 2801
4731 6 2798 2799 2802
4732 6 2798 2799 2803
4733 6 2796 2793 2798
4734 6 2797 2793 2798
4735 6 2799 2798 2800
4736 6 2799 2798 2801
4737 6 2799 2804 2806
4738 6 2799 2804 2807
4739 6 2804 2805 2808
4740 6 2804 2805 2809
4741 6 2802 2799 2804
4742 6 2803 2799 2804
4743 6 2805 2804 2806
4744 6 2805 2804 2807
4745 6 2805 2810 2812
4746 6 2805 2810 2813
4747 6 2810 2811 2814
4748 6 2810 2811 2815
4749 6 2808 2805 2810
4750 6 2809 2805 2810
4751 6 2811 2810 2812
4752 6 2811 2810 2813
4753 6 2811 2816 2818
4754 6 2811 2816 2819
4755 6 2816 2817 2820
4756 6 2816 2817 2821
4757 6 2814 2811 2816
4758 6 2815 2811 2816
4759 6 2817 2816 2818
4760 6 2817 2816 2819
4761 6 2817 2822 2824
4762 6 2817 2822 2825
4763 6 2822 2823 2826
4764 6 2822 2823 2827
4765 6 2820 2817 2822
4766 6 2821 2817 2822
4767 6 2823 2822 2824
4768 6 2823 2822 2825
4769 6 2823 2828 2830
4770 6 2823 2828 2831
4771 6 2828 2829 2832
4772 6 2828 2829 2833
4773 6 2826 2823 2828
4774 6 2827 2823 2828
4775 6 2829 2828 2830
4776 6 2829 2828 2831
4777 6 2829 2834 2836
4778 6 2829 2834 2837
4779 6 2834 2835 2838
4780 6 2834 2835 2839
4781 6 2832 2829 2834
4782 6 2833 2829 2834
4783 6 2835 2834 2836
4784 6 2835 2834 2837
4785 6 2835 2840 2842
4786 6 2835 2840 2843
4787 6 2840 2841 2844
4788 6 2840 2841 2845
4789 6 2838 2835 2840
4790 6 2839 2835 2840
4791 6 2841 2840 2842
4792 6 2841 2840 2843
4793 6 2841 2846 2848
4794 6 2841 2846 2849
4795 6 2846 2847 2850
4796 6 2846 2847 2851
4797 6 2844 2841 2846
4798 6 2845 2841 2846
4799 6 2847 2846 2848
4800 6 2847 2846 2849
4801 6 2847 2852 2854
4802 6 2847 2852 2855
4803 6 2852 2853 2856
4804 6 2852 2853 2857
4805 6 2850 2847 2852
4806 6 2851 2847 2852
4807 6 2853 2852 2854
4808 6 2853 2852 2855
4809 6 2853 2858 2860
4810 6 2853 2858 2861
4811 6 2858 2859 2862
4812 6 2858 2859 2863
4813 6 2856 2853 2858
4814 6 2857 2853 2858
4815 6 2859 2858 2860
4816 6 2859 2858 2861
4817 6 2859 2864 2866
4818 6 2859 2864 2867
4819 6 2864 2865 2868
4820 6 2864 2865 2869
4821 6 2862 2859 2864
4822 6 2863 2859 2864
4823 6 2865 2864 2866
4824 6 2865 2864 2867
4825 6 2865 2870 2872
4826 6 2865 2870 2873
4827 6 2870 2871 2874
4828 6 2870 2871 2875
4829 6 2868 2865 2870
4830 6 2869 2865 2870
4831 6 2871 2870 2872
4832 6 2871 2870 2873
4833 6 2871 2876 2878
4834 6 2871 2876 2879
4835 6 2876 2877 2880
4836 6 2876 2877 2881
4837 6 2874 2871 2876
4838 6 2875 2871 2876
4839 6 2877 2876 2878
4840 6 2877 2876 2879
4841 6 2877 2882 2884
4842 6 2877 2882 2885
4843 6 2882 2883 2886
4844 6 2882 2883 2887
4845 6 2880 2877 2882
4846 6 2881 2877 2882
4847 6 2883 2882 2884
4848 6 2883 2882 2885
4849 6 2883 2888 2890
4850 6 2883 2888 2891
4851 6 2888 2889 2892
4852 6 2888 2889 2893
4853 6 2886 2883 2888
4854 6 2887 2883 2888
4855 6 2889 2888 2890
4856 6 2889 2888 2891
4857 6 2889 2894 2896
4858 6 2889 2894 2897
4859 6 2894 2895 2898
4860 6 2894 2895 2899
4861 6 2892 2889 2894
4862 6 2893 2889 2894
4863 6 2895 2894 2896
4864 6 2895 2894 2897
4865 6 2895 2900 2902
4866 6 2895 2900 2903
4867 6 2900 2901 2904
4868 6 2900 2901 2905
4869 6 2898 2895 2900
4870 6 2899 2895 2900
4871 6 2901 2900 2902
4872 6 2901 2900 2903
4873 6 2901 2906 2908
4874 6 2901 2906 2909
4875 6 2906 2907 2910
4876 6 2906 2907 2911
4877 6 2904 2901 2906
4878 6 2905 2901 2906
4879 6 2907 2906 2908
4880 6 2907 2906 2909
4881 6 2907 2912 2914
4882 6 2907 2912 2915
4883 6 2912 2913 2916
4884 6 2912 2913 2917
4885 6 2910 2907 2912
4886 6 2911 2907 2912
4887 6 2913 2912 2914
4888 6 2913 2912 2915
4889 6 2913 2918 2920
4890 6 2913 2918 2921
4891 6 2918 2919 2922
4892 6 2918 2919 2923
4893 6 2916 2913 2918
4894 6 2917 2913 2918
4895 6 2919 2918 2920
4896 6 2919 2918 2921
4897 6 2919 2924 2926
4898 6 2919 2924 2927
4899 6 2924 2925 2928
4900 6 2924 2925 2929
4901 6 2922 2919 2924
4902 6 2923 2919 2924
4903 6 2925 2924 2926
4904 6 2925 2924 2927
4905 6 2925 2930 2932
4906 6 2925 2930 2933
4907 6 2930 2931 2934
4908 6 2930 2931 2935
4909 6 2928 2925 2930
4910 6 2929 2925 2930
4911 6 2931 2930 2932
4912 6 2931 2930 2933
4913 6 2931 2936 2938
4914 6 2931 2936 2939
4915 6 2936 2937 2940
4916 6 2936 2937 2941
4917 6 2934 2931 2936
4918 6 2935 2931 2936
4919 6 2937 2936 2938
4920 6 2937 2936 2939
4921 6 2937 2942 2944
4922 6 2937 2942 2945
4923 6 2942 2943 2946
4924 6 2942 2943 2947
4925 6 2940 2937 2942
4926 6 2941 2937 2942
4927 6 2943 2942 2944
4928 6 2943 2942 2945
4929 6 2943 2948 2950
4930 6 2943 2948 2951
4931 6 2948 2949 2952
4932 6 2948 2949 2953
4933 6 2946 2943 2948
4934 6 2947 2943 2948
4935 6 2949 2948 2950
4936 6 2949 2948 2951
4937 6 2949 2954 2956
4938 6 2949 2954 2957
4939 6 2954 2955 2958
4940 6 2954 2955 2959
4941 6 2952 2949 2954
4942 6 2953 2949 2954
4943 6 2955 2954 2956
4944 6 2955 2954 2957
4945 6 2955 2960 2962
4946 6 2955 2960 2963
4947 6 2960 2961 2964
4948 6 2960 2961 2965
4949 6 2958 2955 2960
4950 6 2959 2955 2960
4951 6 2961 2960 2962
4952 6 2961 2960 2963
4953 6 2961 2966 2968
4954 6 2961 2966 2969
4955 6 2966 2967 2970
4956 6 2966 2967 2971
4957 6 2964 2961 2966
4958 6 2965 2961 2966
4959 6 2967 2966 2968
4960 6 2967 2966 2969
4961 6 2967 2972 2974
4962 6 2967 2972 2975
4963 6 2972 2973 2976
4964 6 2972 2973 2977
4965 6 2970 2967 2972
4966 6 2971 2967 2972
4967 6 2973 2972 2974
4968 6 2973 2972 2975
4969 6 2973 2978 2980
4970 6 2973 2978 2981
4971 6 2978 2979 2982
4972 6 2978 2979 2983
4973 6 2976 2973 2978
4974 6 2977 2973 2978
4975 6 2979 2978 2980
4976 6 2979 2978 2981
4977 6 2979 2984 2986
4978 6 2979 2984 2987
4979 6 2984 2985 2988
4980 6 2984 2985 2989
4981 6 2982 2979 2984
4982 6 2983 2979 2984
4983 6 2985 2984 2986
4984 6 2985 2984 2987
4985 6 2985 2990 2992
4986 6 2985 2990 2993
4987 6 2990 2991 2994
4988 6 2990 2991 2995
4989 6 2988 2985 2990
4990 6 2989 2985 2990
4991 6 2991 2990 2992
4992 6 2991 2990 2993
4993 6 2991 2996 2998
4994 6 2991 2996 2999
4995 6 2996 2997 3000
4996 6 2996 2997 3001
4997 6 2994 2991 2996
4998 6 2995 2991 2996
4999 6 2997 2996 2998
5000 6 2997 2996 2999
5001 6 2997 3002 3004
5002 6 2997 3002 3005
5003 6 3002 3003 3006
5004 6 3002 3003 3007
5005 6 3000 2997 3002
5006 6 3001 2997 3002
5007 6 3003 3002 3004
5008 6 3003 3002 3005
5009 6 3003 3008 3010
5010 6 3003 3008 3011
5011 6 3008 3009 3012
5012 6 3008 3009 3013
5013 6 3006 3003 3008
5014 6 3007 3003 3008
5015 6 3009 3008 3010
5016 6 3009 3008 3011
5017 6 3009 3014 3016
5018 6 3009 3014 3017
5019 6 3012 3009 3014
5020 6 3013 3009 3014

Dihedrals

1 3 3 1 2 6
2 3 4 1 2 6
3 3 5 1 2 6
4 3 3 1 2 7
5 3 4 1 2 7
6 3 5 1 2 7
7 3 298 296 297 300
8 3 298 296 297 301
9 3 298 296 297 302
10 3 299 296 297 300
11 3 299 296 297 301
12 3 299 296 297 302
13 3 305 303 304 308
14 3 306 303 304 308
15 3 307 303 304 308
16 3 305 303 304 309
17 3 306 303 304 309
18 3 307 303 304 309
19 3 600 598 599 602
20 3 600 598 599 603
21 3 600 598 599 604
22 3 601 598 599 602
23 3 601 598 599 603
24 3 601 598 599 604
25 3 607 605 606 610
26 3 608 605 606 610
27 3 609 605 606 610
28 3 607 605 606 611
29 3 608 605 606 611
30 3 609 605 606 611
31 3 902 900 901 904
32 3 902 900 901 905
33 3 902 900 901 906
34 3 903 900 901 904
35 3 903 900 901 905
36 3 903 900 901 906
37 3 909 907 908 912
38 3 910 907 908 912
39 3 911 907 908 912
40 3 909 907 908 913
41 3 910 907 908 913
42 3 911 907 908 913
43 3 1204 1202 1203 1206
44 3 1204 1202 1203 1207
45 3 1204 1202 1203 1208
46 3 1205 1202 1203 1206
47 3 1205 1202 1203 1207
48 3 1205 1202 1203 1208
49 3 1211 1209 1210 1214
50 3 1212 1209 1210 1214
51 3 1213 1209 1210 1214
52 3 1211 1209 1210 1215
53 3 1212 1209 1210 1215
54 3 1213 1209 1210 1215
55 3 1506 1504 1505 1508
56 3 1506 1504 1505 1509
57 3 1506 1504 1505 1510
58 3 1507 1504 1505 1508
59 3 1507 1504 1505 1509
60 3 1507 1504 1505 1510
61 3 1513 1511 1512 1516
62 3 1514 1511 1512 1516
63 3 1515 1511 1512 1516
64 3 1513 1511 1512 1517
65 3 1514 1511 1512 1517
66 3 1515 1511 1512 1517
67 3 1808 1806 1807 1810
68 3 1808 1806 1807 1811
69 3 1808 1806 1807 1812
70 3 1809 1806 1807 1810
71 3 1809 1806 1807 1811
72 3 1809 1806 1807 1812
73 3 1815 1813 1814 1818
74 3 1816 1813 1814 1818
75 3 1817 1813 1814 1818
76 3 1815 1813 1814 1819
77 3 1816 1813 1814 1819
78 3 1817 1813 1814 1819
79 3 2110 2108 2109 2112
80 3 2110 2108 2109 2113
81 3 2110 2108 2109 2114
82 3 2111 2108 2109 2112
83 3 2111 2108 2109 2113
84 3 2111 2108 2109 2114
85 3 2117 2115 2116 2120
86 3 2118 2115 2116 2120
87 3 2119 2115 2116 2120
88 3 2117 2115 2116 2121
89 3 2118 2115 2116 2121
90 3 2119 2115 2116 2121
91 3 2412 2410 2411 2414
92 3 2412 2410 2411 2415
93 3 2412 2410 2411 2416
94 3 2413 2410 2411 2414
95 3 2413 2410 2411 2415
96 3 2413 2410 2411 2416
97 3 2419 2417 2418 2422
98 3 2420 2417 2418 2422
99 3 2421 2417 2418 2422
100 3 2419 2417 2418 2423
101 3 2420 2417 2418 2423
102 3 2421 2417 2418 2423
103 3 2714 2712 2713 2716
104 3 2714 2712 2713 2717
105 3 2714 2712 2713 2718
106 3 2715 2712 2713 2716
107 3 2715 2712 2713 2717
108 3 2715 2712 2713 2718
109 3 2721 2719 2720 2724
110 3 2722 2719 2720 2724
111 3 2723 2719 2720 2724
112 3 2721 2719 2720 2725
113 3 2722 2719 2720 2725
114 3 2723 2719 2720 2725
115 3 3016 3014 3015 3018
116 3 3016 3014 3015 3019
117 3 3016 3014 3015 3020
118 3 3017 3014 3015 3018
119 3 3017 3014 3015 3019
120 3 3017 3014 3015 3020
121 4 6 2 8 10
122 4 6 2 8 11
123 4 7 2 8 10
124 4 7 2 8 11
125 4 10 8 9 12
126 4 10 8 9 13
127 4 11 8 9 12
128 4 11 8 9 13
129 4 12 9 14 16
130 4 12 9 14 17
131 4 13 9 14 16
132 4 13 9 14 17
133 4 16 14 15 18
134 4 16 14 15 19
135 4 17 14 15 18
136 4 17 14 15 19
137 4 18 15 20 22
138 4 18 15 20 23
139 4 19 15 20 22
140 4 19 15 20 23
141 4 22 20 21 24
142 4 22 20 21 25
143 4 23 20 21 24
144 4 23 20 21 25
145 4 24 21 26 28
146 4 24 21 26 29
147 4 25 21 26 28
148 4 25 21 26 29
149 4 28 26 27 30
150 4 28 26 27 31
151 4 29 26 27 30
152 4 29 26 27 31
153 4 30 27 32 34
154 4 30 27 32 35
155 4 31 27 32 34
156 4 31 27 32 35
157 4 34 32 33 36
158 4 34 32 33 37
159 4 35 32 33 36
160 4 35 32 33 37
161 4 36 33 38 40
162 4 36 33 38 41
163 4 37 33 38 40
164 4 37 33 38 41
165 4 40 38 39 42
166 4 40 38 39 43
167 4 41 38 39 42
168 4 41 38 39 43
169 4 42 39 44 46
170 4 42 39 44 47
171 4 43 39 44 46
172 4 43 39 44 47
173 4 46 44 45 48
174 4 46 44 45 49
175 4 47 44 45 48
176 4 47 44 45 49
177 4 48 45 50 52
178 4 48 45 50 53
179 4 49 45 50 52
180 4 49 45 50 53
181 4 52 50 51 54
182 4 52 50 51 55
183 4 53 50 51 54
184 4 53 50 51 55
185 4 54 51 56 58
186 4 54 51 56 59
187 4 55 51 56 58
188 4 55 51 56 59
189 4 58 56 57 60
190 4 58 56 57 61
191 4 59 56 57 60
192 4 59 56 57 61
193 4 60 57 62 64
194 4 60 57 62 65
195 4 61 57 62 64
196 4 61 57 62 65
197 4 64 62 63 66
198 4 64 62 63 67
199 4 65 62 63 66
200 4 65 62 63 67
201 4 66 63 68 70
202 4 66 63 68 71
203 4 67 63 68 70
204 4 67 63 68 71
205 4 70 68 69 72
206 4 70 68 69 73
207 4 71 68 69 72
208 4 71 68 69 73
209 4 72 69 74 76
210 4 72 69 74 77
211 4 73 69 74 76
212 4 73 69 74 77
213 4 76 74 75 78
214 4 76 74 75 79
215 4 77 74 75 78
216 4 77 74 75 79
217 4 78 75 80 82
218 4 78 75 80 83
219 4 79 75 80 82
220 4 79 75 80 83
221 4 82 80 81 84
222 4 82 80 81 85
223 4 83 80 81 84
224 4 83 80 81 85
225 4 84 81 86 88
226 4 84 81 86 89
227 4 85 81 86 88
228 4 85 81 86 89
229 4 88 86 87 90
230 4 88 86 87 91
231 4 89 86 87 90
232 4 89 86 87 91
233 4 90 87 92 94
234 4 90 87 92 95
235 4 91 87 92 94
236 4 91 87 92 95
237 4 94 92 93 96
238 4 94 92 93 97
239 4 95 92 93 96
240 4 95 92 93 97
241 4 96 93 98 100
242 4 96 93 98 101
243 4 97 93 98 100
244 4 97 93 98 101
245 4 100 98 99 102
246 4 100 98 99 103
247 4 101 98 99 102
248 4 101 98 99 103
249 4 102 99 104 106
250 4 102 99 104 107
251 4 103 99 104 106
252 4 103 99 104 107
253 4 106 104 105 108
254 4 106 104 105 109
255 4 107 104 105 108
256 4 107 104 105 109
257 4 108 105 110 112
258 4 108 105 110 113
259 4 109 105 110 112
260 4 109 105 110 113
261 4 112 110 111 114
262 4 112 110 111 115
263 4 113 110 111 114
264 4 113 110 111 115
265 4 114 111 116 118
266 4 114 111 116 119
267 4 115 111 116 118
268 4 115 111 116 119
269 4 118 116 117 120
270 4 118 116 117 121
271 4 119 116 117 120
272 4 119 116 117 121
273 4 120 117 122 124
274 4 120 117 122 125
275 4 121 117 122 124
276 4 121 117 122 125
277 4 124 122 123 126
278 4 124 122 123 127
279 4 125 122 123 126
280 4 125 122 123 127
281 4 126 123 128 130
282 4 126 123 128 131
283 4 127 123 128 130
284 4 127 123 128 131
285 4 130 128 129 132
286 4 130 128 129 133
287 4 131 128 129 132
288 4 131 128 129 133
289 4 132 129 134 136
290 4 132 129 134 137
291 4 133 129 134 136
292 4 133 129 134 137
293 4 136 134 135 138
294 4 136 134 135 139
295 4 137 134 135 138
296 4 137 134 135 139
297 4 138 135 140 142
298 4 138 135 140 143
299 4 139 135 140 142
300 4 139 135 140 143
301 4 142 140 141 144
302 4 142 140 141 145
303 4 143 140 141 144
304 4 143 140 141 145
305 4 144 141 146 148
306 4 144 141 146 149
307 4 145 141 146 148
308 4 145 141 146 149
309 4 148 146 147 150
310 4 148 146 147 151
311 4 149 146 147 150
312 4 149 146 147 151
313 4 150 147 152 154
314 4 150 147 152 155
315 4 151 147 152 154
316 4 151 147 152 155
317 4 154 152 153 156
318 4 154 152 153 157
319 4 155 152 153 156
320 4 155 152 153 157
321 4 156 153 158 160
322 4 156 153 158 161
323 4 157 153 158 160
324 4 157 153 158 161
325 4 160 158 159 162
326 4 160 158 159 163
327 4 161 158 159 162
328 4 161 158 159 163
329 4 162 159 164 166
330 4 162 159 164 167
331 4 163 159 164 166
332 4 163 159 164 167
333 4 166 164 165 168
334 4 166 164 165 169
335 4 167 164 165 168
336 4 167 164 165 169
337 4 168 165 170 172
338 4 168 165 170 173
339 4 169 165 170 172
340 4 169 165 170 173
341 4 172 170 171 174
342 4 172 170 171 175
343 4 173 170 171 174
344 4 173 170 171 175
345 4 174 171 176 178
346 4 174 171 176 179
347 4 175 171 176 178
348 4 175 171 176 179
349 4 178 176 177 180
350 4 178 176 177 181
351 4 179 176 177 180
352 4 179 176 177 181
353 4 180 177 182 184
354 4 180 177 182 185
355 4 181 177 182 184
356 4 181 177 182 185
357 4 184 182 183 186
358 4 184 182 183 187
359 4 185 182 183 186
360 4 185 182 183 187
361 4 186 183 188 190
362 4 186 183 188 191
363 4 187 183 188 190
364 4 187 183 188 191
365 4 190 188 189 192
366 4 190 188 189 193
367 4 191 188 189 192
368 4 191 188 189 193
369 4 192 189 194 196
370 4 192 189 194 197
371 4 193 189 194 196
372 4 193 189 194 197
373 4 196 194 195 198
374 4 196 194 195 199
375 4 197 194 195 198
376 4 197 194 195 199
377 4 198 195 200 202
378 4 198 195 200 203
379 4 199 195 200 202
380 4 199 195 200 203
381 4 202 200 201 204
382 4 202 200 201 205
383 4 203 200 201 204
384 4 203 200 201 205
385 4 204 201 206 208
386 4 204 201 206 209
387 4 205 201 206 208
388 4 205 201 206 209
389 4 208 206 207 210
390 4 208 206 207 211
391 4 209 206 207 210
392 4 209 206 207 211
393 4 210 207 212 214
394 4 210 207 212 215
395 4 211 207 212 214
396 4 211 207 212 215
397 4 214 212 213 216
398 4 214 212 213 217
399 4 215 212 213 216
400 4 215 212 213 217
401 4 216 213 218 220
402 4 216 213 218 221
403 4 217 213 218 220
404 4 217 213 218 221
405 4 220 218 219 222
406 4 220 218 219 223
407 4 221 218 219 222
408 4 221 218 219 223
409 4 222 219 224 226
410 4 222 219 224 227
411 4 223 219 224 226
412 4 223 219 224 227
413 4 226 224 225 228
414 4 226 224 225 229
415 4 227 224 225 228
416 4 227 224 225 229
417 4 228 225 230 232
418 4 228 225 230 233
419 4 229 225 230 232
420 4 229 225 230 233
421 4 232 230 231 234
422 4 232 230 231 235
423 4 233 230 231 234
424 4 233 230 231 235
425 4 234 231 236 238
426 4 234 231 236 239
427 4 235 231 236 238
428 4 235 231 236 239
429 4 238 236 237 240
430 4 238 236 237 241
431 4 239 236 237 240
432 4 239 236 237 241
433 4 240 237 242 244
434 4 240 237 242 245
435 4 241 237 242 244
436 4 241 237 242 245
437 4 244 242 243 246
438 4 244 242 243 247
439 4 245 242 243 246
440 4 245 242 243 247
441 4 246 243 248 250
442 4 246 243 248 251
443 4 247 243 248 250
444 4 247 243 248 251
445 4 250 248 249 252
446 4 250 248 249 253
447 4 251 248 249 252
448 4 251 248 249 253
449 4 252 249 254 256
450 4 252 249 254 257
451 4 253 249 254 256
452 4 253 249 254 257
453 4 256 254 255 258
454 4 256 254 255 259
455 4 257 254 255 258
456 4 257 254 255 259
457 4 258 255 260 262
458 4 258 255 260 263
459 4 259 255 260 262
460 4 259 255 260 263
461 4 262 260 261 264
462 4 262 260 261 265
463 4 263 260 261 264
464 4 263 260 261 265
465 4 264 261 266 268
466 4 264 261 266 269
467 4 265 261 266 268
468 4 265 261 266 269
469 4 268 266 267 270
470 4 268 266 267 271
471 4 269 266 267 270
472 4 269 266 267 271
473 4 270 267 272 274
474 4 270 267 272 275
475 4 271 267 272 274
476 4 271 267 272 275
477 4 274 272 273 276
478 4 274 272 273 277
479 4 275 272 273 276
480 4 275 272 273 277
481 4 276 273 278 280
482 4 276 273 278 281
483 4 277 273 278 280
484 4 277 273 278 281
485 4 280 278 279 282
486 4 280 278 279 283
487 4 281 278 279 282
488 4 281 278 279 283
489 4 282 279 284 286
490 4 282 279 284 287
491 4 283 279 284 286
492 4 283 279 284 287
493 4 286 284 285 288
494 4 286 284 285 289
495 4 287 284 285 288
496 4 287 284 285 289
497 4 288 285 290 292
498 4 288 285 290 293
499 4 289 285 290 292
500 4 289 285 290 293
501 4 292 290 291 294
502 4 292 290 291 295
503 4 293 290 291 294
504 4 293 290 291 295
505 4 294 291 296 298
506 4 294 291 296 299
507 4 295 291 296 298
508 4 295 291 296 299
509 4 308 304 310 312
510 4 308 304 310 313
511 4 309 304 310 312
512 4 309 304 310 313
513 4 312 310 311 314
514 4 312 310 311 315
515 4 313 310 311 314
516 4 313 310 311 315
517 4 314 311 316 318
518 4 314 311 316 319
519 4 315 311 316 318
520 4 315 311 316 319
521 4 318 316 317 320
522 4 318 316 317 321
523 4 319 316 317 320
524 4 319 316 317 321
525 4 320 317 322 324
526 4 320 317 322 325
527 4 321 317 322 324
528 4 321 317 322 325
529 4 324 322 323 326
530 4 324 322 323 327
531 4 325 322 323 326
532 4 325 322 323 327
533 4 326 323 328 330
534 4 326 323 328 331
535 4 327 323 328 330
536 4 327 323 328 331
537 4 330 328 329 332
538 4 330 328 329 333
539 4 331 328 329 332
540 4 331 328 329 333
541 4 332 329 334 336
542 4 332 329 334 337
543 4 333 329 334 336
544 4 333 329 334 337
545 4 336 334 335 338
546 4 336 334 335 339
547 4 337 334 335 338
548 4 337 334 335 339
549 4 338 335 340 342
550 4 338 335 340 343
551 4 339 335 340 342
552 4 339 335 340 343
553 4 342 340 341 344
554 4 342 340 341 345
555 4 343 340 341 344
556 4 343 340 341 345
557 4 344 341 346 348
558 4 344 341 346 349
559 4 345 341 346 348
560 4 345 341 346 349
561 4 348 346 347 350
562 4 348 346 347 351
563 4 349 346 347 350
564 4 349 346 347 351
565 4 350 347 352 354
566 4 350 347 352 355
567 4 351 347 352 354
568 4 351 347 352 355
569 4 354 352 353 356
570 4 354 352 353 357
571 4 355 352 353 356
572 4 355 352 353 357
573 4 356 353 358 360
574 4 356 353 358 361
575 4 357 353 358 360
576 4 357 353 358 361
577 4 360 358 359 362
578 4 360 358 359 363
579 4 361 358 359 362
580 4 361 358 359 363
581 4 362 359 364 366
582 4 362 359 364 367
583 4 363 359 364 366
584 4 363 359 364 367
585 4 366 364 365 368
586 4 366 364 365 369
587 4 367 364 365 368
588 4 367 364 365 369
589 4 368 365 370 372
590 4 368 365 370 373
591 4 369 365 370 372
592 4 369 365 370 373
593 4 372 370 371 374
594 4 372 370 371 375
595 4 373 370 371 374
596 4 373 370 371 375
597 4 374 371 376 378
598 4 374 371 376 379
599 4 375 371 376 378
600 4 375 371 376 379
601 4 378 376 377 380
602 4 378 376 377 381
603 4 379 376 377 380
604 4 379 376 377 381
605 4 380 377 382 384
606 4 380 377 382 385
607 4 381 377 382 384
608 4 381 377 382 385
609 4 384 382 383 386
610 4 384 382 383 387
611 4 385 382 383 386
612 4 385 382 383 387
613 4 386 383 388 390
614 4 386 383 388 391
615 4 387 383 388 390
616 4 387 383 388 391
617 4 390 388 389 392
618 4 390 388 389 393
619 4 391 388 389 392
620 4 391 388 389 393
621 4 392 389 394 396
622 4 392 389 394 397
623 4 393 389 394 396
624 4 393 389 394 397
625 4 396 394 395 398
626 4 396 394 395 399
627 4 397 394 395 398
628 4 397 394 395 399
629 4 398 395 400 402
630 4 398 395 400 403
631 4 399 395 400 402
632 4 399 395 400 403
633 4 402 400 401 404
634 4 402 400 401 405
635 4 403 400 401 404
636 4 403 400 401 405
637 4 404 401 406 408
638 4 404 401 406 409
639 4 405 401 406 408
640 4 405 401 406 409
641 4 408 406 407 410
642 4 408 406 407 411
643 4 409 406 407 410
644 4 409 406 407 411
645 4 410 407 412 414
646 4 410 407 412 415
647 4 411 407 412 414
648 4 411 407 412 415
649 4 414 412 413 416
650 4 414 412 413 417
651 4 415 412 413 416
652 4 415 412 413 417
653 4 416 413 418 420
654 4 416 413 418 421
655 4 417 413 418 420
656 4 417 413 418 421
657 4 420 418 419 422
658 4 420 418 419 423
659 4 421 418 419 422
660 4 421 418 419 423
661 4 422 419 424 426
662 4 422 419 424 427
663 4 423 419 424 426
664 4 423 419 424 427
665 4 426 424 425 428
666 4 426 424 425 429
667 4 427 424 425 428
668 4 427 424 425 429
669 4 428 425 430 432
670 4 428 425 430 433
671 4 429 425 430 432
672 4 429 425 430 433
673 4 432 430 431 434
674 4 432 430 431 435
675 4 433 430 431 434
676 4 433 430 431 435
677 4 434 431 436 438
678 4 434 431 436 439
679 4 435 431 436 438
680 4 435 431 436 439
681 4 438 436 437 440
682 4 438 436 437 441
683 4 439 436 437 440
684 4 439 436 437 441
685 4 440 437 442 444
686 4 440 437 442 445
687 4 441 437 442 444
688 4 441 437 442 445
689 4 444 442 443 446
690 4 444 442 443 447
691 4 445 442 443 446
692 4 445 442 443 447
693 4 446 443 448 450
694 4 446 443 448 451
695 4 447 443 448 450
696 4 447 443 448 451
697 4 450 448 449 452
698 4 450 448 449 453
699 4 451 448 449 452
700 4 451 448 449 453
701 4 452 449 454 456
702 4 452 449 454 457
703 4 453 449 454 456
704 4 453 449 454 457
705 4 456 454 455 458
706 4 456 454 455 459
707 4 457 454 455 458
708 4 457 454 455 459
709 4 458 455 460 462
710 4 458 455 460 463
711 4 459 455 460 462
712 4 459 455 460 463
713 4 462 460 461 464
714 4 462 460 461 465
715 4 463 460 461 464
716 4 463 460 461 465
717 4 464 461 466 468
718 4 464 461 466 469
719 4 465 461 466 468
720 4 465 461 466 469
721 4 468 466 467 470
722 4 468 466 467 471
723 4 469 466 467 470
724 4 469 466 467 471
725 4 470 467 472 474
726 4 470 467 472 475
727 4 471 467 472 474
728 4 471 467 472 475
729 4 474 472 473 476
730 4 474 472 473 477
731 4 475 472 473 476
732 4 475 472 473 477
733 4 476 473 478 480
734 4 476 473 478 481
735 4 477 473 478 480
736 4 477 473 478 481
737 4 480 478 479 482
738 4 480 478 479 483
739 4 481 478 479 482
740 4 481 478 479 483
741 4 482 479 484 486
742 4 482 479 484 487
743 4 483 479 484 486
744 4 483 479 484 487
745 4 486 484 485 488
746 4 486 484 485 489
747 4 487 484 485 488
748 4 487 484 485 489
749 4 488 485 490 492
750 4 488 485 490 493
751 4 489 485 490 492
752 4 489 485 490 493
753 4 492 490 491 494
754 4 492 490 491 495
755 4 493 490 491 494
756 4 493 490 491 495
757 4 494 491 496 498
758 4 494 491 496 499
759 4 495 491 496 498
760 4 495 491 496 499
761 4 498 496 497 500
762 4 498 496 497 501
763 4 499 496 497 500
764 4 499 496 497 501
765 4 500 497 502 504
766 4 500 497 502 505
767 4 501 497 502 504
768 4 501 497 502 505
769 4 504 502 503 506
770 4 504 502 503 507
771 4 505 502 503 506
772 4 505 502 503 507
773 4 506 503 508 510
774 4 506 503 508 511
775 4 507 503 508 510
776 4 507 503 508 511
777 4 510 508 509 512
778 4 510 508 509 513
779 4 511 508 509 512
780 4 511 508 509 513
781 4 512 509 514 516
782 4 512 509 514 517
783 4 513 509 514 516
784 4 513 509 514 517
785 4 516 514 515 518
786 4 516 514 515 519
787 4 517 514 515 518
788 4 517 514 515 519
789 4 518 515 520 522
790 4 518 515 520 523
791 4 519 515 520 522
792 4 519 515 520 523
793 4 522 520 521 524
794 4 522 520 521 525
795 4 523 520 521 524
796 4 523 520 521 525
797 4 524 521 526 528
798 4 524 521 526 529
799 4 525 521 526 528
800 4 525 521 526 529
801 4 528 526 527 530
802 4 528 526 527 531
803 4 529 526 527 530
804 4 529 526 527 531
805 4 530 527 532 534
806 4 530 527 532 535
807 4 531 527 532 534
808 4 531 527 532 535
809 4 534 532 533 536
810 4 534 532 533 537
811 4 535 532 533 536
812 4 535 532 533 537
813 4 536 533 538 540
814 4 536 533 538 541
815 4 537 533 538 540
816 4 537 533 538 541
817 4 540 538 539 542
818 4 540 538 539 543
819 4 541 538 539 542
820 4 541 538 539 543
821 4 542 539 544 546
822 4 542 539 544 547
823 4 543 539 544 546
824 4 543 539 544 547
825 4 546 544 545 548
826 4 546 544 545 549
827 4 547 544 545 548
828 4 547 544 545 549
829 4 548 545 550 552
830 4 548 545 550 553
831 4 549 545 550 552
832 4 549 545 550 553
833 4 552 550 551 554
834 4 552 550 551 555
835 4 553 550 551 554
836 4 553 550 551 555
837 4 554 551 556 558
838 4 554 551 556 559
839 4 555 551 556 558
840 4 555 551 556 559
841 4 558 556 557 560
842 4 558 556 557 561
843 4 559 556 557 560
844 4 559 556 557 561
845 4 560 557 562 564
846 4 560 557 562 565
847 4 561 557 562 564
848 4 561 557 562 565
849 4 564 562 563 566
850 4 564 562 563 567
851 4 565 562 563 566
852 4 565 562 563 567
853 4 566 563 568 570
854 4 566 563 568 571
855 4 567 563 568 570
856 4 567 563 568 571
857 4 570 568 569 572
858 4 570 568 569 573
859 4 571 568 569 572
860 4 571 568 569 573
861 4 572 569 574 576
862 4 572 569 574 577
863 4 573 569 574 576
864 4 573 569 574 577
865 4 576 574 575 578
866 4 576 574 575 579
867 4 577 574 575 578
868 4 577 574 575 579
869 4 578 575 580 582
870 4 578 575 580 583
871 4 579 575 580 582
872 4 579 575 580 583
873 4 582 580 581 584
874 4 582 580 581 585
875 4 583 580 581 584
876 4 583 580 581 585
877 4 584 581 586 588
878 4 584 581 586 589
879 4 585 581 586 588
880 4 585 581 586 589
881 4 588 586 587 590
882 4 588 586 587 591
883 4 589 586 587 590
884 4 589 586 587 591
885 4 590 587 592 594
886 4 590 587 592 595
887 4 591 587 592 594
888 4 591 587 592 595
889 4 594 592 593 596
890 4 594 592 593 597
891 4 595 592 593 596
892 4 595 592 593 597
893 4 596 593 598 600
894 4 596 593 598 601
895 4 597 593 598 600
896 4 597 593 598 601
897 4 610 606 612 614
898 4 610 606 612 615
899 4 611 606 612 614
900 4 611 606 612 615
901 4 614 612 613 616
902 4 614 612 613 617
903 4 615 612 613 616
904 4 615 612 613 617
905 4 616 613 618 620
906 4 616 613 618 621
907 4 617 613 618 620
908 4 617 613 618 621
909 4 620 618 619 622
910 4 620 618 619 623
911 4 621 618 619 622
912 4 621 618 619 623
913 4 622 619 624 626
914 4 622 619 624 627
915 4 623 619 624 626
916 4 623 619 624 627
917 4 626 624 625 628
918 4 626 624 625 629
919 4 627 624 625 628
920 4 627 624 625 629
921 4 628 625 630 632
922 4 628 625 630 633
923 4 629 625 630 632
924 4 629 625 630 633
925 4 632 630 631 634
926 4 632 630 631 635
927 4 633 630 631 634
928 4 633 630 631 635
929 4 634 631 636 638
930 4 634 631 636 639
931 4 635 631 636 638
932 4 635 631 636 639
933 4 638 636 637 640
934 4 638 636 637 641
935 4 639 636 637 640
936 4 639 636 637 641
937 4 640 637 642 644
938 4 640 637 642 645
939 4 641 637 642 644
940 4 641 637 642 645
941 4 644 642 643 646
942 4 644 642 643 647
943 4 645 642 643 646
944 4 645 642 643 647
945 4 646 643 648 650
946 4 646 643 648 651
947 4 647 643 648 650
948 4 647 643 648 651
949 4 650 648 649 652
950 4 650 648 649 653
951 4 651 648 649 652
952 4 651 648 649 653
953 4 652 649 654 656
954 4 652 649 654 657
955 4 653 649 654 656
956 4 653 649 654 657
957 4 656 654 655 658
958 4 656 654 655 659
959 4 657 654 655 658
960 4 657 654 655 659
961 4 658 655 660 662
962 4 658 655 660 663
963 4 659 655 660 662
964 4 659 655 660 663
965 4 662 660 661 664
966 4 662 660 661 665
967 4 663 660 661 664
968 4 663 660 661 665
969 4 664 661 666 668
970 4 664 661 666 669
971 4 665 661 666 668
972 4 665 661 666 669
973 4 668 666 667 670
974 4 668 666 667 671
975 4 669 666 667 670
976 4 669 666 667 671
977 4 670 667 672 674
978 4 670 667 672 675
979 4 671 667 672 674
980 4 671 667 672 675
981 4 674 672 673 676
982 4 674 672 673 677
983 4 675 672 673 676
984 4 675 672 673 677
985 4 676 673 678 680
986 4 676 673 678 681
987 4 677 673 678 680
988 4 677 673 678 681
989 4 680 678 679 682
990 4 680 678 679 683
991 4 681 678 679 682
992 4 681 678 679 683
993 4 682 679 684 686
994 4 682 679 684 687
995 4 683 679 684 686
996 4 683 679 684 687
997 4 686 684 685 688
998 4 686 684 685 689
999 4 687 684 685 688
1000 4 687 684 685 689
1001 4 688 685 690 692
1002 4 688 685 690 693
1003 4 689 685 690 692
1004 4 689 685 690 693
1005 4 692 690 691 694
1006 4 692 690 691 695
1007 4 693 690 691 694
1008 4 693 690 691 695
1009 4 694 691 696 698
1010 4 694 691 696 699
1011 4 695 691 696 698
1012 4 695 691 696 699
1013 4 698 696 697 700
1014 4 698 696 697 701
1015 4 699 696 697 700
1016 4 699 696 697 701
1017 4 700 697 702 704
1018 4 700 697 702 705
1019 4 701 697 702 704
1020 4 701 697 702 705
1021 4 704 702 703 706
1022 4 704 702 703 707
1023 4 705 702 703 706
1024 4 705 702 703 707
1025 4 706 703 708 710
1026 4 706 703 708 711
1027 4 707 703 708 710
1028 4 707 703 708 711
1029 4 710 708 709 712
1030 4 710 708 709 713
1031 4 711 708 709 712
1032 4 711 708 709 713
1033 4 712 709 714 716
1034 4 712 709 714 717
1035 4 713 709 714 716
1036 4 713 709 714 717
1037 4 716 714 715 718
1038 4 716 714 715 719
1039 4 717 714 715 718
1040 4 717 714 715 719
1041 4 718 715 720 722
1042 4 718 715 720 723
1043 4 719 715 720 722
1044 4 719 715 720 723
1045 4 722 720 721 724
1046 4 722 720 721 725
1047 4 723 720 721 724
1048 4 723 720 721 725
1049 4 724 721 726 728
1050 4 724 721 726 729
1051 4 725 721 726 728
1052 4 725 721 726 729
1053 4 728 726 727 730
1054 4 728 726 727 731
1055 4 729 726 727 730
1056 4 729 726 727 731
1057 4 730 727 732 734
1058 4 730 727 732 735
1059 4 731 727 732 734
1060 4 731 727 732 735
1061 4 734 732 733 736
1062 4 734 732 733 737
1063 4 735 732 733 736
1064 4 735 732 733 737
1065 4 736 733 738 740
1066 4 736 733 738 741
1067 4 737 733 738 740
1068 4 737 733 738 741
1069 4 740 738 739 742
1070 4 740 738 739 743
1071 4 741 738 739 742
1072 4 741 738 739 743
1073 4 742 739 744 746
1074 4 742 739 744 747
1075 4 743 739 744 746
1076 4 743 739 744 747
1077 4 746 744 745 748
1078 4 746 744 745 749
1079 4 747 744 745 748
1080 4 747 744 745 749
1081 4 748 745 750 752
1082 4 748 745 750 753
1083 4 749 745 750 752
1084 4 749 745 750 753
1085 4 752 750 751 754
1086 4 752 750 751 755
1087 4 753 750 751 754
1088 4 753 750 751 755
1089 4 754 751 756 758
1090 4 754 751 756 759
1091 4 755 751 756 758
1092 4 755 751 756 759
1093 4 758 756 757 760
1094 4 758 756 757 761
1095 4 759 756 757 760
1096 4 759 756 757 761
1097 4 760 757 762 764
1098 4 760 757 762 765
1099 4 761 757 762 764
1100 4 761 757 762 765
1101 4 764 762 763 766
1102 4 764 762 763 767
1103 4 765 762 763 766
1104 4 765 762 763 767
1105 4 766 763 768 770
1106 4 766 763 768 771
1107 4 767 763 768 770
1108 4 767 763 768 771
1109 4 770 768 769 772
1110 4 770 768 769 773
1111 4 771 768 769 772
1112 4 771 768 769 773
1113 4 772 769 774 776
1114 4 772 769 774 777
1115 4 773 769 774 776
1116 4 773 769 774 777
1117 4 776 774 775 778
1118 4 776 774 775 779
1119 4 777 774 775 778
1120 4 777 774 775 779
1121 4 778 775 780 782
1122 4 778 775 780 783
1123 4 779 775 780 782
1124 4 779 775 780 783
1125 4 782 780 781 784
1126 4 782 780 781 785
1127 4 783 780 781 784
1128 4 783 780 781 785
1129 4 784 781 786 788
1130 4 784 781 786 789
1131 4 785 781 786 788
1132 4 785 781 786 789
1133 4 788 786 787 790
1134 4 788 786 787 791
1135 4 789 786 787 790
1136 4 789 786 787 791
1137 4 790 787 792 794
1138 4 790 787 792 795
1139 4 791 787 792 794
1140 4 791 787 792 795
1141 4 794 792 793 796
1142 4 794 792 793 797
1143 4 795 792 793 796
1144 4 795 792 793 797
1145 4 796 793 798 800
1146 4 796 793 798 801
1147 4 797 793 798 800
1148 4 797 793 798 801
1149 4 800 798 799 802
1150 4 800 798 799 803
1151 4 801 798 799 802
1152 4 801 798 799 803
1153 4 802 799 804 806
1154 4 802 799 804 807
1155 4 803 799 804 806
1156 4 803 799 804 807
1157 4 806 804 805 808
1158 4 806 804 805 809
1159 4 807 804 805 808
1160 4 807 804 805 809
1161 4 808 805 810 812
1162 4 808 805 810 813
1163 4 809 805 810 812
1164 4 809 805 810 813
1165 4 812 810 811 814
1166 4 812 810 811 815
1167 4 813 810 811 814
1168 4 813 810 811 815
1169 4 814 811 816 818
1170 4 814 811 816 819
1171 4 815 811 816 818
1172 4 815 811 816 819
1173 4 818 816 817 820
1174 4 818 816 817 821
1175 4 819 816 817 820
1176 4 819 816 817 821
1177 4 820 817 822 824
1178 4 820 817 822 825
1179 4 821 817 822 824
1180 4 821 817 822 825
1181 4 824 822 823 826
1182 4 824 822 823 827
1183 4 825 822 823 826
1184 4 825 822 823 827
1185 4 826 823 828 830
1186 4 826 823 828 831
1187 4 827 823 828 830
1188 4 827 823 828 831
1189 4 830 828 829 832
1190 4 830 828 829 833
1191 4 831 828 829 832
1192 4 831 828 829 833
1193 4 832 829 834 836
1194 4 832 829 834 837
1195 4 833 829 834 836
1196 4 833 829 834 837
1197 4 836 834 835 838
1198 4 836 834 835 839
1199 4 837 834 835 838
1200 4 837 834 835 839
1201 4 838 835 840 842
1202 4 838 835 840 843
1203 4 839 835 840 842
1204 4 839 835 840 843
1205 4 842 840 841 844
1206 4 842 840 841 845
1207 4 843 840 841 844
1208 4 843 840 841 845
1209 4 844 841 846 848
1210 4 844 841 846 849
1211 4 845 841 846 848
1212 4 845 841 846 849
1213 4 848 846 847 850
1214 4 848 846 847 851
1215 4 849 846 847 850
1216 4 849 846 847 851
1217 4 850 847 852 854
1218 4 850 847 852 855
1219 4 851 847 852 854
1220 4 851 847 852 855
1221 4 854 852 853 856
1222 4 854 852 853 857
1223 4 855 852 853 856
1224 4 855 852 853 857
1225 4 856 853 858 860
1226 4 856 853 858 861
1227 4 857 853 858 860
1228 4 857 853 858 861
1229 4 860 858 859 862
1230 4 860 858 859 863
1231 4 861 858 859 862
1232 4 861 858 859 863
1233 4 862 859 864 866
1234 4 862 859 864 867
1235 4 863 859 864 866
1236 4 863 859 864 867
1237 4 866 864 865 868
1238 4 866 864 865 869
1239 4 867 864 865 868
1240 4 867 864 865 869
1241 4 868 865 870 872
1242 4 868 865 870 873
1243 4 869 865 870 872
1244 4 869 865 870 873
1245 4 872 870 871 874
1246 4 872 870 871 875
1247 4 873 870 871 874
1248 4 873 870 871 875
1249 4 874 871 876 878
1250 4 874 871 876 879
1251 4 875 871 876 878
1252 4 875 871 876 879
1253 4 878 876 877 880
1254 4 878 876 877 881
1255 4 879 876 877 880
1256 4 879 876 877 881
1257 4 880 877 882 884
1258 4 880 877 882 885
1259 4 881 877 882 884
1260 4 881 877 882 885
1261 4 884 882 883 886
1262 4 884 882 883 887
1263 4 885 882 883 886
1264 4 885 882 883 887
1265 4 886 883 888 890
1266 4 886 883 888 891
1267 4 887 883 888 890
1268 4 887 883 888 891
1269 4 890 888 889 892
1270 4 890 888 889 893
1271 4 891 888 889 892
1272 4 891 888 889 893
1273 4 892 889 894 896
1274 4 892 889 894 897
1275 4 893 889 894 896
1276 4 893 889 894 897
1277 4 896 894 895 898
1278 4 896 894 895 899
1279 4 897 894 895 898
1280 4 897 894 895 899
1281 4 898 895 900 902
1282 4 898 895 900 903
1283 4 899 895 900 902
1284 4 899 895 900 903
1285 4 912 908 914 916
1286 4 912 908 914 917
1287 4 913 908 914 916
1288 4 913 908 914 917
1289 4 916 914 915 918
1290 4 916 914 915 919
1291 4 917 914 915 918
1292 4 917 914 915 919
1293 4 918 915 920 922
1294 4 918 915 920 923
1295 4 919 915 920 922
1296 4 919 915 920 923
1297 4 922 920 921 924
1298 4 922 920 921 925
1299 4 923 920 921 924
1300 4 923 920 921 925
1301 4 924 921 926 928
1302 4 924 921 926 929
1303 4 925 921 926 928
1304 4 925 921 926 929
1305 4 928 926 927 930
1306 4 928 926 927 931
1307 4 929 926 927 930
1308 4 929 926 927 931
1309 4 930 927 932 934
1310 4 930 927 932 935
1311 4 931 927 932 934
1312 4 931 927 932 935
1313 4 934 932 933 936
1314 4 934 932 933 937
1315 4 935 932 933 936
1316 4 935 932 933 937
1317 4 936 933 938 940
1318 4 936 933 938 941
1319 4 937 933 938 940
1320 4 937 933 938 941
1321 4 940 938 939 942
1322 4 940 938 939 943
1323 4 941 938 939 942
1324 4 941 938 939 943
1325 4 942 939 944 946
1326 4 942 939 944 947
1327 4 943 939 944 946
1328 4 943 939 944 947
1329 4 946 944 945 948
1330 4 946 944 945 949
1331 4 947 944 945 948
1332 4 947 944 945 949
1333 4 948 945 950 952
1334 4 948 945 950 953
1335 4 949 945 950 952
1336 4 949 945 950 953
1337 4 952 950 951 954
1338 4 952 950 951 955
1339 4 953 950 951 954
1340 4 953 950 951 955
1341 4 954 951 956 958
1342 4 954 951 956 959
1343 4 955 951 956 958
1344 4 955 951 956 959
1345 4 958 956 957 960
1346 4 958 956 957 961
1347 4 959 956 957 960
1348 4 959 956 957 961
1349 4 960 957 962 964
1350 4 960 957 962 965
1351 4 961 957 962 964
1352 4 961 957 962 965
1353 4 964 962 963 966
1354 4 964 962 963 967
1355 4 965 962 963 966
1356 4 965 962 963 967
1357 4 966 963 968 970
1358 4 966 963 968 971
1359 4 967 963 968 970
1360 4 967 963 968 971
1361 4 970 968 969 972
1362 4 970 968 969 973
1363 4 971 968 969 972
1364 4 971 968 969 973
1365 4 972 969 974 976
1366 4 972 969 974 977
1367 4 973 969 974 976
1368 4 973 969 974 977
1369 4 976 974 975 978
1370 4 976 974 975 979
1371 4 977 974 975 978
1372 4 977 974 975 979
1373 4 978 975 980 982
1374 4 978 975 980 983
1375 4 979 975 980 982
1376 4 979 975 980 983
1377 4 982 980 981 984
1378 4 982 980 981 985
1379 4 983 980 981 984
1380 4 983 980 981 985
1381 4 984 981 986 988
1382 4 984 981 986 989
1383 4 985 981 986 988
1384 4 985 981 986 989
1385 4 988 986 987 990
1386 4 988 986 987 991
1387 4 989 986 987 990
1388 4 989 986 987 991
1389 4 990 987 992 994
1390 4 990 987 992 995
1391 4 991 987 992 994
1392 4 991 987 992 995
1393 4 994 992 993 996
1394 4 994 992 993 997
1395 4 995 992 993 996
1396 4 995 992 993 997
1397 4 996 993 998 1000
1398 4 996 993 998 1001
1399 4 997 993 998 1000
1400 4 997 993 998 1001
1401 4 1000 998 999 1002
1402 4 1000 998 999 1003
1403 4 1001 998 999 1002
1404 4 1001 998 999 1003
1405 4 1002 999 1004 1006
1406 4 1002 999 1004 1007
1407 4 1003 999 1004 1006
1408 4 1003 999 1004 1007
1409 4 1006 1004 1005 1008
1410 4 1006 1004 1005 1009
1411 4 1007 1004 1005 1008
1412 4 1007 1004 1005 1009
1413 4 1008 1005 1010 1012
1414 4 1008 1005 1010 1013
1415 4 1009 1005 1010 1012
1416 4 1009 1005 1010 1013
1417 4 1012 1010 1011 1014
1418 4 1012 1010 1011 1015
1419 4 1013 1010 1011 1014
1420 4 1013 1010 1011 1015
1421 4 1014 1011 1016 1018
1422 4 1014 1011 1016 1019
1423 4 1015 1011 1016 1018
1424 4 1015 1011 1016 1019
1425 4 1018 1016 1017 1020
1426 4 1018 1016 1017 1021
1427 4 1019 1016 1017 1020
1428 4 1019 1016 1017 1021
1429 4 1020 1017 1022 1024
1430 4 1020 1017 1022 1025
1431 4 1021 1017 1022 1024
1432 4 1021 1017 1022 1025
1433 4 1024 1022 1023 1026
1434 4 1024 1022 1023 1027
1435 4 1025 1022 1023 1026
1436 4 1025 1022 1023 1027
1437 4 1026 1023 1028 1030
1438 4 1026 1023 1028 1031
1439 4 1027 1023 1028 1030
1440 4 1027 1023 1028 1031
1441 4 1030 1028 1029 1032
1442 4 1030 1028 1029 1033
1443 4 1031 1028 1029 1032
1444 4 1031 1028 1029 1033
1445 4 1032 1029 1034 1036
1446 4 1032 1029 1034 1037
1447 4 1033 1029 1034 1036
1448 4 1033 1029 1034 1037
1449 4 1036 1034 1035 1038
1450 4 1036 1034 1035 1039
1451 4 1037 1034 1035 1038
1452 4 1037 1034 1035 1039
1453 4 1038 1035 1040 1042
1454 4 1038 1035 1040 1043
1455 4 1039 1035 1040 1042
1456 4 1039 1035 1040 1043
1457 4 1042 1040 1041 1044
1458 4 1042 1040 1041 1045
1459 4 1043 1040 1041 1044
1460 4 1043 1040 1041 1045
1461 4 1044 1041 1046 1048
1462 4 1044 1041 1046 1049
1463 4 1045 1041 1046 1048
1464 4 1045 1041 1046 1049
1465 4 1048 1046 1047 1050
1466 4 1048 1046 1047 1051
1467 4 1049 1046 1047 1050
1468 4 1049 1046 1047 1051
1469 4 1050 1047 1052 1054
1470 4 1050 1047 1052 1055
1471 4 1051 1047 1052 1054
1472 4 1051 1047 1052 1055
1473 4 1054 1052 1053 1056
1474 4 1054 1052 1053 1057
1475 4 1055 1052 1053 1056
1476 4 1055 1052 1053 1057
1477 4 1056 1053 1058 1060
1478 4 1056 1053 1058 1061
1479 4 1057 1053 1058 1060
1480 4 1057 1053 1058 1061
1481 4 1060 1058 1059 1062
1482 4 1060 1058 1059 1063
1483 4 1061 1058 1059 1062
1484 4 1061 1058 1059 1063
1485 4 1062 1059 1064 1066
1486 4 1062 1059 1064 1067
1487 4 1063 1059 1064 1066
1488 4 1063 1059 1064 1067
1489 4 1066 1064 1065 1068
1490 4 1066 1064 1065 1069
1491 4 1067 1064 1065 1068
1492 4 1067 1064 1065 1069
1493 4 1068 1065 1070 1072
1494 4 1068 1065 1070 1073
1495 4 1069 1065 1070 1072
1496 4 1069 1065 1070 1073
1497 4 1072 1070 1071 1074
1498 4 1072 1070 1071 1075
1499 4 1073 1070 1071 1074
1500 4 1073 1070 1071 1075
1501 4 1074 1071 1076 1078
1502 4 1074 1071 1076 1079
1503 4 1075 1071 1076 1078
1504 4 1075 1071 1076 1079
1505 4 1078 1076 1077 1080
1506 4 1078 1076 1077 1081
1507 4 1079 1076 1077 1080
1508 4 1079 1076 1077 1081
1509 4 1080 1077 1082 1084
1510 4 1080 1077 1082 1085
1511 4 1081 1077 1082 1084
1512 4 1081 1077 1082 1085
1513 4 1084 1082 1083 1086
1514 4 1084 1082 1083 1087
1515 4 1085 1082 1083 1086
1516 4 1085 1082 1083 1087
1517 4 1086 1083 1088 1090
1518 4 1086 1083 1088 1091
1519 4 1087 1083 1088 1090
1520 4 1087 1083 1088 1091
1521 4 1090 1088 1089 1092
1522 4 1090 1088 1089 1093
1523 4 1091 1088 1089 1092
1524 4 1091 1088 1089 1093
1525 4 1092 1089 1094 1096
1526 4 1092 1089 1094 1097
1527 4 1093 1089 1094 1096
1528 4 1093 1089 1094 1097
1529 4 1096 1094 1095 1098
1530 4 1096 1094 1095 1099
1531 4 1097 1094 1095 1098
1532 4 1097 1094 1095 1099
1533 4 1098 1095 1100 1102
1534 4 1098 1095 1100 1103
1535 4 1099 1095 1100 1102
1536 4 1099 1095 1100 1103
1537 4 1102 1100 1101 1104
1538 4 1102 1100 1101 1105
1539 4 1103 1100 1101 1104
1540 4 1103 1100 1101 1105
1541 4 1104 1101 1106 1108
1542 4 1104 1101 1106 1109
1543 4 1105 1101 1106 1108
1544 4 1105 1101 1106 1109
1545 4 1108 1106 1107 1110
1546 4 1108 1106 1107 1111
1547 4 1109 1106 1107 1110
1548 4 1109 1106 1107 1111
1549 4 1110 1107 1112 1114
1550 4 1110 1107 1112 1115
1551 4 1111 1107 1112 1114
1552 4 1111 1107 1112 1115
1553 4 1114 1112 1113 1116
1554 4 1114 1112 1113 1117
1555 4 1115 1112 1113 1116
1556 4 1115 1112 1113 1117
1557 4 1116 1113 1118 1120
1558 4 1116 1113 1118 1121
1559 4 1117 1113 1118 1120
1560 4 1117 1113 1118 1121
1561 4 1120 1118 1119 1122
1562 4 1120 1118 1119 1123
1563 4 1121 1118 1119 1122
1564 4 1121 1118 1119 1123
1565 4 1122 1119 1124 1126
1566 4 1122 1119 1124 1127
1567 4 1123 1119 1124 1126
1568 4 1123 1119 1124 1127
1569 4 1126 1124 1125 1128
1570 4 1126 1124 1125 1129
1571 4 1127 1124 1125 1128
1572 4 1127 1124 1125 1129
1573 4 1128 1125 1130 1132
1574 4 1128 1125 1130 1133
1575 4 1129 1125 1130 1132
1576 4 1129 1125 1130 1133
1577 4 1132 1130 1131 1134
1578 4 1132 1130 1131 1135
1579 4 1133 1130 1131 1134
1580 4 1133 1130 1131 1135
1581 4 1134 1131 1136 1138
1582 4 1134 1131 1136 1139
1583 4 1135 1131 1136 1138
1584 4 1135 1131 1136 1139
1585 4 1138 1136 1137 1140
1586 4 1138 1136 1137 1141
1587 4 1139 1136 1137 1140
1588 4 1139 1136 1137 1141
1589 4 1140 1137 1142 1144
1590 4 1140 1137 1142 1145
1591 4 1141 1137 1142 1144
1592 4 1141 1137 1142 1145
1593 4 1144 1142 1143 1146
1594 4 1144 1142 1143 1147
1595 4 1145 1142 1143 1146
1596 4 1145 1142 1143 1147
1597 4 1146 1143 1148 1150
1598 4 1146 1143 1148 1151
1599 4 1147 1143 1148 1150
1600 4 1147 1143 1148 1151
1601 4 1150 1148 1149 1152
1602 4 1150 1148 1149 1153
1603 4 1151 1148 1149 1152
1604 4 1151 1148 1149 1153
1605 4 1152 1149 1154 1156
1606 4 1152 1149 1154 1157
1607 4 1153 1149 1154 1156
1608 4 1153 1149 1154 1157
1609 4 1156 1154 1155 1158
1610 4 1156 1154 1155 1159
1611 4 1157 1154 1155 1158
1612 4 1157 1154 1155 1159
1613 4 1158 1155 1160 1162
1614 4 1158 1155 1160 1163
1615 4 1159 1155 1160 1162
1616 4 1159 1155 1160 1163
1617 4 1162 1160 1161 1164
1618 4 1162 1160 1161 1165
1619 4 1163 1160 1161 1164
1620 4 1163 1160 1161 1165
1621 4 1164 1161 1166 1168
1622 4 1164 1161 1166 1169
1623 4 1165 1161 1166 1168
1624 4 1165 1161 1166 1169
1625 4 1168 1166 1167 1170
1626 4 1168 1166 1167 1171
1627 4 1169 1166 1167 1170
1628 4 1169 1166 1167 1171
1629 4 1170 1167 1172 1174
1630 4 1170 1167 1172 1175
1631 4 1171 1167 1172 1174
1632 4 1171 1167 1172 1175
1633 4 1174 1172 1173 1176
1634 4 1174 1172 1173 1177
1635 4 1175 1172 1173 1176
1636 4 1175 1172 1173 1177
1637 4 1176 1173 1178 1180
1638 4 1176 1173 1178 1181
1639 4 1177 1173 1178 1180
1640 4 1177 1173 1178 1181
1641 4 1180 1178 1179 1182
1642 4 1180 1178 1179 1183
1643 4 1181 1178 1179 1182
1644 4 1181 1178 1179 1183
1645 4 1182 1179 1184 1186
1646 4 1182 1179 1184 1187
1647 4 1183 1179 1184 1186
1648 4 1183 1179 1184 1187
1649 4 1186 1184 1185 1188
1650 4 1186 1184 1185 1189
1651 4 1187 1184 1185 1188
1652 4 1187 1184 1185 1189
1653 4 1188 1185 1190 1192
1654 4 1188 1185 1190 1193
1655 4 1189 1185 1190 1192
1656 4 1189 1185 1190 1193
1657 4 1192 1190 1191 1194
1658 4 1192 1190 1191 1195
1659 4 1193 1190 1191 1194
1660 4 1193 1190 1191 1195
1661 4 1194 1191 1196 1198
1662 4 1194 1191 1196 1199
1663 4 1195 1191 1196 1198
1664 4 1195 1191 1196 1199
1665 4 1198 1196 1197 1200
1666 4 1198 1196 1197 1201
1667 4 1199 1196 1197 1200
1668 4 1199 1196 1197 1201
1669 4 1200 1197 1202 1204
1670 4 1200 1197 1202 1205
1671 4 1201 1197 1202 1204
1672 4 1201 1197 1202 1205
1673 4 1214 1210 1216 1218
1674 4 1214 1210 1216 1219
1675 4 1215 1210 1216 1218
1676 4 1215 1210 1216 1219
1677 4 1218 1216 1217 1220
1678 4 1218 1216 1217 1221
1679 4 1219 1216 1217 1220
1680 4 1219 1216 1217 1221
1681 4 1220 1217 1222 1224
1682 4 1220 1217 1222 1225
1683 4 1221 1217 1222 1224
1684 4 1221 1217 1222 1225
1685 4 1224 1222 1223 1226
1686 4 1224 1222 1223 1227
1687 4 1225 1222 1223 1226
1688 4 1225 1222 1223 1227
1689 4 1226 1223 1228 1230
1690 4 1226 1223 1228 1231
1691 4 1227 1223 1228 1230
1692 4 1227 1223 1228 1231
1693 4 1230 1228 1229 1232
1694 4 1230 1228 1229 1233
1695 4 1231 1228 1229 1232
1696 4 1231 1228 1229 1233
1697 4 1232 1229 1234 1236
1698 4 1232 1229 1234 1237
1699 4 1233 1229 1234 1236
1700 4 1233 1229 1234 1237
1701 4 1236 1234 1235 1238
1702 4 1236 1234 1235 1239
1703 4 1237 1234 1235 1238
1704 4 1237 1234 1235 1239
1705 4 1238 1235 1240 1242
1706 4 1238 1235 1240 1243
1707 4 1239 1235 1240 1242
1708 4 1239 1235 1240 1243
1709 4 1242 1240 1241 1244
1710 4 1242 1240 1241 1245
1711 4 1243 1240 1241 1244
1712 4 1243 1240 1241 1245
1713 4 1244 1241 1246 1248
1714 4 1244 1241 1246 1249
1715 4 1245 1241 1246 1248
1716 4 1245 1241 1246 1249
1717 4 1248 1246 1247 1250
1718 4 1248 1246 1247 1251
1719 4 1249 1246 1247 1250
1720 4 1249 1246 1247 1251
1721 4 1250 1247 1252 1254
1722 4 1250 1247 1252 1255
1723 4 1251 1247 1252 1254
1724 4 1251 1247 1252 1255
1725 4 1254 1252 1253 1256
1726 4 1254 1252 1253 1257
1727 4 1255 1252 1253 1256
1728 4 1255 1252 1253 1257
1729 4 1256 1253 1258 1260
1730 4 1256 1253 1258 1261
1731 4 1257 1253 1258 1260
1732 4 1257 1253 1258 1261
1733 4 1260 1258 1259 1262
1734 4 1260 1258 1259 1263
1735 4 1261 1258 1259 1262
1736 4 1261 1258 1259 1263
1737 4 1262 1259 1264 1266
1738 4 1262 1259 1264 1267
1739 4 1263 1259 1264 1266
1740 4 1263 1259 1264 1267
1741 4 1266 1264 1265 1268
1742 4 1266 1264 1265 1269
1743 4 1267 1264 1265 1268
1744 4 1267 1264 1265 1269
1745 4 1268 1265 1270 1272
1746 4 1268 1265 1270 1273
1747 4 1269 1265 1270 1272
1748 4 1269 1265 1270 1273
1749 4 1272 1270 1271 1274
1750 4 1272 1270 1271 1275
1751 4 1273 1270 1271 1274
1752 4 1273 1270 1271 1275
1753 4 1274 1271 1276 1278
1754 4 1274 1271 1276 1279
1755 4 1275 1271 1276 1278
1756 4 1275 1271 1276 1279
1757 4 1278 1276 1277 1280
1758 4 1278 1276 1277 1281
1759 4 1279 1276 1277 1280
1760 4 1279 1276 1277 1281
1761 4 1280 1277 1282 1284
1762 4 1280 1277 1282 1285
1763 4 1281 1277 1282 1284
1764 4 1281 1277 1282 1285
1765 4 1284 1282 1283 1286
1766 4 1284 1282 1283 1287
1767 4 1285 1282 1283 1286
1768 4 1285 1282 1283 1287
1769 4 1286 1283 1288 1290
1770 4 1286 1283 1288 1291
1771 4 1287 1283 1288 1290
1772 4 1287 1283 1288 1291
1773 4 1290 1288 1289 1292
1774 4 1290 1288 1289 1293
1775 4 1291 1288 1289 1292
1776 4 1291 1288 1289 1293
1777 4 1292 1289 1294 1296
1778 4 1292 1289 1294 1297
1779 4 1293 1289 1294 1296
1780 4 1293 1289 1294 1297
1781 4 1296 1294 1295 1298
1782 4 1296 1294 1295 1299
1783 4 1297 1294 1295 1298
1784 4 1297 1294 1295 1299
1785 4 1298 1295 1300 1302
1786 4 1298 1295 1300 1303
1787 4 1299 1295 1300 1302
1788 4 1299 1295 1300 1303
1789 4 1302 1300 1301 1304
1790 4 1302 1300 1301 1305
1791 4 1303 1300 1301 1304
1792 4 1303 1300 1301 1305
1793 4 1304 1301 1306 1308
1794 4 1304 1301 1306 1309
1795 4 1305 1301 1306 1308
1796 4 1305 1301 1306 1309
1797 4 1308 1306 1307 1310
1798 4 1308 1306 1307 1311
1799 4 1309 1306 1307 1310
1800 4 1309 1306 1307 1311
1801 4 1310 1307 1312 1314
1802 4 1310 1307 1312 1315
1803 4 1311 1307 1312 1314
1804 4 1311 1307 1312 1315
1805 4 1314 1312 1313 1316
1806 4 1314 1312 1313 1317
1807 4 1315 1312 1313 1316
1808 4 1315 1312 1313 1317
1809 4 1316 1313 1318 1320
1810 4 1316 1313 1318 1321
1811 4 1317 1313 1318 1320
1812 4 1317 1313 1318 1321
1813 4 1320 1318 1319 1322
1814 4 1320 1318 1319 1323
1815 4 1321 1318 1319 1322
1816 4 1321 1318 1319 1323
1817 4 1322 1319 1324 1326
1818 4 1322 1319 1324 1327
1819 4 1323 1319 1324 1326
1820 4 1323 1319 1324 1327
1821 4 1326 1324 1325 1328
1822 4 1326 1324 1325 1329
1823 4 1327 1324 1325 1328
1824 4 1327 1324 1325 1329
1825 4 1328 1325 1330 1332
1826 4 1328 1325 1330 1333
1827 4 1329 1325 1330 1332
1828 4 1329 1325 1330 1333
1829 4 1332 1330 1331 1334
1830 4 1332 1330 1331 1335
1831 4 1333 1330 1331 1334
1832 4 1333 1330 1331 1335
1833 4 1334 1331 1336 1338
1834 4 1334 1331 1336 1339
1835 4 1335 1331 1336 1338
1836 4 1335 1331 1336 1339
1837 4 1338 1336 1337 1340
1838 4 1338 1336 1337 1341
1839 4 1339 1336 1337 1340
1840 4 1339 1336 1337 1341
1841 4 1340 1337 1342 1344
1842 4 1340 1337 1342 1345
1843 4 1341 1337 1342 1344
1844 4 1341 1337 1342 1345
1845 4 1344 1342 1343 1346
1846 4 1344 1342 1343 1347
1847 4 1345 1342 1343 1346
1848 4 1345 1342 1343 1347
1849 4 1346 1343 1348 1350
1850 4 1346 1343 1348 1351
1851 4 1347 1343 1348 1350
1852 4 1347 1343 1348 1351
1853 4 1350 1348 1349 1352
1854 4 1350 1348 1349 1353
1855 4 1351 1348 1349 1352
1856 4 1351 1348 1349 1353
1857 4 1352 1349 1354 1356
1858 4 1352 1349 1354 1357
1859 4 1353 1349 1354 1356
1860 4 1353 1349 1354 1357
1861 4 1356 1354 1355 1358
1862 4 1356 1354 1355 1359
1863 4 1357 1354 1355 1358
1864 4 1357 1354 1355 1359
1865 4 1358 1355 1360 1362
1866 4 1358 1355 1360 1363
1867 4 1359 1355 1360 1362
1868 4 1359 1355 1360 1363
1869 4 1362 1360 1361 1364
1870 4 1362 1360 1361 1365
1871 4 1363 1360 1361 1364
1872 4 1363 1360 1361 1365
1873 4 1364 1361 1366 1368
1874 4 1364 1361 1366 1369
1875 4 1365 1361 1366 1368
1876 4 1365 1361 1366 1369
1877 4 1368 1366 1367 1370
1878 4 1368 1366 1367 1371
1879 4 1369 1366 1367 1370
1880 4 1369 1366 1367 1371
1881 4 1370 1367 1372 1374
1882 4 1370 1367 1372 1375
1883 4 1371 1367 1372 1374
1884 4 1371 1367 1372 1375
1885 4 1374 1372 1373 1376
1886 4 1374 1372 1373 1377
1887 4 1375 1372 1373 1376
1888 4 1375 1372 1373 1377
1889 4 1376 1373 1378 1380
1890 4 1376 1373 1378 1381
1891 4 1377 1373 1378 1380
1892 4 1377 1373 1378 1381
1893 4 1380 1378 1379 1382
1894 4 1380 1378 1379 1383
1895 4 1381 1378 1379 1382
1896 4 1381 1378 1379 1383
1897 4 1382 1379 1384 1386
1898 4 1382 1379 1384 1387
1899 4 1383 1379 1384 1386
1900 4 1383 1379 1384 1387
1901 4 1386 1384 1385 1388
1902 4 1386 1384 1385 1389
1903 4 1387 1384 1385 1388
1904 4 1387 1384 1385 1389
1905 4 1388 1385 1390 1392
1906 4 1388 1385 1390 1393
1907 4 1389 1385 1390 1392
1908 4 1389 1385 1390 1393
1909 4 1392 1390 1391 1394
1910 4 1392 1390 1391 1395
1911 4 1393 1390 1391 1394
1912 4 1393 1390 1391 1395
1913 4 1394 1391 1396 1398
1914 4 1394 1391 1396 1399
1915 4 1395 1391 1396 1398
1916 4 1395 1391 1396 1399
1917 4 1398 1396 1397 1400
1918 4 1398 1396 1397 1401
1919 4 1399 1396 1397 1400
1920 4 1399 1396 1397 1401
1921 4 1400 1397 1402 1404
1922 4 1400 1397 1402 1405
1923 4 1401 1397 1402 1404
1924 4 1401 1397 1402 1405
1925 4 1404 1402 1403 1406
1926 4 1404 1402 1403 1407
1927 4 1405 1402 1403 1406
1928 4 1405 1402 1403 1407
1929 4 1406 1403 1408 1410
1930 4 1406 1403 1408 1411
1931 4 1407 1403 1408 1410
1932 4 1407 1403 1408 1411
1933 4 1410 1408 1409 1412
1934 4 1410 1408 1409 1413
1935 4 1411 1408 1409 1412
1936 4 1411 1408 1409 1413
1937 4 1412 1409 1414 1416
1938 4 1412 1409 1414 1417
1939 4 1413 1409 1414 1416
1940 4 1413 1409 1414 1417
1941 4 1416 1414 1415 1418
1942 4 1416 1414 1415 1419
1943 4 1417 1414 1415 1418
1944 4 1417 1414 1415 1419
1945 4 1418 1415 1420 1422
1946 4 1418 1415 1420 1423
1947 4 1419 1415 1420 1422
1948 4 1419 1415 1420 1423
1949 4 1422 1420 1421 1424
1950 4 1422 1420 1421 1425
1951 4 1423 1420 1421 1424
1952 4 1423 1420 1421 1425
1953 4 1424 1421 1426 1428
1954 4 1424 1421 1426 1429
1955 4 1425 1421 1426 1428
1956 4 1425 1421 1426 1429
1957 4 1428 1426 1427 1430
1958 4 1428 1426 1427 1431
1959 4 1429 1426 1427 1430
1960 4 1429 1426 1427 1431
1961 4 1430 1427 1432 1434
1962 4 1430 1427 1432 1435
1963 4 1431 1427 1432 1434
1964 4 1431 1427 1432 1435
1965 4 1434 1432 1433 1436
1966 4 1434 1432 1433 1437
1967 4 1435 1432 1433 1436
1968 4 1435 1432 1433 1437
1969 4 1436 1433 1438 1440
1970 4 1436 1433 1438 1441
1971 4 1437 1433 1438 1440
1972 4 1437 1433 1438 1441
1973 4 1440 1438 1439 1442
1974 4 1440 1438 1439 1443
1975 4 1441 1438 1439 1442
1976 4 1441 1438 1439 1443
1977 4 1442 1439 1444 1446
1978 4 1442 1439 1444 1447
1979 4 1443 1439 1444 1446
1980 4 1443 1439 1444 1447
1981 4 1446 1444 1445 1448
1982 4 1446 1444 1445 1449
1983 4 1447 1444 1445 1448
1984 4 1447 1444 1445 1449
1985 4 1448 1445 1450 1452
1986 4 1448 1445 1450 1453
1987 4 1449 1445 1450 1452
1988 4 1449 1445 1450 1453
1989 4 1452 1450 1451 1454
1990 4 1452 1450 1451 1455
1991 4 1453 1450 1451 1454
1992 4 1453 1450 1451 1455
1993 4 1454 1451 1456 1458
1994 4 1454 1451 1456 1459
1995 4 1455 1451 1456 1458
1996 4 1455 1451 1456 1459
1997 4 1458 1456 1457 1460
1998 4 1458 1456 1457 1461
1999 4 1459 1456 1457 1460
2000 4 1459 1456 1457 1461
2001 4 1460 1457 1462 1464
2002 4 1460 1457 1462 1465
2003 4 1461 1457 1462 1464
2004 4 1461 1457 1462 1465
2005 4 1464 1462 1463 1466
2006 4 1464 1462 1463 1467
2007 4 1465 1462 1463 1466
2008 4 1465 1462 1463 1467
2009 4 1466 1463 1468 1470
2010 4 1466 1463 1468 1471
2011 4 1467 1463 1468 1470
2012 4 1467 1463 1468 1471
2013 4 1470 1468 1469 1472
2014 4 1470 1468 1469 1473
2015 4 1471 1468 1469 1472
2016 4 1471 1468 1469 1473
2017 4 1472 1469 1474 1476
2018 4 1472 1469 1474 1477
2019 4 1473 1469 1474 1476
2020 4 1473 1469 1474 1477
2021 4 1476 1474 1475 1478
2022 4 1476 1474 1475 1479
2023 4 1477 1474 1475 1478
2024 4 1477 1474 1475 1479
2025 4 1478 1475 1480 1482
2026 4 1478 1475 1480 1483
2027 4 1479 1475 1480 1482
2028 4 1479 1475 1480 1483
2029 4 1482 1480 1481 1484
2030 4 1482 1480 1481 1485
2031 4 1483 1480 1481 1484
2032 4 1483 1480 1481 1485
2033 4 1484 1481 1486 1488
2034 4 1484 1481 1486 1489
2035 4 1485 1481 1486 1488
2036 4 1485 1481 1486 1489
2037 4 1488 1486 1487 1490
2038 4 1488 1486 1487 1491
2039 4 1489 1486 1487 1490
2040 4 1489 1486 1487 1491
2041 4 1490 1487 1492 1494
2042 4 1490 1487 1492 1495
2043 4 1491 1487 1492 1494
2044 4 1491 1487 1492 1495
2045 4 1494 1492 1493 1496
2046 4 1494 1492 1493 1497
2047 4 1495 1492 1493 1496
2048 4 1495 1492 1493 1497
2049 4 1496 1493 1498 1500
2050 4 1496 1493 1498 1501
2051 4 1497 1493 1498 1500
2052 4 1497 1493 1498 1501
2053 4 1500 1498 1499 1502
2054 4 1500 1498 1499 1503
2055 4 1501 1498 1499 1502
2056 4 1501 1498 1499 1503
2057 4 1502 1499 1504 1506
2058 4 1502 1499 1504 1507
2059 4 1503 1499 1504 1506
2060 4 1503 1499 1504 1507
2061 4 1516 1512 1518 1520
2062 4 1516 1512 1518 1521
2063 4 1517 1512 1518 1520
2064 4 1517 1512 1518 1521
2065 4 1520 1518 1519 1522
2066 4 1520 1518 1519 1523
2067 4 1521 1518 1519 1522
2068 4 1521 1518 1519 1523
2069 4 1522 1519 1524 1526
2070 4 1522 1519 1524 1527
2071 4 1523 1519 1524 1526
2072 4 1523 1519 1524 1527
2073 4 1526 1524 1525 1528
2074 4 1526 1524 1525 1529
2075 4 1527 1524 1525 1528
2076 4 1527 1524 1525 1529
2077 4 1528 1525 1530 1532
2078 4 1528 1525 1530 1533
2079 4 1529 1525 1530 1532
2080 4 1529 1525 1530 1533
2081 4 1532 1530 1531 1534
2082 4 1532 1530 1531 1535
2083 4 1533 1530 1531 1534
2084 4 1533 1530 1531 1535
2085 4 1534 1531 1536 1538
2086 4 1534 1531 1536 1539
2087 4 1535 1531 1536 1538
2088 4 1535 1531 1536 1539
2089 4 1538 1536 1537 1540
2090 4 1538 1536 1537 1541
2091 4 1539 1536 1537 1540
2092 4 1539 1536 1537 1541
2093 4 1540 1537 1542 1544
2094 4 1540 1537 1542 1545
2095 4 1541 1537 1542 1544
2096 4 1541 1537 1542 1545
2097 4 1544 1542 1543 1546
2098 4 1544 1542 1543 1547
2099 4 1545 1542 1543 1546
2100 4 1545 1542 1543 1547
2101 4 1546 1543 1548 1550
2102 4 1546 1543 1548 1551
2103 4 1547 1543 1548 1550
2104 4 1547 1543 1548 1551
2105 4 1550 1548 1549 1552
2106 4 1550 1548 1549 1553
2107 4 1551 1548 1549 1552
2108 4 1551 1548 1549 1553
2109 4 1552 1549 1554 1556
2110 4 1552 1549 1554 1557
2111 4 1553 1549 1554 1556
2112 4 1553 1549 1554 1557
2113 4 1556 1554 1555 1558
2114 4 1556 1554 1555 1559
2115 4 1557 1554 1555 1558
2116 4 1557 1554 1555 1559
2117 4 1558 1555 1560 1562
2118 4 1558 1555 1560 1563
2119 4 1559 1555 1560 1562
2120 4 1559 1555 1560 1563
2121 4 1562 1560 1561 1564
2122 4 1562 1560 1561 1565
2123 4 1563 1560 1561 1564
2124 4 1563 1560 1561 1565
2125 4 1564 1561 1566 1568
2126 4 1564 1561 1566 1569
2127 4 1565 1561 1566 1568
2128 4 1565 1561 1566 1569
2129 4 1568 1566 1567 1570
2130 4 1568 1566 1567 1571
2131 4 1569 1566 1567 1570
2132 4 1569 1566 1567 1571
2133 4 1570 1567 1572 1574
2134 4 1570 1567 1572 1575
2135 4 1571 1567 1572 1574
2136 4 1571 1567 1572 1575
2137 4 1574 1572 1573 1576
2138 4 1574 1572 1573 1577
2139 4 1575 1572 1573 1576
2140 4 1575 1572 1573 1577
2141 4 1576 1573 1578 1580
2142 4 1576 1573 1578 1581
2143 4 1577 1573 1578 1580
2144 4 1577 1573 1578 1581
2145 4 1580 1578 1579 1582
2146 4 1580 1578 1579 1583
2147 4 1581 1578 1579 1582
2148 4 1581 1578 1579 1583
2149 4 1582 1579 1584 1586
2150 4 1582 1579 1584 1587
2151 4 1583 1579 1584 1586
2152 4 1583 1579 1584 1587
2153 4 1586 1584 1585 1588
2154 4 1586 1584 1585 1589
2155 4 1587 1584 1585 1588
2156 4 1587 1584 1585 1589
2157 4 1588 1585 1590 1592
2158 4 1588 1585 1590 1593
2159 4 1589 1585 1590 1592
2160 4 1589 1585 1590 1593
2161 4 1592 1590 1591 1594
2162 4 1592 1590 1591 1595
2163 4 1593 1590 1591 1594
2164 4 1593 1590 1591 1595
2165 4 1594 1591 1596 1598
2166 4 1594 1591 1596 1599
2167 4 1595 1591 1596 1598
2168 4 1595 1591 1596 1599
2169 4 1598 1596 1597 1600
2170 4 1598 1596 1597 1601
2171 4 1599 1596 1597 1600
2172 4 1599 1596 1597 1601
2173 4 1600 1597 1602 1604
2174 4 1600 1597 1602 1605
2175 4 1601 1597 1602 1604
2176 4 1601 1597 1602 1605
2177 4 1604 1602 1603 1606
2178 4 1604 1602 1603 1607
2179 4 1605 1602 1603 1606
2180 4 1605 1602 1603 1607
2181 4 1606 1603 1608 1610
2182 4 1606 1603 1608 1611
2183 4 1607 1603 1608 1610
2184 4 1607 1603 1608 1611
2185 4 1610 1608 1609 1612
2186 4 1610 1608 1609 1613
2187 4 1611 1608 1609 1612
2188 4 1611 1608 1609 1613
2189 4 1612 1609 1614 1616
2190 4 1612 1609 1614 1617
2191 4 1613 1609 1614 1616
2192 4 1613 1609 1614 1617
2193 4 1616 1614 1615 1618
2194 4 1616 1614 1615 1619
2195 4 1617 1614 1615 1618
2196 4 1617 1614 1615 1619
2197 4 1618 1615 1620 1622
2198 4 1618 1615 1620 1623
2199 4 1619 1615 1620 1622
2200 4 1619 1615 1620 1623
2201 4 1622 1620 1621 1624
2202 4 1622 1620 1621 1625
2203 4 1623 1620 1621 1624
2204 4 1623 1620 1621 1625
2205 4 1624 1621 1626 1628
2206 4 1624 1621 1626 1629
2207 4 1625 1621 1626 1628
2208 4 1625 1621 1626 1629
2209 4 1628 1626 1627 1630
2210 4 1628 1626 1627 1631
2211 4 1629 1626 1627 1630
2212 4 1629 1626 1627 1631
2213 4 1630 1627 1632 1634
2214 4 1630 1627 1632 1635
2215 4 1631 1627 1632 1634
2216 4 1631 1627 1632 1635
2217 4 1634 1632 1633 1636
2218 4 1634 1632 1633 1637
2219 4 1635 1632 1633 1636
2220 4 1635 1632 1633 1637
2221 4 1636 1633 1638 1640
2222 4 1636 1633 1638 1641
2223 4 1637 1633 1638 1640
2224 4 1637 1633 1638 1641
2225 4 1640 1638 1639 1642
2226 4 1640 1638 1639 1643
2227 4 1641 1638 1639 1642
2228 4 1641 1638 1639 1643
2229 4 1642 1639 1644 1646
2230 4 1642 1639 1644 1647
2231 4 1643 1639 1644 1646
2232 4 1643 1639 1644 1647
2233 4 1646 1644 1645 1648
2234 4 1646 1644 1645 1649
2235 4 1647 1644 1645 1648
2236 4 1647 1644 1645 1649
2237 4 1648 1645 1650 1652
2238 4 1648 1645 1650 1653
2239 4 1649 1645 1650 1652
2240 4 1649 1645 1650 1653
2241 4 1652 1650 1651 1654
2242 4 1652 1650 1651 1655
2243 4 1653 1650 1651 1654
2244 4 1653 1650 1651 1655
2245 4 1654 1651 1656 1658
2246 4 1654 1651 1656 1659
2247 4 1655 1651 1656 1658
2248 4 1655 1651 1656 1659
2249 4 1658 1656 1657 1660
2250 4 1658 1656 1657 1661
2251 4 1659 1656 1657 1660
2252 4 1659 1656 1657 1661
2253 4 1660 1657 1662 1664
2254 4 1660 1657 1662 1665
2255 4 1661 1657 1662 1664
2256 4 1661 1657 1662 1665
2257 4 1664 1662 1663 1666
2258 4 1664 1662 1663 1667
2259 4 1665 1662 1663 1666
2260 4 1665 1662 1663 1667
2261 4 1666 1663 1668 1670
2262 4 1666 1663 1668 1671
2263 4 1667 1663 1668 1670
2264 4 1667 1663 1668 1671
2265 4 1670 1668 1669 1672
2266 4 1670 1668 1669 1673
2267 4 1671 1668 1669 1672
2268 4 1671 1668 1669 1673
2269 4 1672 1669 1674 1676
2270 4 1672 1669 1674 1677
2271 4 1673 1669 1674 1676
2272 4 1673 1669 1674 1677
2273 4 1676 1674 1675 1678
2274 4 1676 1674 1675 1679
2275 4 1677 1674 1675 1678
2276 4 1677 1674 1675 1679
2277 4 1678 1675 1680 1682
2278 4 1678 1675 1680 1683
2279 4 1679 1675 1680 1682
2280 4 1679 1675 1680 1683
2281 4 1682 1680 1681 1684
2282 4 1682 1680 1681 1685
2283 4 1683 1680 1681 1684
2284 4 1683 1680 1681 1685
2285 4 1684 1681 1686 1688
2286 4 1684 1681 1686 1689
2287 4 1685 1681 1686 1688
2288 4 1685 1681 1686 1689
2289 4 1688 1686 1687 1690
2290 4 1688 1686 1687 1691
2291 4 1689 1686 1687 1690
2292 4 1689 1686 1687 1691
2293 4 1690 1687 1692 1694
2294 4 1690 1687 1692 1695
2295 4 1691 1687 1692 1694
2296 4 1691 1687 1692 1695
2297 4 1694 1692 1693 1696
2298 4 1694 1692 1693 1697
2299 4 1695 1692 1693 1696
2300 4 1695 1692 1693 1697
2301 4 1696 1693 1698 1700
2302 4 1696 1693 1698 1701
2303 4 1697 1693 1698 1700
2304 4 1697 1693 1698 1701
2305 4 1700 1698 1699 1702
2306 4 1700 1698 1699 1703
2307 4 1701 1698 1699 1702
2308 4 1701 1698 1699 1703
2309 4 1702 1699 1704 1706
2310 4 1702 1699 1704 1707
2311 4 1703 1699 1704 1706
2312 4 1703 1699 1704 1707
2313 4 1706 1704 1705 1708
2314 4 1706 1704 1705 1709
2315 4 1707 1704 1705 1708
2316 4 1707 1704 1705 1709
2317 4 1708 1705 1710 1712
2318 4 1708 1705 1710 1713
2319 4 1709 1705 1710 1712
2320 4 1709 1705 1710 1713
2321 4 1712 1710 1711 1714
2322 4 1712 1710 1711 1715
2323 4 1713 1710 1711 1714
2324 4 1713 1710 1711 1715
2325 4 1714 1711 1716 1718
2326 4 1714 1711 1716 1719
2327 4 1715 1711 1716 1718
2328 4 1715 1711 1716 1719
2329 4 1718 1716 1717 1720
2330 4 1718 1716 1717 1721
2331 4 1719 1716 1717 1720
2332 4 1719 1716 1717 1721
2333 4 1720 1717 1722 1724
2334 4 1720 1717 1722 1725
2335 4 1721 1717 1722 1724
2336 4 1721 1717 1722 1725
2337 4 1724 1722 1723 1726
2338 4 1724 1722 1723 1727
2339 4 1725 1722 1723 1726
2340 4 1725 1722 1723 1727
2341 4 1726 1723 1728 1730
2342 4 1726 1723 1728 1731
2343 4 1727 1723 1728 1730
2344 4 1727 1723 1728 1731
2345 4 1730 1728 1729 1732
2346 4 1730 1728 1729 1733
2347 4 1731 1728 1729 1732
2348 4 1731 1728 1729 1733
2349 4 1732 1729 1734 1736
2350 4 1732 1729 1734 1737
2351 4 1733 1729 1734 1736
2352 4 1733 1729 1734 1737
2353 4 1736 1734 1735 1738
2354 4 1736 1734 1735 1739
2355 4 1737 1734 1735 1738
2356 4 1737 1734 1735 1739
2357 4 1738 1735 1740 1742
2358 4 1738 1735 1740 1743
2359 4 1739 1735 1740 1742
2360 4 1739 1735 1740 1743
2361 4 1742 1740 1741 1744
2362 4 1742 1740 1741 1745
2363 4 1743 1740 1741 1744
2364 4 1743 1740 1741 1745
2365 4 1744 1741 1746 1748
2366 4 1744 1741 1746 1749
2367 4 1745 1741 1746 1748
2368 4 1745 1741 1746 1749
2369 4 1748 1746 1747 1750
2370 4 1748 1746 1747 1751
2371 4 1749 1746 1747 1750
2372 4 1749 1746 1747 1751
2373 4 1750 1747 1752 1754
2374 4 1750 1747 1752 1755
2375 4 1751 1747 1752 1754
2376 4 1751 1747 1752 1755
2377 4 1754 1752 1753 1756
2378 4 1754 1752 1753 1757
2379 4 1755 1752 1753 1756
2380 4 1755 1752 1753 1757
2381 4 1756 1753 1758 1760
2382 4 1756 1753 1758 1761
2383 4 1757 1753 1758 1760
2384 4 1757 1753 1758 1761
2385 4 1760 1758 1759 1762
2386 4 1760 1758 1759 1763
2387 4 1761 1758 1759 1762
2388 4 1761 1758 1759 1763
2389 4 1762 1759 1764 1766
2390 4 1762 1759 1764 1767
2391 4 1763 1759 1764 1766
2392 4 1763 1759 1764 1767
2393 4 1766 1764 1765 1768
2394 4 1766 1764 1765 1769
2395 4 1767 1764 1765 1768
2396 4 1767 1764 1765 1769
2397 4 1768 1765 1770 1772
2398 4 1768 1765 1770 1773
2399 4 1769 1765 1770 1772
2400 4 1769 1765 1770 1773
2401 4 1772 1770 1771 1774
2402 4 1772 1770 1771 1775
2403 4 1773 1770 1771 1774
2404 4 1773 1770 1771 1775
2405 4 1774 1771 1776 1778
2406 4 1774 1771 1776 1779
2407 4 1775 1771 1776 1778
2408 4 1775 1771 1776 1779
2409 4 1778 1776 1777 1780
2410 4 1778 1776 1777 1781
2411 4 1779 1776 1777 1780
2412 4 1779 1776 1777 1781
2413 4 1780 1777 1782 1784
2414 4 1780 1777 1782 1785
2415 4 1781 1777 1782 1784
2416 4 1781 1777 1782 1785
2417 4 1784 1782 1783 1786
2418 4 1784 1782 1783 1787
2419 4 1785 1782 1783 1786
2420 4 1785 1782 1783 1787
2421 4 1786 1783 1788 1790
2422 4 1786 1783 1788 1791
2423 4 1787 1783 1788 1790
2424 4 1787 1783 1788 1791
2425 4 1790 1788 1789 1792
2426 4 1790 1788 1789 1793
2427 4 1791 1788 1789 1792
2428 4 1791 1788 1789 1793
2429 4 1792 1789 1794 1796
2430 4 1792 1789 1794 1797
2431 4 1793 1789 1794 1796
2432 4 1793 1789 1794 1797
2433 4 1796 1794 1795 1798
2434 4 1796 1794 1795 1799
2435 4 1797 1794 1795 1798
2436 4 1797 1794 1795 1799
2437 4 1798 1795 1800 1802
2438 4 1798 1795 1800 1803
2439 4 1799 1795 1800 1802
2440 4 1799 1795 1800 1803
2441 4 1802 1800 1801 1804
2442 4 1802 1800 1801 1805
2443 4 1803 1800 1801 1804
2444 4 1803 1800 1801 1805
2445 4 1804 1801 1806 1808
2446 4 1804 1801 1806 1809
2447 4 1805 1801 1806 1808
2448 4 1805 1801 1806 1809
2449 4 1818 1814 1820 1822
2450 4 1818 1814 1820 1823
2451 4 1819 1814 1820 1822
2452 4 1819 1814 1820 1823
2453 4 1822 1820 1821 1824
2454 4 1822 1820 1821 1825
2455 4 1823 1820 1821 1824
2456 4 1823 1820 1821 1825
2457 4 1824 1821 1826 1828
2458 4 1824 1821 1826 1829
2459 4 1825 1821 1826 1828
2460 4 1825 1821 1826 1829
2461 4 1828 1826 1827 1830
2462 4 1828 1826 1827 1831
2463 4 1829 1826 1827 1830
2464 4 1829 1826 1827 1831
2465 4 1830 1827 1832 1834
2466 4 1830 1827 1832 1835
2467 4 1831 1827 1832 1834
2468 4 1831 1827 1832 1835
2469 4 1834 1832 1833 1836
2470 4 1834 1832 1833 1837
2471 4 1835 1832 1833 1836
2472 4 1835 1832 1833 1837
2473 4 1836 1833 1838 1840
2474 4 1836 1833 1838 1841
2475 4 1837 1833 1838 1840
2476 4 1837 1833 1838 1841
2477 4 1840 1838 1839 1842
2478 4 1840 1838 1839 1843
2479 4 1841 1838 1839 1842
2480 4 1841 1838 1839 1843
2481 4 1842 1839 1844 1846
2482 4 1842 1839 1844 1847
2483 4 1843 1839 1844 1846
2484 4 1843 1839 1844 1847
2485 4 1846 1844 1845 1848
2486 4 1846 1844 1845 1849
2487 4 1847 1844 1845 1848
2488 4 1847 1844 1845 1849
2489 4 1848 1845 1850 1852
2490 4 1848 1845 1850 1853
2491 4 1849 1845 1850 1852
2492 4 1849 1845 1850 1853
2493 4 1852 1850 1851 1854
2494 4 1852 1850 1851 1855
2495 4 1853 1850 1851 1854
2496 4 1853 1850 1851 1855
2497 4 1854 1851 1856 1858
2498 4 1854 1851 1856 1859
2499 4 1855 1851 1856 1858
2500 4 1855 1851 1856 1859
2501 4 1858 1856 1857 1860
2502 4 1858 1856 1857 1861
2503 4 1859 1856 1857 1860
2504 4 1859 1856 1857 1861
2505 4 1860 1857 1862 1864
2506 4 1860 1857 1862 1865
2507 4 1861 1857 1862 1864
2508 4 1861 1857 1862 1865
2509 4 1864 1862 1863 1866
2510 4 1864 1862 1863 1867
2511 4 1865 1862 1863 1866
2512 4 1865 1862 1863 1867
2513 4 1866 1863 1868 1870
2514 4 1866 1863 1868 1871
2515 4 1867 1863 1868 1870
2516 4 1867 1863 1868 1871
2517 4 1870 1868 1869 1872
2518 4 1870 1868 1869 1873
2519 4 1871 1868 1869 1872
2520 4 1871 1868 1869 1873
2521 4 1872 1869 1874 1876
2522 4 1872 1869 1874 1877
2523 4 1873 1869 1874 1876
2524 4 1873 1869 1874 1877
2525 4 1876 1874 1875 1878
2526 4 1876 1874 1875 1879
2527 4 1877 1874 1875 1878
2528 4 1877 1874 1875 1879
2529 4 1878 1875 1880 1882
2530 4 1878 1875 1880 1883
2531 4 1879 1875 1880 1882
2532 4 1879 1875 1880 1883
2533 4 1882 1880 1881 1884
2534 4 1882 1880 1881 1885
2535 4 1883 1880 1881 1884
2536 4 1883 1880 1881 1885
2537 4 1884 1881 1886 1888
2538 4 1884 1881 1886 1889
2539 4 1885 1881 1886 1888
2540 4 1885 1881 1886 1889
2541 4 1888 1886 1887 1890
2542 4 1888 1886 1887 1891
2543 4 1889 1886 1887 1890
2544 4 1889 1886 1887 1891
2545 4 1890 1887 1892 1894
2546 4 1890 1887 1892 1895
2547 4 1891 1887 1892 1894
2548 4 1891 1887 1892 1895
2549 4 1894 1892 1893 1896
2550 4 1894 1892 1893 1897
2551 4 1895 1892 1893 1896
2552 4 1895 1892 1893 1897
2553 4 1896 1893 1898 1900
2554 4 1896 1893 1898 1901
2555 4 1897 1893 1898 1900
2556 4 1897 1893 1898 1901
2557 4 1900 1898 1899 1902
2558 4 1900 1898 1899 1903
2559 4 1901 1898 1899 1902
2560 4 1901 1898 1899 1903
2561 4 1902 1899 1904 1906
2562 4 1902 1899 1904 1907
2563 4 1903 1899 1904 1906
2564 4 1903 1899 1904 1907
2565 4 1906 1904 1905 1908
2566 4 1906 1904 1905 1909
2567 4 1907 1904 1905 1908
2568 4 1907 1904 1905 1909
2569 4 1908 1905 1910 1912
2570 4 1908 1905 1910 1913
2571 4 1909 1905 1910 1912
2572 4 1909 1905 1910 1913
2573 4 1912 1910 1911 1914
2574 4 1912 1910 1911 1915
2575 4 1913 1910 1911 1914
2576 4 1913 1910 1911 1915
2577 4 1914 1911 1916 1918
2578 4 1914 1911 1916 1919
2579 4 1915 1911 1916 1918
2580 4 1915 1911 1916 1919
2581 4 1918 1916 1917 1920
2582 4 1918 1916 1917 1921
2583 4 1919 1916 1917 1920
2584 4 1919 1916 1917 1921
2585 4 1920 1917 1922 1924
2586 4 1920 1917 1922 1925
2587 4 1921 1917 1922 1924
2588 4 1921 1917 1922 1925
2589 4 1924 1922 1923 1926
2590 4 1924 1922 1923 1927
2591 4 1925 1922 1923 1926
2592 4 1925 1922 1923 1927
2593 4 1926 1923 1928 1930
2594 4 1926 1923 1928 1931
2595 4 1927 1923 1928 1930
2596 4 1927 1923 1928 1931
2597 4 1930 1928 1929 1932
2598 4 1930 1928 1929 1933
2599 4 1931 1928 1929 1932
2600 4 1931 1928 1929 1933
2601 4 1932 1929 1934 1936
2602 4 1932 1929 1934 1937
2603 4 1933 1929 1934 1936
2604 4 1933 1929 1934 1937
2605 4 1936 1934 1935 1938
2606 4 1936 1934 1935 1939
2607 4 1937 1934 1935 1938
2608 4 1937 1934 1935 1939
2609 4 1938 1935 1940 1942
2610 4 1938 1935 1940 1943
2611 4 1939 1935 1940 1942
2612 4 1939 1935 1940 1943
2613 4 1942 1940 1941 1944
2614 4 1942 1940 1941 1945
2615 4 1943 1940 1941 1944
2616 4 1943 1940 1941 1945
2617 4 1944 1941 1946 1948
2618 4 1944 1941 1946 1949
2619 4 1945 1941 1946 1948
2620 4 1945 1941 1946 1949
2621 4 1948 1946 1947 1950
2622 4 1948 1946 1947 1951
2623 4 1949 1946 1947 1950
2624 4 1949 1946 1947 1951
2625 4 1950 1947 1952 1954
2626 4 1950 1947 1952 1955
2627 4 1951 1947 1952 1954
2628 4 1951 1947 1952 1955
2629 4 1954 1952 1953 1956
2630 4 1954 1952 1953 1957
2631 4 1955 1952 1953 1956
2632 4 1955 1952 1953 1957
2633 4 1956 1953 1958 1960
2634 4 1956 1953 1958 1961
2635 4 1957 1953 1958 1960
2636 4 1957 1953 1958 1961
2637 4 1960 1958 1959 1962
2638 4 1960 1958 1959 1963
2639 4 1961 1958 1959 1962
2640 4 1961 1958 1959 1963
2641 4 1962 1959 1964 1966
2642 4 1962 1959 1964 1967
2643 4 1963 1959 1964 1966
2644 4 1963 1959 1964 1967
2645 4 1966 1964 1965 1968
2646 4 1966 1964 1965 1969
2647 4 1967 1964 1965 1968
2648 4 1967 1964 1965 1969
2649 4 1968 1965 1970 1972
2650 4 1968 1965 1970 1973
2651 4 1969 1965 1970 1972
2652 4 1969 1965 1970 1973
2653 4 1972 1970 1971 1974
2654 4 1972 1970 1971 1975
2655 4 1973 1970 1971 1974
2656 4 1973 1970 1971 1975
2657 4 1974 1971 1976 1978
2658 4 1974 1971 1976 1979
2659 4 1975 1971 1976 1978
2660 4 1975 1971 1976 1979
2661 4 1978 1976 1977 1980
2662 4 1978 1976 1977 1981
2663 4 1979 1976 1977 1980
2664 4 1979 1976 1977 1981
2665 4 1980 1977 1982 1984
2666 4 1980 1977 1982 1985
2667 4 1981 1977 1982 1984
2668 4 1981 1977 1982 1985
2669 4 1984 1982 1983 1986
2670 4 1984 1982 1983 1987
2671 4 1985 1982 1983 1986
2672 4 1985 1982 1983 1987
2673 4 1986 1983 1988 1990
2674 4 1986 1983 1988 1991
2675 4 1987 1983 1988 1990
2676 4 1987 1983 1988 1991
2677 4 1990 1988 1989 1992
2678 4 1990 1988 1989 1993
2679 4 1991 1988 1989 1992
2680 4 1991 1988 1989 1993
2681 4 1992 1989 1994 1996
2682 4 1992 1989 1994 1997
2683 4 1993 1989 1994 1996
2684 4 1993 1989 1994 1997
2685 4 1996 1994 1995 1998
2686 4 1996 1994 1995 1999
2687 4 1997 1994 1995 1998
2688 4 1997 1994 1995 1999
2689 4 1998 1995 2000 2002
2690 4 1998 1995 2000 2003
2691 4 1999 1995 2000 2002
2692 4 1999 1995 2000 2003
2693 4 2002 2000 2001 2004
2694 4 2002 2000 2001 2005
2695 4 2003 2000 2001 2004
2696 4 2003 2000 2001 2005
2697 4 2004 2001 2006 2008
2698 4 2004 2001 2006 2009
2699 4 2005 2001 2006 2008
2700 4 2005 2001 2006 2009
2701 4 2008 2006 2007 2010
2702 4 2008 2006 2007 2011
2703 4 2009 2006 2007 2010
2704 4 2009 2006 2007 2011
2705 4 2010 2007 2012 2014
2706 4 2010 2007 2012 2015
2707 4 2011 2007 2012 2014
2708 4 2011 2007 2012 2015
2709 4 2014 2012 2013 2016
2710 4 2014 2012 2013 2017
2711 4 2015 2012 2013 2016
2712 4 2015 2012 2013 2017
2713 4 2016 2013 2018 2020
2714 4 2016 2013 2018 2021
2715 4 2017 2013 2018 2020
2716 4 2017 2013 2018 2021
2717 4 2020 2018 2019 2022
2718 4 2020 2018 2019 2023
2719 4 2021 2018 2019 2022
2720 4 2021 2018 2019 2023
2721 4 2022 2019 2024 2026
2722 4 2022 2019 2024 2027
2723 4 2023 2019 2024 2026
2724 4 2023 2019 2024 2027
2725 4 2026 2024 2025 2028
2726 4 2026 2024 2025 2029
2727 4 2027 2024 2025 2028
2728 4 2027 2024 2025 2029
2729 4 2028 2025 2030 2032
2730 4 2028 2025 2030 2033
2731 4 2029 2025 2030 2032
2732 4 2029 2025 2030 2033
2733 4 2032 2030 2031 2034
2734 4 2032 2030 2031 2035
2735 4 2033 2030 2031 2034
2736 4 2033 2030 2031 2035
2737 4 2034 2031 2036 2038
2738 4 2034 2031 2036 2039
2739 4 2035 2031 2036 2038
2740 4 2035 2031 2036 2039
2741 4 2038 2036 2037 2040
2742 4 2038 2036 2037 2041
2743 4 2039 2036 2037 2040
2744 4 2039 2036 2037 2041
2745 4 2040 2037 2042 2044
2746 4 2040 2037 2042 2045
2747 4 2041 2037 2042 2044
2748 4 2041 2037 2042 2045
2749 4 2044 2042 2043 2046
2750 4 2044 2042 2043 2047
2751 4 2045 2042 2043 2046
2752 4 2045 2042 2043 2047
2753 4 2046 2043 2048 2050
2754 4 2046 2043 2048 2051
2755 4 2047 2043 2048 2050
2756 4 2047 2043 2048 2051
2757 4 2050 2048 2049 2052
2758 4 2050 2048 2049 2053
2759 4 2051 2048 2049 2052
2760 4 2051 2048 2049 2053
2761 4 2052 2049 2054 2056
2762 4 2052 2049 2054 2057
2763 4 2053 2049 2054 2056
2764 4 2053 2049 2054 2057
2765 4 2056 2054 2055 2058
2766 4 2056 2054 2055 2059
2767 4 2057 2054 2055 2058
2768 4 2057 2054 2055 2059
2769 4 2058 2055 2060 2062
2770 4 2058 2055 2060 2063
2771 4 2059 2055 2060 2062
2772 4 2059 2055 2060 2063
2773 4 2062 2060 2061 2064
2774 4 2062 2060 2061 2065
2775 4 2063 2060 2061 2064
2776 4 2063 2060 2061 2065
2777 4 2064 2061 2066 2068
2778 4 2064 2061 2066 2069
2779 4 2065 2061 2066 2068
2780 4 2065 2061 2066 2069
2781 4 2068 2066 2067 2070
2782 4 2068 2066 2067 2071
2783 4 2069 2066 2067 2070
2784 4 2069 2066 2067 2071
2785 4 2070 2067 2072 2074
2786 4 2070 2067 2072 2075
2787 4 2071 2067 2072 2074
2788 4 2071 2067 2072 2075
2789 4 2074 2072 2073 2076
2790 4 2074 2072 2073 2077
2791 4 2075 2072 2073 2076
2792 4 2075 2072 2073 2077
2793 4 2076 2073 2078 2080
2794 4 2076 2073 2078 2081
2795 4 2077 2073 2078 2080
2796 4 2077 2073 2078 2081
2797 4 2080 2078 2079 2082
2798 4 2080 2078 2079 2083
2799 4 2081 2078 2079 2082
2800 4 2081 2078 2079 2083
2801 4 2082 2079 2084 2086
2802 4 2082 2079 2084 2087
2803 4 2083 2079 2084 2086
2804 4 2083 2079 2084 2087
2805 4 2086 2084 2085 2088
2806 4 2086 2084 2085 2089
2807 4 2087 2084 2085 2088
2808 4 2087 2084 2085 2089
2809 4 2088 2085 2090 2092
2810 4 2088 2085 2090 2093
2811 4 2089 2085 2090 2092
2812 4 2089 2085 2090 2093
2813 4 2092 2090 2091 2094
2814 4 2092 2090 2091 2095
2815 4 2093 2090 2091 2094
2816 4 2093 2090 2091 2095
2817 4 2094 2091 2096 2098
2818 4 2094 2091 2096 2099
2819 4 2095 2091 2096 2098
2820 4 2095 2091 2096 2099
2821 4 2098 2096 2097 2100
2822 4 2098 2096 2097 2101
2823 4 2099 2096 2097 2100
2824 4 2099 2096 2097 2101
2825 4 2100 2097 2102 2104
2826 4 2100 2097 2102 2105
2827 4 2101 2097 2102 2104
2828 4 2101 2097 2102 2105
2829 4 2104 2102 2103 2106
2830 4 2104 2102 2103 2107
2831 4 2105 2102 2103 2106
2832 4 2105 2102 2103 2107
2833 4 2106 2103 2108 2110
2834 4 2106 2103 2108 2111
2835 4 2107 2103 2108 2110
2836 4 2107 2103 2108 2111
2837 4 2120 2116 2122 2124
2838 4 2120 2116 2122 2125
2839 4 2121 2116 2122 2124
2840 4 2121 2116 2122 2125
2841 4 2124 2122 2123 2126
2842 4 2124 2122 2123 2127
2843 4 2125 2122 2123 2126
2844 4 2125 2122 2123 2127
2845 4 2126 2123 2128 2130
2846 4 2126 2123 2128 2131
2847 4 2127 2123 2128 2130
2848 4 2127 2123 2128 2131
2849 4 2130 2128 2129 2132
2850 4 2130 2128 2129 2133
2851 4 2131 2128 2129 2132
2852 4 2131 2128 2129 2133
2853 4 2132 2129 2134 2136
2854 4 2132 2129 2134 2137
2855 4 2133 2129 2134 2136
2856 4 2133 2129 2134 2137
2857 4 2136 2134 2135 2138
2858 4 2136 2134 2135 2139
2859 4 2137 2134 2135 2138
2860 4 2137 2134 2135 2139
2861 4 2138 2135 2140 2142
2862 4 2138 2135 2140 2143
2863 4 2139 2135 2140 2142
2864 4 2139 2135 2140 2143
2865 4 2142 2140 2141 2144
2866 4 2142 2140 2141 2145
2867 4 2143 2140 2141 2144
2868 4 2143 2140 2141 2145
2869 4 2144 2141 2146 2148
2870 4 2144 2141 2146 2149
2871 4 2145 2141 2146 2148
2872 4 2145 2141 2146 2149
2873 4 2148 2146 2147 2150
2874 4 2148 2146 2147 2151
2875 4 2149 2146 2147 2150
2876 4 2149 2146 2147 2151
2877 4 2150 2147 2152 2154
2878 4 2150 2147 2152 2155
2879 4 2151 2147 2152 2154
2880 4 2151 2147 2152 2155
2881 4 2154 2152 2153 2156
2882 4 2154 2152 2153 2157
2883 4 2155 2152 2153 2156
2884 4 2155 2152 2153 2157
2885 4 2156 2153 2158 2160
2886 4 2156 2153 2158 2161
2887 4 2157 2153 2158 2160
2888 4 2157 2153 2158 2161
2889 4 2160 2158 2159 2162
2890 4 2160 2158 2159 2163
2891 4 2161 2158 2159 2162
2892 4 2161 2158 2159 2163
2893 4 2162 2159 2164 2166
2894 4 2162 2159 2164 2167
2895 4 2163 2159 2164 2166
2896 4 2163 2159 2164 2167
2897 4 2166 2164 2165 2168
2898 4 2166 2164 2165 2169
2899 4 2167 2164 2165 2168
2900 4 2167 2164 2165 2169
2901 4 2168 2165 2170 2172
2902 4 2168 2165 2170 2173
2903 4 2169 2165 2170 2172
2904 4 2169 2165 2170 2173
2905 4 2172 2170 2171 2174
2906 4 2172 2170 2171 2175
2907 4 2173 2170 2171 2174
2908 4 2173 2170 2171 2175
2909 4 2174 2171 2176 2178
2910 4 2174 2171 2176 2179
2911 4 2175 2171 2176 2178
2912 4 2175 2171 2176 2179
2913 4 2178 2176 2177 2180
2914 4 2178 2176 2177 2181
2915 4 2179 2176 2177 2180
2916 4 2179 2176 2177 2181
2917 4 2180 2177 2182 2184
2918 4 2180 2177 2182 2185
2919 4 2181 2177 2182 2184
2920 4 2181 2177 2182 2185
2921 4 2184 2182 2183 2186
2922 4 2184 2182 2183 2187
2923 4 2185 2182 2183 2186
2924 4 2185 2182 2183 2187
2925 4 2186 2183 2188 2190
2926 4 2186 2183 2188 2191
2927 4 2187 2183 2188 2190
2928 4 2187 2183 2188 2191
2929 4 2190 2188 2189 2192
2930 4 2190 2188 2189 2193
2931 4 2191 2188 2189 2192
2932 4 2191 2188 2189 2193
2933 4 2192 2189 2194 2196
2934 4 2192 2189 2194 2197
2935 4 2193 2189 2194 2196
2936 4 2193 2189 2194 2197
2937 4 2196 2194 2195 2198
2938 4 2196 2194 2195 2199
2939 4 2197 2194 2195 2198
2940 4 2197 2194 2195 2199
2941 4 2198 2195 2200 2202
2942 4 2198 2195 2200 2203
2943 4 2199 2195 2200 2202
2944 4 2199 2195 2200 2203
2945 4 2202 2200 2201 2204
2946 4 2202 2200 2201 2205
2947 4 2203 2200 2201 2204
2948 4 2203 2200 2201 2205
2949 4 2204 2201 2206 2208
2950 4 2204 2201 2206 2209
2951 4 2205 2201 2206 2208
2952 4 2205 2201 2206 2209
2953 4 2208 2206 2207 2210
2954 4 2208 2206 2207 2211
2955 4 2209 2206 2207 2210
2956 4 2209 2206 2207 2211
2957 4 2210 2207 2212 2214
2958 4 2210 2207 2212 2215
2959 4 2211 2207 2212 2214
2960 4 2211 2207 2212 2215
2961 4 2214 2212 2213 2216
2962 4 2214 2212 2213 2217
2963 4 2215 2212 2213 2216
2964 4 2215 2212 2213 2217
2965 4 2216 2213 2218 2220
2966 4 2216 2213 2218 2221
2967 4 2217 2213 2218 2220
2968 4 2217 2213 2218 2221
2969 4 2220 2218 2219 2222
2970 4 2220 2218 2219 2223
2971 4 2221 2218 2219 2222
2972 4 2221 2218 2219 2223
2973 4 2222 2219 2224 2226
2974 4 2222 2219 2224 2227
2975 4 2223 2219 2224 2226
2976 4 2223 2219 2224 2227
2977 4 2226 2224 2225 2228
2978 4 2226 2224 2225 2229
2979 4 2227 2224 2225 2228
2980 4 2227 2224 2225 2229
2981 4 2228 2225 2230 2232
2982 4 2228 2225 2230 2233
2983 4 2229 2225 2230 2232
2984 4 2229 2225 2230 2233
2985 4 2232 2230 2231 2234
2986 4 2232 2230 2231 2235
2987 4 2233 2230 2231 2234
2988 4 2233 2230 2231 2235
2989 4 2234 2231 2236 2238
2990 4 2234 2231 2236 2239
2991 4 2235 2231 2236 2238
2992 4 2235 2231 2236 2239
2993 4 2238 2236 2237 2240
2994 4 2238 2236 2237 2241
2995 4 2239 2236 2237 2240
2996 4 2239 2236 2237 2241
2997 4 2240 2237 2242 2244
2998 4 2240 2237 2242 2245
2999 4 2241 2237 2242 2244
3000 4 2241 2237 2242 2245
3001 4 2244 2242 2243 2246
3002 4 2244 2242 2243 2247
3003 4 2245 2242 2243 2246
3004 4 2245 2242 2243 2247
3005 4 2246 2243 2248 2250
3006 4 2246 2243 2248 2251
3007 4 2247 2243 2248 2250
3008 4 2247 2243 2248 2251
3009 4 2250 2248 2249 2252
3010 4 2250 2248 2249 2253
3011 4 2251 2248 2249 2252
3012 4 2251 2248 2249 2253
3013 4 2252 2249 2254 2256
3014 4 2252 2249 2254 2257
3015 4 2253 2249 2254 2256
3016 4 2253 2249 2254 2257
3017 4 2256 2254 2255 2258
3018 4 2256 2254 2255 2259
3019 4 2257 2254 2255 2258
3020 4 2257 2254 2255 2259
3021 4 2258 2255 2260 2262
3022 4 2258 2255 2260 2263
3023 4 2259 2255 2260 2262
3024 4 2259 2255 2260 2263
3025 4 2262 2260 2261 2264
3026 4 2262 2260 2261 2265
3027 4 2263 2260 2261 2264
3028 4 2263 2260 2261 2265
3029 4 2264 2261 2266 2268
3030 4 2264 2261 2266 2269
3031 4 2265 2261 2266 2268
3032 4 2265 2261 2266 2269
3033 4 2268 2266 2267 2270
3034 4 2268 2266 2267 2271
3035 4 2269 2266 2267 2270
3036 4 2269 2266 2267 2271
3037 4 2270 2267 2272 2274
3038 4 2270 2267 2272 2275
3039 4 2271 2267 2272 2274
3040 4 2271 2267 2272 2275
3041 4 2274 2272 2273 2276
3042 4 2274 2272 2273 2277
3043 4 2275 2272 2273 2276
3044 4 2275 2272 2273 2277
3045 4 2276 2273 2278 2280
3046 4 2276 2273 2278 2281
3047 4 2277 2273 2278 2280
3048 4 2277 2273 2278 2281
3049 4 2280 2278 2279 2282
3050 4 2280 2278 2279 2283
3051 4 2281 2278 2279 2282
3052 4 2281 2278 2279 2283
3053 4 2282 2279 2284 2286
3054 4 2282 2279 2284 2287
3055 4 2283 2279 2284 2286
3056 4 2283 2279 2284 2287
3057 4 2286 2284 2285 2288
3058 4 2286 2284 2285 2289
3059 4 2287 2284 2285 2288
3060 4 2287 2284 2285 2289
3061 4 2288 2285 2290 2292
3062 4 2288 2285 2290 2293
3063 4 2289 2285 2290 2292
3064 4 2289 2285 2290 2293
3065 4 2292 2290 2291 2294
3066 4 2292 2290 2291 2295
3067 4 2293 2290 2291 2294
3068 4 2293 2290 2291 2295
3069 4 2294 2291 2296 2298
3070 4 2294 2291 2296 2299
3071 4 2295 2291 2296 2298
3072 4 2295 2291 2296 2299
3073 4 2298 2296 2297 2300
3074 4 2298 2296 2297 2301
3075 4 2299 2296 2297 2300
3076 4 2299 2296 2297 2301
3077 4 2300 2297 2302 2304
3078 4 2300 2297 2302 2305
3079 4 2301 2297 2302 2304
3080 4 2301 2297 2302 2305
3081 4 2304 2302 2303 2306
3082 4 2304 2302 2303 2307
3083 4 2305 2302 2303 2306
3084 4 2305 2302 2303 2307
3085 4 2306 2303 2308 2310
3086 4 2306 2303 2308 2311
3087 4 2307 2303 2308 2310
3088 4 2307 2303 2308 2311
3089 4 2310 2308 2309 2312
3090 4 2310 2308 2309 2313
3091 4 2311 2308 2309 2312
3092 4 2311 2308 2309 2313
3093 4 2312 2309 2314 2316
3094 4 2312 2309 2314 2317
3095 4 2313 2309 2314 2316
3096 4 2313 2309 2314 2317
3097 4 2316 2314 2315 2318
3098 4 2316 2314 2315 2319
3099 4 2317 2314 2315 2318
3100 4 2317 2314 2315 2319
3101 4 2318 2315 2320 2322
3102 4 2318 2315 2320 2323
3103 4 2319 2315 2320 2322
3104 4 2319 2315 2320 2323
3105 4 2322 2320 2321 2324
3106 4 2322 2320 2321 2325
3107 4 2323 2320 2321 2324
3108 4 2323 2320 2321 2325
3109 4 2324 2321 2326 2328
3110 4 2324 2321 2326 2329
3111 4 2325 2321 2326 2328
3112 4 2325 2321 2326 2329
3113 4 2328 2326 2327 2330
3114 4 2328 2326 2327 2331
3115 4 2329 2326 2327 2330
3116 4 2329 2326 2327 2331
3117 4 2330 2327 2332 2334
3118 4 2330 2327 2332 2335
3119 4 2331 2327 2332 2334
3120 4 2331 2327 2332 2335
3121 4 2334 2332 2333 2336
3122 4 2334 2332 2333 2337
3123 4 2335 2332 2333 2336
3124 4 2335 2332 2333 2337
3125 4 2336 2333 2338 2340
3126 4 2336 2333 2338 2341
3127 4 2337 2333 2338 2340
3128 4 2337 2333 2338 2341
3129 4 2340 2338 2339 2342
3130 4 2340 2338 2339 2343
3131 4 2341 2338 2339 2342
3132 4 2341 2338 2339 2343
3133 4 2342 2339 2344 2346
3134 4 2342 2339 2344 2347
3135 4 2343 2339 2344 2346
3136 4 2343 2339 2344 2347
3137 4 2346 2344 2345 2348
3138 4 2346 2344 2345 2349
3139 4 2347 2344 2345 2348
3140 4 2347 2344 2345 2349
3141 4 2348 2345 2350 2352
3142 4 2348 2345 2350 2353
3143 4 2349 2345 2350 2352
3144 4 2349 2345 2350 2353
3145 4 2352 2350 2351 2354
3146 4 2352 2350 2351 2355
3147 4 2353 2350 2351 2354
3148 4 2353 2350 2351 2355
3149 4 2354 2351 2356 2358
3150 4 2354 2351 2356 2359
3151 4 2355 2351 2356 2358
3152 4 2355 2351 2356 2359
3153 4 2358 2356 2357 2360
3154 4 2358 2356 2357 2361
3155 4 2359 2356 2357 2360
3156 4 2359 2356 2357 2361
3157 4 2360 2357 2362 2364
3158 4 2360 2357 2362 2365
3159 4 2361 2357 2362 2364
3160 4 2361 2357 2362 2365
3161 4 2364 2362 2363 2366
3162 4 2364 2362 2363 2367
3163 4 2365 2362 2363 2366
3164 4 2365 2362 2363 2367
3165 4 2366 2363 2368 2370
3166 4 2366 2363 2368 2371
3167 4 2367 2363 2368 2370
3168 4 2367 2363 2368 2371
3169 4 2370 2368 2369 2372
3170 4 2370 2368 2369 2373
3171 4 2371 2368 2369 2372
3172 4 2371 2368 2369 2373
3173 4 2372 2369 2374 2376
3174 4 2372 2369 2374 2377
3175 4 2373 2369 2374 2376
3176 4 2373 2369 2374 2377
3177 4 2376 2374 2375 2378
3178 4 2376 2374 2375 2379
3179 4 2377 2374 2375 2378
3180 4 2377 2374 2375 2379
3181 4 2378 2375 2380 2382
3182 4 2378 2375 2380 2383
3183 4 2379 2375 2380 2382
3184 4 2379 2375 2380 2383
3185 4 2382 2380 2381 2384
3186 4 2382 2380 2381 2385
3187 4 2383 2380 2381 2384
3188 4 2383 2380 2381 2385
3189 4 2384 2381 2386 2388
3190 4 2384 2381 2386 2389
3191 4 2385 2381 2386 2388
3192 4 2385 2381 2386 2389
3193 4 2388 2386 2387 2390
3194 4 2388 2386 2387 2391
3195 4 2389 2386 2387 2390
3196 4 2389 2386 2387 2391
3197 4 2390 2387 2392 2394
3198 4 2390 2387 2392 2395
3199 4 2391 2387 2392 2394
3200 4 2391 2387 2392 2395
3201 4 2394 2392 2393 2396
3202 4 2394 2392 2393 2397
3203 4 2395 2392 2393 2396
3204 4 2395 2392 2393 2397
3205 4 2396 2393 2398 2400
3206 4 2396 2393 2398 2401
3207 4 2397 2393 2398 2400
3208 4 2397 2393 2398 2401
3209 4 2400 2398 2399 2402
3210 4 2400 2398 2399 2403
3211 4 2401 2398 2399 2402
3212 4 2401 2398 2399 2403
3213 4 2402 2399 2404 2406
3214 4 2402 2399 2404 2407
3215 4 2403 2399 2404 2406
3216 4 2403 2399 2404 2407
3217 4 2406 2404 2405 2408
3218 4 2406 2404 2405 2409
3219 4 2407 2404 2405 2408
3220 4 2407 2404 2405 2409
3221 4 2408 2405 2410 2412
3222 4 2408 2405 2410 2413
3223 4 2409 2405 2410 2412
3224 4 2409 2405 2410 2413
3225 4 2422 2418 2424 2426
3226 4 2422 2418 2424 2427
3227 4 2423 2418 2424 2426
3228 4 2423 2418 2424 2427
3229 4 2426 2424 2425 2428
3230 4 2426 2424 2425 2429
3231 4 2427 2424 2425 2428
3232 4 2427 2424 2425 2429
3233 4 2428 2425 2430 2432
3234 4 2428 2425 2430 2433
3235 4 2429 2425 2430 2432
3236 4 2429 2425 2430 2433
3237 4 2432 2430 2431 2434
3238 4 2432 2430 2431 2435
3239 4 2433 2430 2431 2434
3240 4 2433 2430 2431 2435
3241 4 2434 2431 2436 2438
3242 4 2434 2431 2436 2439
3243 4 2435 2431 2436 2438
3244 4 2435 2431 2436 2439
3245 4 2438 2436 2437 2440
3246 4 2438 2436 2437 2441
3247 4 2439 2436 2437 2440
3248 4 2439 2436 2437 2441
3249 4 2440 2437 2442 2444
3250 4 2440 2437 2442 2445
3251 4 2441 2437 2442 2444
3252 4 2441 2437 2442 2445
3253 4 2444 2442 2443 2446
3254 4 2444 2442 2443 2447
3255 4 2445 2442 2443 2446
3256 4 2445 2442 2443 2447
3257 4 2446 2443 2448 2450
3258 4 2446 2443 2448 2451
3259 4 2447 2443 2448 2450
3260 4 2447 2443 2448 2451
3261 4 2450 2448 2449 2452
3262 4 2450 2448 2449 2453
3263 4 2451 2448 2449 2452
3264 4 2451 2448 2449 2453
3265 4 2452 2449 2454 2456
3266 4 2452 2449 2454 2457
3267 4 2453 2449 2454 2456
3268 4 2453 2449 2454 2457
3269 4 2456 2454 2455 2458
3270 4 2456 2454 2455 2459
3271 4 2457 2454 2455 2458
3272 4 2457 2454 2455 2459
3273 4 2458 2455 2460 2462
3274 4 2458 2455 2460 2463
3275 4 2459 2455 2460 2462
3276 4 2459 2455 2460 2463
3277 4 2462 2460 2461 2464
3278 4 2462 2460 2461 2465
3279 4 2463 2460 2461 2464
3280 4 2463 2460 2461 2465
3281 4 2464 2461 2466 2468
3282 4 2464 2461 2466 2469
3283 4 2465 2461 2466 2468
3284 4 2465 2461 2466 2469
3285 4 2468 2466 2467 2470
3286 4 2468 2466 2467 2471
3287 4 2469 2466 2467 2470
3288 4 2469 2466 2467 2471
3289 4 2470 2467 2472 2474
3290 4 2470 2467 2472 2475
3291 4 2471 2467 2472 2474
3292 4 2471 2467 2472 2475
3293 4 2474 2472 2473 2476
3294 4 2474 2472 2473 2477
3295 4 2475 2472 2473 2476
3296 4 2475 2472 2473 2477
3297 4 2476 2473 2478 2480
3298 4 2476 2473 2478 2481
3299 4 2477 2473 2478 2480
3300 4 2477 2473 2478 2481
3301 4 2480 2478 2479 2482
3302 4 2480 2478 2479 2483
3303 4 2481 2478 2479 2482
3304 4 2481 2478 2479 2483
3305 4 2482 2479 2484 2486
3306 4 2482 2479 2484 2487
3307 4 2483 2479 2484 2486
3308 4 2483 2479 2484 2487
3309 4 2486 2484 2485 2488
3310 4 2486 2484 2485 2489
3311 4 2487 2484 2485 2488
3312 4 2487 2484 2485 2489
3313 4 2488 2485 2490 2492
3314 4 2488 2485 2490 2493
3315 4 2489 2485 2490 2492
3316 4 2489 2485 2490 2493
3317 4 2492 2490 2491 2494
3318 4 2492 2490 2491 2495
3319 4 2493 2490 2491 2494
3320 4 2493 2490 2491 2495
3321 4 2494 2491 2496 2498
3322 4 2494 2491 2496 2499
3323 4 2495 2491 2496 2498
3324 4 2495 2491 2496 2499
3325 4 2498 2496 2497 2500
3326 4 2498 2496 2497 2501
3327 4 2499 2496 2497 2500
3328 4 2499 2496 2497 2501
3329 4 2500 2497 2502 2504
3330 4 2500 2497 2502 2505
3331 4 2501 2497 2502 2504
3332 4 2501 2497 2502 2505
3333 4 2504 2502 2503 2506
3334 4 2504 2502 2503 2507
3335 4 2505 2502 2503 2506
3336 4 2505 2502 2503 2507
3337 4 2506 2503 2508 2510
3338 4 2506 2503 2508 2511
3339 4 2507 2503 2508 2510
3340 4 2507 2503 2508 2511
3341 4 2510 2508 2509 2512
3342 4 2510 2508 2509 2513
3343 4 2511 2508 2509 2512
3344 4 2511 2508 2509 2513
3345 4 2512 2509 2514 2516
3346 4 2512 2509 2514 2517
3347 4 2513 2509 2514 2516
3348 4 2513 2509 2514 2517
3349 4 2516 2514 2515 2518
3350 4 2516 2514 2515 2519
3351 4 2517 2514 2515 2518
3352 4 2517 2514 2515 2519
3353 4 2518 2515 2520 2522
3354 4 2518 2515 2520 2523
3355 4 2519 2515 2520 2522
3356 4 2519 2515 2520 2523
3357 4 2522 2520 2521 2524
3358 4 2522 2520 2521 2525
3359 4 2523 2520 2521 2524
3360 4 2523 2520 2521 2525
3361 4 2524 2521 2526 2528
3362 4 2524 2521 2526 2529
3363 4 2525 2521 2526 2528
3364 4 2525 2521 2526 2529
3365 4 2528 2526 2527 2530
3366 4 2528 2526 2527 2531
3367 4 2529 2526 2527 2530
3368 4 2529 2526 2527 2531
3369 4 2530 2527 2532 2534
3370 4 2530 2527 2532 2535
3371 4 2531 2527 2532 2534
3372 4 2531 2527 2532 2535
3373 4 2534 2532 2533 2536
3374 4 2534 2532 2533 2537
3375 4 2535 2532 2533 2536
3376 4 2535 2532 2533 2537
3377 4 2536 2533 2538 2540
3378 4 2536 2533 2538 2541
3379 4 2537 2533 2538 2540
3380 4 2537 2533 2538 2541
3381 4 2540 2538 2539 2542
3382 4 2540 2538 2539 2543
3383 4 2541 2538 2539 2542
3384 4 2541 2538 2539 2543
3385 4 2542 2539 2544 2546
3386 4 2542 2539 2544 2547
3387 4 2543 2539 2544 2546
3388 4 2543 2539 2544 2547
3389 4 2546 2544 2545 2548
3390 4 2546 2544 2545 2549
3391 4 2547 2544 2545 2548
3392 4 2547 2544 2545 2549
3393 4 2548 2545 2550 2552
3394 4 2548 2545 2550 2553
3395 4 2549 2545 2550 2552
3396 4 2549 2545 2550 2553
3397 4 2552 2550 2551 2554
3398 4 2552 2550 2551 2555
3399 4 2553 2550 2551 2554
3400 4 2553 2550 2551 2555
3401 4 2554 2551 2556 2558
3402 4 2554 2551 2556 2559
3403 4 2555 2551 2556 2558
3404 4 2555 2551 2556 2559
3405 4 2558 2556 2557 2560
3406 4 2558 2556 2557 2561
3407 4 2559 2556 2557 2560
3408 4 2559 2556 2557 2561
3409 4 2560 2557 2562 2564
3410 4 2560 2557 2562 2565
3411 4 2561 2557 2562 2564
3412 4 2561 2557 2562 2565
3413 4 2564 2562 2563 2566
3414 4 2564 2562 2563 2567
3415 4 2565 2562 2563 2566
3416 4 2565 2562 2563 2567
3417 4 2566 2563 2568 2570
3418 4 2566 2563 2568 2571
3419 4 2567 2563 2568 2570
3420 4 2567 2563 2568 2571
3421 4 2570 2568 2569 2572
3422 4 2570 2568 2569 2573
3423 4 2571 2568 2569 2572
3424 4 2571 2568 2569 2573
3425 4 2572 2569 2574 2576
3426 4 2572 2569 2574 2577
3427 4 2573 2569 2574 2576
3428 4 2573 2569 2574 2577
3429 4 2576 2574 2575 2578
3430 4 2576 2574 2575 2579
3431 4 2577 2574 2575 2578
3432 4 2577 2574 2575 2579
3433 4 2578 2575 2580 2582
3434 4 2578 2575 2580 2583
3435 4 2579 2575 2580 2582
3436 4 2579 2575 2580 2583
3437 4 2582 2580 2581 2584
3438 4 2582 2580 2581 2585
3439 4 2583 2580 2581 2584
3440 4 2583 2580 2581 2585
3441 4 2584 2581 2586 2588
3442 4 2584 2581 2586 2589
3443 4 2585 2581 2586 2588
3444 4 2585 2581 2586 2589
3445 4 2588 2586 2587 2590
3446 4 2588 2586 2587 2591
3447 4 2589 2586 2587 2590
3448 4 2589 2586 2587 2591
3449 4 2590 2587 2592 2594
3450 4 2590 2587 2592 2595
3451 4 2591 2587 2592 2594
3452 4 2591 2587 2592 2595
3453 4 2594 2592 2593 2596
3454 4 2594 2592 2593 2597
3455 4 2595 2592 2593 2596
3456 4 2595 2592 2593 2597
3457 4 2596 2593 2598 2600
3458 4 2596 2593 2598 2601
3459 4 2597 2593 2598 2600
3460 4 2597 2593 2598 2601
3461 4 2600 2598 2599 2602
3462 4 2600 2598 2599 2603
3463 4 2601 2598 2599 2602
3464 4 2601 2598 2599 2603
3465 4 2602 2599 2604 2606
3466 4 2602 2599 2604 2607
3467 4 2603 2599 2604 2606
3468 4 2603 2599 2604 2607
3469 4 2606 2604 2605 2608
3470 4 2606 2604 2605 2609
3471 4 2607 2604 2605 2608
3472 4 2607 2604 2605 2609
3473 4 2608 2605 2610 2612
3474 4 2608 2605 2610 2613
3475 4 2609 2605 2610 2612
3476 4 2609 2605 2610 2613
3477 4 2612 2610 2611 2614
3478 4 2612 2610 2611 2615
3479 4 2613 2610 2611 2614
3480 4 2613 2610 2611 2615
3481 4 2614 2611 2616 2618
3482 4 2614 2611 2616 2619
3483 4 2615 2611 2616 2618
3484 4 2615 2611 2616 2619
3485 4 2618 2616 2617 2620
3486 4 2618 2616 2617 2621
3487 4 2619 2616 2617 2620
3488 4 2619 2616 2617 2621
3489 4 2620 2617 2622 2624
3490 4 2620 2617 2622 2625
3491 4 2621 2617 2622 2624
3492 4 2621 2617 2622 2625
3493 4 2624 2622 2623 2626
3494 4 2624 2622 2623 2627
3495 4 2625 2622 2623 2626
3496 4 2625 2622 2623 2627
3497 4 2626 2623 2628 2630
3498 4 2626 2623 2628 2631
3499 4 2627 2623 2628 2630
3500 4 2627 2623 2628 2631
3501 4 2630 2628 2629 2632
3502 4 2630 2628 2629 2633
3503 4 2631 2628 2629 2632
3504 4 2631 2628 2629 2633
3505 4 2632 2629 2634 2636
3506 4 2632 2629 2634 2637
3507 4 2633 2629 2634 2636
3508 4 2633 2629 2634 2637
3509 4 2636 2634 2635 2638
3510 4 2636 2634 2635 2639
3511 4 2637 2634 2635 2638
3512 4 2637 2634 2635 2639
3513 4 2638 2635 2640 2642
3514 4 2638 2635 2640 2643
3515 4 2639 2635 2640 2642
3516 4 2639 2635 2640 2643
3517 4 2642 2640 2641 2644
3518 4 2642 2640 2641 2645
3519 4 2643 2640 2641 2644
3520 4 2643 2640 2641 2645
3521 4 2644 2641 2646 2648
3522 4 2644 2641 2646 2649
3523 4 2645 2641 2646 2648
3524 4 2645 2641 2646 2649
3525 4 2648 2646 2647 2650
3526 4 2648 2646 2647 2651
3527 4 2649 2646 2647 2650
3528 4 2649 2646 2647 2651
3529 4 2650 2647 2652 2654
3530 4 2650 2647 2652 2655
3531 4 2651 2647 2652 2654
3532 4 2651 2647 2652 2655
3533 4 2654 2652 2653 2656
3534 4 2654 2652 2653 2657
3535 4 2655 2652 2653 2656
3536 4 2655 2652 2653 2657
3537 4 2656 2653 2658 2660
3538 4 2656 2653 2658 2661
3539 4 2657 2653 2658 2660
3540 4 2657 2653 2658 2661
3541 4 2660 2658 2659 2662
3542 4 2660 2658 2659 2663
3543 4 2661 2658 2659 2662
3544 4 2661 2658 2659 2663
3545 4 2662 2659 2664 2666
3546 4 2662 2659 2664 2667
3547 4 2663 2659 2664 2666
3548 4 2663 2659 2664 2667
3549 4 2666 2664 2665 2668
3550 4 2666 2664 2665 2669
3551 4 2667 2664 2665 2668
3552 4 2667 2664 2665 2669
3553 4 2668 2665 2670 2672
3554 4 2668 2665 2670 2673
3555 4 2669 2665 2670 2672
3556 4 2669 2665 2670 2673
3557 4 2672 2670 2671 2674
3558 4 2672 2670 2671 2675
3559 4 2673 2670 2671 2674
3560 4 2673 2670 2671 2675
3561 4 2674 2671 2676 2678
3562 4 2674 2671 2676 2679
3563 4 2675 2671 2676 2678
3564 4 2675 2671 2676 2679
3565 4 2678 2676 2677 2680
3566 4 2678 2676 2677 2681
3567 4 2679 2676 2677 2680
3568 4 2679 2676 2677 2681
3569 4 2680 2677 2682 2684
3570 4 2680 2677 2682 2685
3571 4 2681 2677 2682 2684
3572 4 2681 2677 2682 2685
3573 4 2684 2682 2683 2686
3574 4 2684 2682 2683 2687
3575 4 2685 2682 2683 2686
3576 4 2685 2682 2683 2687
3577 4 2686 2683 2688 2690
3578 4 2686 2683 2688 2691
3579 4 2687 2683 2688 2690
3580 4 2687 2683 2688 2691
3581 4 2690 2688 2689 2692
3582 4 2690 2688 2689 2693
3583 4 2691 2688 2689 2692
3584 4 2691 2688 2689 2693
3585 4 2692 2689 2694 2696
3586 4 2692 2689 2694 2697
3587 4 2693 2689 2694 2696
3588 4 2693 2689 2694 2697
3589 4 2696 2694 2695 2698
3590 4 2696 2694 2695 2699
3591 4 2697 2694 2695 2698
3592 4 2697 2694 2695 2699
3593 4 2698 2695 2700 2702
3594 4 2698 2695 2700 2703
3595 4 2699 2695 2700 2702
3596 4 2699 2695 2700 2703
3597 4 2702 2700 2701 2704
3598 4 2702 2700 2701 2705
3599 4 2703 2700 2701 2704
3600 4 2703 2700 2701 2705
3601 4 2704 2701 2706 2708
3602 4 2704 2701 2706 2709
3603 4 2705 2701 2706 2708
3604 4 2705 2701 2706 2709
3605 4 2708 2706 2707 2710
3606 4 2708 2706 2707 2711
3607 4 2709 2706 2707 2710
3608 4 2709 2706 2707 2711
3609 4 2710 2707 2712 2714
3610 4 2710 2707 2712 2715
3611 4 2711 2707 2712 2714
3612 4 2711 2707 2712 2715
3613 4 2724 2720 2726 2728
3614 4 2724 2720 2726 2729
3615 4 2725 2720 2726 2728
3616 4 2725 2720 2726 2729
3617 4 2728 2726 2727 2730
3618 4 2728 2726 2727 2731
3619 4 2729 2726 2727 2730
3620 4 2729 2726 2727 2731
3621 4 2730 2727 2732 2734
3622 4 2730 2727 2732 2735
3623 4 2731 2727 2732 2734
3624 4 2731 2727 2732 2735
3625 4 2734 2732 2733 2736
3626 4 2734 2732 2733 2737
3627 4 2735 2732 2733 2736
3628 4 2735 2732 2733 2737
3629 4 2736 2733 2738 2740
3630 4 2736 2733 2738 2741
3631 4 2737 2733 2738 2740
3632 4 2737 2733 2738 2741
3633 4 2740 2738 2739 2742
3634 4 2740 2738 2739 2743
3635 4 2741 2738 2739 2742
3636 4 2741 2738 2739 2743
3637 4 2742 2739 2744 2746
3638 4 2742 2739 2744 2747
3639 4 2743 2739 2744 2746
3640 4 2743 2739 2744 2747
3641 4 2746 2744 2745 2748
3642 4 2746 2744 2745 2749
3643 4 2747 2744 2745 2748
3644 4 2747 2744 2745 2749
3645 4 2748 2745 2750 2752
3646 4 2748 2745 2750 2753
3647 4 2749 2745 2750 2752
3648 4 2749 2745 2750 2753
3649 4 2752 2750 2751 2754
3650 4 2752 2750 2751 2755
3651 4 2753 2750 2751 2754
3652 4 2753 2750 2751 2755
3653 4 2754 2751 2756 2758
3654 4 2754 2751 2756 2759
3655 4 2755 2751 2756 2758
3656 4 2755 2751 2756 2759
3657 4 2758 2756 2757 2760
3658 4 2758 2756 2757 2761
3659 4 2759 2756 2757 2760
3660 4 2759 2756 2757 2761
3661 4 2760 2757 2762 2764
3662 4 2760 2757 2762 2765
3663 4 2761 2757 2762 2764
3664 4 2761 2757 2762 2765
3665 4 2764 2762 2763 2766
3666 4 2764 2762 2763 2767
3667 4 2765 2762 2763 2766
3668 4 2765 2762 2763 2767
3669 4 2766 2763 2768 2770
3670 4 2766 2763 2768 2771
3671 4 2767 2763 2768 2770
3672 4 2767 2763 2768 2771
3673 4 2770 2768 2769 2772
3674 4 2770 2768 2769 2773
3675 4 2771 2768 2769 2772
3676 4 2771 2768 2769 2773
3677 4 2772 2769 2774 2776
3678 4 2772 2769 2774 2777
3679 4 2773 2769 2774 2776
3680 4 2773 2769 2774 2777
3681 4 2776 2774 2775 2778
3682 4 2776 2774 2775 2779
3683 4 2777 2774 2775 2778
3684 4 2777 2774 2775 2779
3685 4 2778 2775 2780 2782
3686 4 2778 2775 2780 2783
3687 4 2779 2775 2780 2782
3688 4 2779 2775 2780 2783
3689 4 2782 2780 2781 2784
3690 4 2782 2780 2781 2785
3691 4 2783 2780 2781 2784
3692 4 2783 2780 2781 2785
3693 4 2784 2781 2786 2788
3694 4 2784 2781 2786 2789
3695 4 2785 2781 2786 2788
3696 4 2785 2781 2786 2789
3697 4 2788 2786 2787 2790
3698 4 2788 2786 2787 2791
3699 4 2789 2786 2787 2790
3700 4 2789 2786 2787 2791
3701 4 2790 2787 2792 2794
3702 4 2790 2787 2792 2795
3703 4 2791 2787 2792 2794
3704 4 2791 2787 2792 2795
3705 4 2794 2792 2793 2796
3706 4 2794 2792 2793 2797
3707 4 2795 2792 2793 2796
3708 4 2795 2792 2793 2797
3709 4 2796 2793 2798 2800
3710 4 2796 2793 2798 2801
3711 4 2797 2793 2798 2800
3712 4 2797 2793 2798 2801
3713 4 2800 2798 2799 2802
3714 4 2800 2798 2799 2803
3715 4 2801 2798 2799 2802
3716 4 2801 2798 2799 2803
3717 4 2802 2799 2804 2806
3718 4 2802 2799 2804 2807
3719 4 2803 2799 2804 2806
3720 4 2803 2799 2804 2807
3721 4 2806 2804 2805 2808
3722 4 2806 2804 2805 2809
3723 4 2807 2804 2805 2808
3724 4 2807 2804 2805 2809
3725 4 2808 2805 2810 2812
3726 4 2808 2805 2810 2813
3727 4 2809 2805 2810 2812
3728 4 2809 2805 2810 2813
3729 4 2812 2810 2811 2814
3730 4 2812 2810 2811 2815
3731 4 2813 2810 2811 2814
3732 4 2813 2810 2811 2815
3733 4 2814 2811 2816 2818
3734 4 2814 2811 2816 2819
3735 4 2815 2811 2816 2818
3736 4 2815 2811 2816 2819
3737 4 2818 2816 2817 2820
3738 4 2818 2816 2817 2821
3739 4 2819 2816 2817 2820
3740 4 2819 2816 2817 2821
3741 4 2820 2817 2822 2824
3742 4 2820 2817 2822 2825
3743 4 2821 2817 2822 2824
3744 4 2821 2817 2822 2825
3745 4 2824 2822 2823 2826
3746 4 2824 2822 2823 2827
3747 4 2825 2822 2823 2826
3748 4 2825 2822 2823 2827
3749 4 2826 2823 2828 2830
3750 4 2826 2823 2828 2831
3751 4 2827 2823 2828 2830
3752 4 2827 2823 2828 2831
3753 4 2830 2828 2829 2832
3754 4 2830 2828 2829 2833
3755 4 2831 2828 2829 2832
3756 4 2831 2828 2829 2833
3757 4 2832 2829 2834 2836
3758 4 2832 2829 2834 2837
3759 4 2833 2829 2834 2836
3760 4 2833 2829 2834 2837
3761 4 2836 2834 2835 2838
3762 4 2836 2834 2835 2839
3763 4 2837 2834 2835 2838
3764 4 2837 2834 2835 2839
3765 4 2838 2835 2840 2842
3766 4 2838 2835 2840 2843
3767 4 2839 2835 2840 2842
3768 4 2839 2835 2840 2843
3769 4 2842 2840 2841 2844
3770 4 2842 2840 2841 2845
3771 4 2843 2840 2841 2844
3772 4 2843 2840 2841 2845
3773 4 2844 2841 2846 2848
3774 4 2844 2841 2846 2849
3775 4 2845 2841 2846 2848
3776 4 2845 2841 2846 2849
3777 4 2848 2846 2847 2850
3778 4 2848 2846 2847 2851
3779 4 2849 2846 2847 2850
3780 4 2849 2846 2847 2851
3781 4 2850 2847 2852 2854
3782 4 2850 2847 2852 2855
3783 4 2851 2847 2852 2854
3784 4 2851 2847 2852 2855
3785 4 2854 2852 2853 2856
3786 4 2854 2852 2853 2857
3787 4 2855 2852 2853 2856
3788 4 2855 2852 2853 2857
3789 4 2856 2853 2858 2860
3790 4 2856 2853 2858 2861
3791 4 2857 2853 2858 2860
3792 4 2857 2853 2858 2861
3793 4 2860 2858 2859 2862
3794 4 2860 2858 2859 2863
3795 4 2861 2858 2859 2862
3796 4 2861 2858 2859 2863
3797 4 2862 2859 2864 2866
3798 4 2862 2859 2864 2867
3799 4 2863 2859 2864 2866
3800 4 2863 2859 2864 2867
3801 4 2866 2864 2865 2868
3802 4 2866 2864 2865 2869
3803 4 2867 2864 2865 2868
3804 4 2867 2864 2865 2869
3805 4 2868 2865 2870 2872
3806 4 2868 2865 2870 2873
3807 4 2869 2865 2870 2872
3808 4 2869 2865 2870 2873
3809 4 2872 2870 2871 2874
3810 4 2872 2870 2871 2875
3811 4 2873 2870 2871 2874
3812 4 2873 2870 2871 2875
3813 4 2874 2871 2876 2878
3814 4 2874 2871 2876 2879
3815 4 2875 2871 2876 2878
3816 4 2875 2871 2876 2879
3817 4 2878 2876 2877 2880
3818 4 2878 2876 2877 2881
3819 4 2879 2876 2877 2880
3820 4 2879 2876 2877 2881
3821 4 2880 2877 2882 2884
3822 4 2880 2877 2882 2885
3823 4 2881 2877 2882 2884
3824 4 2881 2877 2882 2885
3825 4 2884 2882 2883 2886
3826 4 2884 2882 2883 2887
3827 4 2885 2882 2883 2886
3828 4 2885 2882 2883 2887
3829 4 2886 2883 2888 2890
3830 4 2886 2883 2888 2891
3831 4 2887 2883 2888 2890
3832 4 2887 2883 2888 2891
3833 4 2890 2888 2889 2892
3834 4 2890 2888 2889 2893
3835 4 2891 2888 2889 2892
3836 4 2891 2888 2889 2893
3837 4 2892 2889 2894 2896
3838 4 2892 2889 2894 2897
3839 4 2893 2889 2894 2896
3840 4 2893 2889 2894 2897
3841 4 2896 2894 2895 2898
3842 4 2896 2894 2895 2899
3843 4 2897 2894 2895 2898
3844 4 2897 2894 2895 2899
3845 4 2898 2895 2900 2902
3846 4 2898 2895 2900 2903
3847 4 2899 2895 2900 2902
3848 4 2899 2895 2900 2903
3849 4 2902 2900 2901 2904
3850 4 2902 2900 2901 2905
3851 4 2903 2900 2901 2904
3852 4 2903 2900 2901 2905
3853 4 2904 2901 2906 2908
3854 4 2904 2901 2906 2909
3855 4 2905 2901 2906 2908
3856 4 2905 2901 2906 2909
3857 4 2908 2906 2907 2910
3858 4 2908 2906 2907 2911
3859 4 2909 2906 2907 2910
3860 4 2909 2906 2907 2911
3861 4 2910 2907 2912 2914
3862 4 2910 2907 2912 2915
3863 4 2911 2907 2912 2914
3864 4 2911 2907 2912 2915
3865 4 2914 2912 2913 2916
3866 4 2914 2912 2913 2917
3867 4 2915 2912 2913 2916
3868 4 2915 2912 2913 2917
3869 4 2916 2913 2918 2920
3870 4 2916 2913 2918 2921
3871 4 2917 2913 2918 2920
3872 4 2917 2913 2918 2921
3873 4 2920 2918 2919 2922
3874 4 2920 2918 2919 2923
3875 4 2921 2918 2919 2922
3876 4 2921 2918 2919 2923
3877 4 2922 2919 2924 2926
3878 4 2922 2919 2924 2927
3879 4 2923 2919 2924 2926
3880 4 2923 2919 2924 2927
3881 4 2926 2924 2925 2928
3882 4 2926 2924 2925 2929
3883 4 2927 2924 2925 2928
3884 4 2927 2924 2925 2929
3885 4 2928 2925 2930 2932
3886 4 2928 2925 2930 2933
3887 4 2929 2925 2930 2932
3888 4 2929 2925 2930 2933
3889 4 2932 2930 2931 2934
3890 4 2932 2930 2931 2935
3891 4 2933 2930 2931 2934
3892 4 2933 2930 2931 2935
3893 4 2934 2931 2936 2938
3894 4 2934 2931 2936 2939
3895 4 2935 2931 2936 2938
3896 4 2935 2931 2936 2939
3897 4 2938 2936 2937 2940
3898 4 2938 2936 2937 2941
3899 4 2939 2936 2937 2940
3900 4 2939 2936 2937 2941
3901 4 2940 2937 2942 2944
3902 4 2940 2937 2942 2945
3903 4 2941 2937 2942 2944
3904 4 2941 2937 2942 2945
3905 4 2944 2942 2943 2946
3906 4 2944 2942 2943 2947
3907 4 2945 2942 2943 2946
3908 4 2945 2942 2943 2947
3909 4 2946 2943 2948 2950
3910 4 2946 2943 2948 2951
3911 4 2947 2943 2948 2950
3912 4 2947 2943 2948 2951
3913 4 2950 2948 2949 2952
3914 4 2950 2948 2949 2953
3915 4 2951 2948 2949 2952
3916 4 2951 2948 2949 2953
3917 4 2952 2949 2954 2956
3918 4 2952 2949 2954 2957
3919 4 2953 2949 2954 2956
3920 4 2953 2949 2954 2957
3921 4 2956 2954 2955 2958
3922 4 2956 2954 2955 2959
3923 4 2957 2954 2955 2958
3924 4 2957 2954 2955 2959
3925 4 2958 2955 2960 2962
3926 4 2958 2955 2960 2963
3927 4 2959 2955 2960 2962
3928 4 2959 2955 2960 2963
3929 4 2962 2960 2961 2964
3930 4 2962 2960 2961 2965
3931 4 2963 2960 2961 2964
3932 4 2963 2960 2961 2965
3933 4 2964 2961 2966 2968
3934 4 2964 2961 2966 2969
3935 4 2965 2961 2966 2968
3936 4 2965 2961 2966 2969
3937 4 2968 2966 2967 2970
3938 4 2968 2966 2967 2971
3939 4 2969 2966 2967 2970
3940 4 2969 2966 2967 2971
3941 4 2970 2967 2972 2974
3942 4 2970 2967 2972 2975
3943 4 2971 2967 2972 2974
3944 4 2971 2967 2972 2975
3945 4 2974 2972 2973 2976
3946 4 2974 2972 2973 2977
3947 4 2975 2972 2973 2976
3948 4 2975 2972 2973 2977
3949 4 2976 2973 2978 2980
3950 4 2976 2973 2978 2981
3951 4 2977 2973 2978 2980
3952 4 2977 2973 2978 2981
3953 4 2980 2978 2979 2982
3954 4 2980 2978 2979 2983
3955 4 2981 2978 2979 2982
3956 4 2981 2978 2979 2983
3957 4 2982 2979 2984 2986
3958 4 2982 2979 2984 2987
3959 4 2983 2979 2984 2986
3960 4 2983 2979 2984 2987
3961 4 2986 2984 2985 2988
3962 4 2986 2984 2985 2989
3963 4 2987 2984 2985 2988
3964 4 2987 2984 2985 2989
3965 4 2988 2985 2990 2992
3966 4 2988 2985 2990 2993
3967 4 2989 2985 2990 2992
3968 4 2989 2985 2990 2993
3969 4 2992 2990 2991 2994
3970 4 2992 2990 2991 2995
3971 4 2993 2990 2991 2994
3972 4 2993 2990 2991 2995
3973 4 2994 2991 2996 2998
3974 4 2994 2991 2996 2999
3975 4 2995 2991 2996 2998
3976 4 2995 2991 2996 2999
3977 4 2998 2996 2997 3000
3978 4 2998 2996 2997 3001
3979 4 2999 2996 2997 3000
3980 4 2999 2996 2997 3001
3981 4 3000 2997 3002 3004
3982 4 3000 2997 3002 3005
3983 4 3001 2997 3002 3004
3984 4 3001 2997 3002 3005
3985 4 3004 3002 3003 3006
3986 4 3004 3002 3003 3007
3987 4 3005 3002 3003 3006
3988 4 3005 3002 3003 3007
3989 4 3006 3003 3008 3010
3990 4 3006 3003 3008 3011
3991 4 3007 3003 3008 3010
3992 4 3007 3003 3008 3011
3993 4 3010 3008 3009 3012
3994 4 3010 3008 3009 3013
3995 4 3011 3008 3009 3012
3996 4 3011 3008 3009 3013
3997 4 3012 3009 3014 3016
3998 4 3012 3009 3014 3017
3999 4 3013 3009 3014 3016
4000 4 3013 3009 3014 3017

