    pair_coeff 1 1 lj/cut/coul/long 0.066 3.5
    pair_coeff 2 2 lj/cut/coul/long 0.066 3.5
    pair_coeff 3 3 lj/cut/coul/long 0.066 3.5
    pair_coeff 4 4 lj/cut/coul/long 0.066 3.5
    pair_coeff 5 5 lj/cut/coul/long 0.03 2.5
    pair_coeff 6 6 lj/cut/coul/long 0.105 3.75
    pair_coeff 7 7 lj/cut/coul/long 0.21 2.96
    pair_coeff 8 8 lj/cut/coul/long 0.17 3.0
    pair_coeff 9 9 lj/cut/coul/long 0.066 3.5
    bond_coeff 1 harmonic 350.0 1.51
    bond_coeff 2 harmonic 570.0 1.229
    bond_coeff 3 harmonic 317.0 1.522
    bond_coeff 4 harmonic 317.0 1.522
    bond_coeff 5 harmonic 317.0 1.522
    bond_coeff 6 harmonic 317.0 1.522
    bond_coeff 7 harmonic 317.0 1.522
    bond_coeff 8 harmonic 214.0 1.327
    bond_coeff 9 harmonic 340.0 1.09
    bond_coeff 10 harmonic 268.0 1.529
    bond_coeff 11 harmonic 268.0 1.529
    bond_coeff 12 harmonic 268.0 1.529
    bond_coeff 13 harmonic 268.0 1.529
    bond_coeff 14 harmonic 268.0 1.529
    bond_coeff 15 harmonic 268.0 1.529
    bond_coeff 16 harmonic 268.0 1.529
    bond_coeff 17 harmonic 268.0 1.529
    bond_coeff 18 harmonic 268.0 1.529
    bond_coeff 19 harmonic 268.0 1.529
    bond_coeff 20 harmonic 268.0 1.529
    bond_coeff 21 harmonic 268.0 1.529
    bond_coeff 22 harmonic 268.0 1.529
    bond_coeff 23 harmonic 268.0 1.529
    bond_coeff 24 harmonic 268.0 1.529
    bond_coeff 25 harmonic 268.0 1.529
    bond_coeff 26 harmonic 268.0 1.529
    bond_coeff 27 harmonic 268.0 1.529
    bond_coeff 28 harmonic 268.0 1.529
    bond_coeff 29 harmonic 268.0 1.529
    bond_coeff 30 harmonic 268.0 1.529
    bond_coeff 31 harmonic 268.0 1.529
    bond_coeff 32 harmonic 268.0 1.529
    bond_coeff 33 harmonic 268.0 1.529
    bond_coeff 34 harmonic 268.0 1.529
    bond_coeff 35 harmonic 320.0 1.41
    bond_coeff 36 harmonic 320.0 1.41
    bond_coeff 37 harmonic 320.0 1.41
    bond_coeff 38 harmonic 320.0 1.41
    bond_coeff 39 harmonic 320.0 1.41
    bond_coeff 40 harmonic 340.0 1.09
    bond_coeff 41 harmonic 340.0 1.09
    bond_coeff 42 harmonic 340.0 1.09
    bond_coeff 43 harmonic 340.0 1.09
    bond_coeff 44 harmonic 340.0 1.09
    bond_coeff 45 harmonic 250.0 1.47
    angle_coeff 1 harmonic 80.0 121.4
    angle_coeff 2 harmonic 80.0 126.0
    angle_coeff 3 harmonic 70.0 116.0
    angle_coeff 4 harmonic 70.0 116.0
    angle_coeff 5 harmonic 70.0 116.0
    angle_coeff 6 harmonic 70.0 116.0
    angle_coeff 7 harmonic 70.0 116.0
    angle_coeff 8 harmonic 70.0 116.0
    angle_coeff 9 harmonic 70.0 116.0
    angle_coeff 10 harmonic 70.0 116.0
    angle_coeff 11 harmonic 70.0 116.0
    angle_coeff 12 harmonic 70.0 116.0
    angle_coeff 13 harmonic 70.0 116.0
    angle_coeff 14 harmonic 70.0 116.0
    angle_coeff 15 harmonic 70.0 116.0
    angle_coeff 16 harmonic 70.0 116.0
    angle_coeff 17 harmonic 70.0 116.0
    angle_coeff 18 harmonic 70.0 116.0
    angle_coeff 19 harmonic 70.0 116.0
    angle_coeff 20 harmonic 70.0 116.0
    angle_coeff 21 harmonic 70.0 116.0
    angle_coeff 22 harmonic 70.0 116.0
    angle_coeff 23 harmonic 70.0 116.0
    angle_coeff 24 harmonic 70.0 116.0
    angle_coeff 25 harmonic 70.0 116.0
    angle_coeff 26 harmonic 70.0 116.0
    angle_coeff 27 harmonic 70.0 116.0
    angle_coeff 28 harmonic 80.0 117.2
    angle_coeff 29 harmonic 80.0 117.2
    angle_coeff 30 harmonic 80.0 117.2
    angle_coeff 31 harmonic 80.0 117.2
    angle_coeff 32 harmonic 80.0 117.2
    angle_coeff 33 harmonic 80.0 120.4
    angle_coeff 34 harmonic 80.0 120.4
    angle_coeff 35 harmonic 80.0 120.4
    angle_coeff 36 harmonic 80.0 120.4
    angle_coeff 37 harmonic 80.0 120.4
    angle_coeff 38 harmonic 81.0 111.4
    angle_coeff 39 harmonic 81.0 111.4
    angle_coeff 40 harmonic 81.0 111.4
    angle_coeff 41 harmonic 81.0 111.4
    angle_coeff 42 harmonic 81.0 111.4
    angle_coeff 43 harmonic 83.0 123.4
    angle_coeff 44 harmonic 35.0 115.0
    angle_coeff 45 harmonic 35.0 115.0
    angle_coeff 46 harmonic 35.0 115.0
    angle_coeff 47 harmonic 35.0 115.0
    angle_coeff 48 harmonic 35.0 115.0
    angle_coeff 49 harmonic 35.0 115.0
    angle_coeff 50 harmonic 35.0 123.0
    angle_coeff 51 harmonic 40.0 115.0
    angle_coeff 52 harmonic 63.0 111.1
    angle_coeff 53 harmonic 63.0 111.1
    angle_coeff 54 harmonic 63.0 111.1
    angle_coeff 55 harmonic 63.0 111.1
    angle_coeff 56 harmonic 63.0 111.1
    angle_coeff 57 harmonic 58.35 112.7
    angle_coeff 58 harmonic 58.35 112.7
    angle_coeff 59 harmonic 58.35 112.7
    angle_coeff 60 harmonic 58.35 112.7
    angle_coeff 61 harmonic 58.35 112.7
    angle_coeff 62 harmonic 58.35 112.7
    angle_coeff 63 harmonic 58.35 112.7
    angle_coeff 64 harmonic 58.35 112.7
    angle_coeff 65 harmonic 58.35 112.7
    angle_coeff 66 harmonic 58.35 112.7
    angle_coeff 67 harmonic 58.35 112.7
    angle_coeff 68 harmonic 58.35 112.7
    angle_coeff 69 harmonic 58.35 112.7
    angle_coeff 70 harmonic 58.35 112.7
    angle_coeff 71 harmonic 58.35 112.7
    angle_coeff 72 harmonic 58.35 112.7
    angle_coeff 73 harmonic 58.35 112.7
    angle_coeff 74 harmonic 58.35 112.7
    angle_coeff 75 harmonic 58.35 112.7
    angle_coeff 76 harmonic 58.35 112.7
    angle_coeff 77 harmonic 58.35 112.7
    angle_coeff 78 harmonic 58.35 112.7
    angle_coeff 79 harmonic 58.35 112.7
    angle_coeff 80 harmonic 58.35 112.7
    angle_coeff 81 harmonic 58.35 112.7
    angle_coeff 82 harmonic 58.35 112.7
    angle_coeff 83 harmonic 58.35 112.7
    angle_coeff 84 harmonic 58.35 112.7
    angle_coeff 85 harmonic 58.35 112.7
    angle_coeff 86 harmonic 58.35 112.7
    angle_coeff 87 harmonic 58.35 112.7
    angle_coeff 88 harmonic 58.35 112.7
    angle_coeff 89 harmonic 58.35 112.7
    angle_coeff 90 harmonic 58.35 112.7
    angle_coeff 91 harmonic 58.35 112.7
    angle_coeff 92 harmonic 58.35 112.7
    angle_coeff 93 harmonic 58.35 112.7
    angle_coeff 94 harmonic 58.35 112.7
    angle_coeff 95 harmonic 58.35 112.7
    angle_coeff 96 harmonic 58.35 112.7
    angle_coeff 97 harmonic 58.35 112.7
    angle_coeff 98 harmonic 58.35 112.7
    angle_coeff 99 harmonic 58.35 112.7
    angle_coeff 100 harmonic 58.35 112.7
    angle_coeff 101 harmonic 58.35 112.7
    angle_coeff 102 harmonic 58.35 112.7
    angle_coeff 103 harmonic 58.35 112.7
    angle_coeff 104 harmonic 58.35 112.7
    angle_coeff 105 harmonic 58.35 112.7
    angle_coeff 106 harmonic 58.35 112.7
    angle_coeff 107 harmonic 58.35 112.7
    angle_coeff 108 harmonic 58.35 112.7
    angle_coeff 109 harmonic 58.35 112.7
    angle_coeff 110 harmonic 58.35 112.7
    angle_coeff 111 harmonic 58.35 112.7
    angle_coeff 112 harmonic 58.35 112.7
    angle_coeff 113 harmonic 58.35 112.7
    angle_coeff 114 harmonic 58.35 112.7
    angle_coeff 115 harmonic 58.35 112.7
    angle_coeff 116 harmonic 58.35 112.7
    angle_coeff 117 harmonic 58.35 112.7
    angle_coeff 118 harmonic 58.35 112.7
    angle_coeff 119 harmonic 58.35 112.7
    angle_coeff 120 harmonic 58.35 112.7
    angle_coeff 121 harmonic 58.35 112.7
    angle_coeff 122 harmonic 58.35 112.7
    angle_coeff 123 harmonic 58.35 112.7
    angle_coeff 124 harmonic 58.35 112.7
    angle_coeff 125 harmonic 58.35 112.7
    angle_coeff 126 harmonic 58.35 112.7
    angle_coeff 127 harmonic 58.35 112.7
    angle_coeff 128 harmonic 58.35 112.7
    angle_coeff 129 harmonic 58.35 112.7
    angle_coeff 130 harmonic 58.35 112.7
    angle_coeff 131 harmonic 58.35 112.7
    angle_coeff 132 harmonic 58.35 112.7
    angle_coeff 133 harmonic 58.35 112.7
    angle_coeff 134 harmonic 58.35 112.7
    angle_coeff 135 harmonic 58.35 112.7
    angle_coeff 136 harmonic 58.35 112.7
    angle_coeff 137 harmonic 58.35 112.7
    angle_coeff 138 harmonic 58.35 112.7
    angle_coeff 139 harmonic 58.35 112.7
    angle_coeff 140 harmonic 58.35 112.7
    angle_coeff 141 harmonic 58.35 112.7
    angle_coeff 142 harmonic 58.35 112.7
    angle_coeff 143 harmonic 58.35 112.7
    angle_coeff 144 harmonic 58.35 112.7
    angle_coeff 145 harmonic 58.35 112.7
    angle_coeff 146 harmonic 58.35 112.7
    angle_coeff 147 harmonic 58.35 112.7
    angle_coeff 148 harmonic 58.35 112.7
    angle_coeff 149 harmonic 58.35 112.7
    angle_coeff 150 harmonic 58.35 112.7
    angle_coeff 151 harmonic 58.35 112.7
    angle_coeff 152 harmonic 58.35 112.7
    angle_coeff 153 harmonic 58.35 112.7
    angle_coeff 154 harmonic 58.35 112.7
    angle_coeff 155 harmonic 58.35 112.7
    angle_coeff 156 harmonic 58.35 112.7
    angle_coeff 157 harmonic 58.35 112.7
    angle_coeff 158 harmonic 58.35 112.7
    angle_coeff 159 harmonic 58.35 112.7
    angle_coeff 160 harmonic 58.35 112.7
    angle_coeff 161 harmonic 58.35 112.7
    angle_coeff 162 harmonic 58.35 112.7
    angle_coeff 163 harmonic 58.35 112.7
    angle_coeff 164 harmonic 58.35 112.7
    angle_coeff 165 harmonic 58.35 112.7
    angle_coeff 166 harmonic 58.35 112.7
    angle_coeff 167 harmonic 58.35 112.7
    angle_coeff 168 harmonic 58.35 112.7
    angle_coeff 169 harmonic 58.35 112.7
    angle_coeff 170 harmonic 58.35 112.7
    angle_coeff 171 harmonic 58.35 112.7
    angle_coeff 172 harmonic 58.35 112.7
    angle_coeff 173 harmonic 58.35 112.7
    angle_coeff 174 harmonic 58.35 112.7
    angle_coeff 175 harmonic 58.35 112.7
    angle_coeff 176 harmonic 58.35 112.7
    angle_coeff 177 harmonic 58.35 112.7
    angle_coeff 178 harmonic 58.35 112.7
    angle_coeff 179 harmonic 58.35 112.7
    angle_coeff 180 harmonic 58.35 112.7
    angle_coeff 181 harmonic 58.35 112.7
    angle_coeff 182 harmonic 63.0 111.1
    angle_coeff 183 harmonic 63.0 111.1
    angle_coeff 184 harmonic 63.0 111.1
    angle_coeff 185 harmonic 63.0 111.1
    angle_coeff 186 harmonic 63.0 111.1
    angle_coeff 187 harmonic 63.0 111.1
    angle_coeff 188 harmonic 63.0 111.1
    angle_coeff 189 harmonic 63.0 111.1
    angle_coeff 190 harmonic 63.0 111.1
    angle_coeff 191 harmonic 63.0 111.1
    angle_coeff 192 harmonic 63.0 111.1
    angle_coeff 193 harmonic 63.0 111.1
    angle_coeff 194 harmonic 63.0 111.1
    angle_coeff 195 harmonic 63.0 111.1
    angle_coeff 196 harmonic 63.0 111.1
    angle_coeff 197 harmonic 63.0 111.1
    angle_coeff 198 harmonic 63.0 111.1
    angle_coeff 199 harmonic 63.0 111.1
    angle_coeff 200 harmonic 63.0 111.1
    angle_coeff 201 harmonic 63.0 111.1
    angle_coeff 202 harmonic 63.0 111.1
    angle_coeff 203 harmonic 63.0 111.1
    angle_coeff 204 harmonic 63.0 111.1
    angle_coeff 205 harmonic 63.0 111.1
    angle_coeff 206 harmonic 63.0 111.1
    angle_coeff 207 harmonic 50.0 109.5
    angle_coeff 208 harmonic 50.0 109.5
    angle_coeff 209 harmonic 50.0 109.5
    angle_coeff 210 harmonic 50.0 109.5
    angle_coeff 211 harmonic 50.0 109.5
    angle_coeff 212 harmonic 50.0 109.5
    angle_coeff 213 harmonic 50.0 109.5
    angle_coeff 214 harmonic 50.0 109.5
    angle_coeff 215 harmonic 50.0 109.5
    angle_coeff 216 harmonic 50.0 109.5
    angle_coeff 217 harmonic 50.0 109.5
    angle_coeff 218 harmonic 50.0 109.5
    angle_coeff 219 harmonic 50.0 109.5
    angle_coeff 220 harmonic 50.0 109.5
    angle_coeff 221 harmonic 50.0 109.5
    angle_coeff 222 harmonic 50.0 109.5
    angle_coeff 223 harmonic 50.0 109.5
    angle_coeff 224 harmonic 50.0 109.5
    angle_coeff 225 harmonic 50.0 109.5
    angle_coeff 226 harmonic 50.0 109.5
    angle_coeff 227 harmonic 50.0 109.5
    angle_coeff 228 harmonic 50.0 109.5
    angle_coeff 229 harmonic 50.0 109.5
    angle_coeff 230 harmonic 50.0 109.5
    angle_coeff 231 harmonic 50.0 109.5
    angle_coeff 232 harmonic 50.0 109.5
    angle_coeff 233 harmonic 50.0 109.5
    angle_coeff 234 harmonic 50.0 109.5
    angle_coeff 235 harmonic 50.0 109.5
    angle_coeff 236 harmonic 50.0 109.5
    angle_coeff 237 harmonic 33.0 107.8
    angle_coeff 238 harmonic 33.0 107.8
    angle_coeff 239 harmonic 33.0 107.8
    angle_coeff 240 harmonic 33.0 107.8
    angle_coeff 241 harmonic 33.0 107.8
    angle_coeff 242 harmonic 35.0 109.5
    angle_coeff 243 harmonic 35.0 109.5
    angle_coeff 244 harmonic 35.0 109.5
    angle_coeff 245 harmonic 35.0 109.5
    angle_coeff 246 harmonic 35.0 109.5
    angle_coeff 247 harmonic 35.0 109.5
    angle_coeff 248 harmonic 35.0 109.5
    angle_coeff 249 harmonic 35.0 109.5
    angle_coeff 250 harmonic 35.0 109.5
    angle_coeff 251 harmonic 35.0 109.5
    angle_coeff 252 harmonic 37.5 110.7
    angle_coeff 253 harmonic 37.5 110.7
    angle_coeff 254 harmonic 37.5 110.7
    angle_coeff 255 harmonic 37.5 110.7
    angle_coeff 256 harmonic 37.5 110.7
    angle_coeff 257 harmonic 37.5 110.7
    angle_coeff 258 harmonic 37.5 110.7
    angle_coeff 259 harmonic 37.5 110.7
    angle_coeff 260 harmonic 37.5 110.7
    angle_coeff 261 harmonic 37.5 110.7
    angle_coeff 262 harmonic 37.5 110.7
    angle_coeff 263 harmonic 37.5 110.7
    angle_coeff 264 harmonic 37.5 110.7
    angle_coeff 265 harmonic 37.5 110.7
    angle_coeff 266 harmonic 37.5 110.7
    angle_coeff 267 harmonic 37.5 110.7
    angle_coeff 268 harmonic 37.5 110.7
    angle_coeff 269 harmonic 37.5 110.7
    angle_coeff 270 harmonic 37.5 110.7
    angle_coeff 271 harmonic 37.5 110.7
    angle_coeff 272 harmonic 37.5 110.7
    angle_coeff 273 harmonic 37.5 110.7
    angle_coeff 274 harmonic 37.5 110.7
    angle_coeff 275 harmonic 37.5 110.7
    angle_coeff 276 harmonic 37.5 110.7
    angle_coeff 277 harmonic 60.0 109.5
    angle_coeff 278 harmonic 60.0 109.5
    angle_coeff 279 harmonic 60.0 109.5
    angle_coeff 280 harmonic 60.0 109.5
    angle_coeff 281 harmonic 60.0 109.5
    angle_coeff 282 harmonic 60.0 109.5
    angle_coeff 283 harmonic 60.0 109.5
    angle_coeff 284 harmonic 60.0 109.5
    angle_coeff 285 harmonic 60.0 109.5
    angle_coeff 286 harmonic 60.0 109.5
    angle_coeff 287 harmonic 60.0 109.5
    angle_coeff 288 harmonic 60.0 109.5
    angle_coeff 289 harmonic 60.0 109.5
    angle_coeff 290 harmonic 60.0 109.5
    angle_coeff 291 harmonic 60.0 109.5
    angle_coeff 292 harmonic 60.0 109.5
    angle_coeff 293 harmonic 60.0 109.5
    angle_coeff 294 harmonic 60.0 109.5
    angle_coeff 295 harmonic 60.0 109.5
    angle_coeff 296 harmonic 60.0 109.5
    angle_coeff 297 harmonic 60.0 109.5
    angle_coeff 298 harmonic 60.0 109.5
    angle_coeff 299 harmonic 60.0 109.5
    angle_coeff 300 harmonic 60.0 109.5
    angle_coeff 301 harmonic 60.0 109.5
    angle_coeff 302 harmonic 83.0 116.9
    angle_coeff 303 harmonic 83.0 116.9
    angle_coeff 304 harmonic 83.0 116.9
    angle_coeff 305 harmonic 83.0 116.9
    angle_coeff 306 harmonic 83.0 116.9
    dihedral_coeff 1 opls 1.6 3.2 0.0 0.0
    dihedral_coeff 2 opls 0.0 0.5 0.0 0.0
    dihedral_coeff 3 opls 0.0 0.5 0.0 0.0
    dihedral_coeff 4 opls 0.0 0.5 0.0 0.0
    dihedral_coeff 5 opls 0.0 0.5 0.0 0.0
    dihedral_coeff 6 opls 0.0 0.5 0.0 0.0
    dihedral_coeff 7 opls 0.0 0.0 0.0 0.0
    dihedral_coeff 8 opls 0.7 -1.5 0.0 0.0
    dihedral_coeff 9 opls 0.7 -1.5 0.0 0.0
    dihedral_coeff 10 opls 0.7 -1.5 0.0 0.0
    dihedral_coeff 11 opls 0.7 -1.5 0.0 0.0
    dihedral_coeff 12 opls 0.7 -1.5 0.0 0.0
    dihedral_coeff 13 opls 0.7 -1.5 0.0 0.0
    dihedral_coeff 14 opls 0.7 -1.5 0.0 0.0
    dihedral_coeff 15 opls 0.7 -1.5 0.0 0.0
    dihedral_coeff 16 opls 0.7 -1.5 0.0 0.0
    dihedral_coeff 17 opls 0.7 -1.5 0.0 0.0
    dihedral_coeff 18 opls 0.7 -1.5 0.0 0.0
    dihedral_coeff 19 opls 0.7 -1.5 0.0 0.0
    dihedral_coeff 20 opls 0.7 -1.5 0.0 0.0
    dihedral_coeff 21 opls 0.7 -1.5 0.0 0.0
    dihedral_coeff 22 opls 0.7 -1.5 0.0 0.0
    dihedral_coeff 23 opls 0.7 -1.5 0.0 0.0
    dihedral_coeff 24 opls 0.7 -1.5 0.0 0.0
    dihedral_coeff 25 opls 0.7 -1.5 0.0 0.0
    dihedral_coeff 26 opls 0.7 -1.5 0.0 0.0
    dihedral_coeff 27 opls 0.7 -1.5 0.0 0.0
    dihedral_coeff 28 opls 0.7 -1.5 0.0 0.0
    dihedral_coeff 29 opls 0.7 -1.5 0.0 0.0
    dihedral_coeff 30 opls 0.7 -1.5 0.0 0.0
    dihedral_coeff 31 opls 0.7 -1.5 0.0 0.0
    dihedral_coeff 32 opls 0.7 -1.5 0.0 0.0
    dihedral_coeff 33 opls 0.8 -0.76 0.0 0.0
    dihedral_coeff 34 opls 0.8 -0.76 0.0 0.0
    dihedral_coeff 35 opls 0.8 -0.76 0.0 0.0
    dihedral_coeff 36 opls 0.8 -0.76 0.0 0.0
    dihedral_coeff 37 opls 0.8 -0.76 0.0 0.0
    dihedral_coeff 38 opls 0.0 0.0 0.3 0.0
    dihedral_coeff 39 opls 0.0 0.0 0.085 0.0
    dihedral_coeff 40 opls 0.0 0.0 0.085 0.0
    dihedral_coeff 41 opls 0.0 0.0 0.085 0.0
    dihedral_coeff 42 opls 0.0 0.0 0.085 0.0
    dihedral_coeff 43 opls 0.0 0.0 0.085 0.0
    dihedral_coeff 44 opls 0.0 0.0 0.0 0.0
    dihedral_coeff 45 opls 0.0 0.0 0.0 0.0
    dihedral_coeff 46 opls 0.0 0.0 0.0 0.0
    dihedral_coeff 47 opls 0.0 0.0 0.0 0.0
    dihedral_coeff 48 opls 0.0 0.0 0.0 0.0
    dihedral_coeff 49 opls 0.0 0.0 0.0 0.0
    dihedral_coeff 50 opls 0.0 0.0 0.0 0.0
    dihedral_coeff 51 opls 0.0 0.0 0.0 0.0
    dihedral_coeff 52 opls 0.0 0.0 0.0 0.0
    dihedral_coeff 53 opls 0.0 0.0 0.0 0.0
    dihedral_coeff 54 opls 0.0 0.0 0.0 0.0
    dihedral_coeff 55 opls 0.0 0.0 0.0 0.0
    dihedral_coeff 56 opls 0.0 0.0 0.0 0.0
    dihedral_coeff 57 opls 0.0 0.0 0.0 0.0
    dihedral_coeff 58 opls 0.0 0.0 0.0 0.0
    dihedral_coeff 59 opls 0.0 0.0 0.0 0.0
    dihedral_coeff 60 opls 0.0 0.0 0.0 0.0
    dihedral_coeff 61 opls 0.0 0.0 0.0 0.0
    dihedral_coeff 62 opls 0.0 0.0 0.0 0.0
    dihedral_coeff 63 opls 0.0 0.0 0.0 0.0
    dihedral_coeff 64 opls 0.0 0.0 0.0 0.0
    dihedral_coeff 65 opls 0.0 0.0 0.0 0.0
    dihedral_coeff 66 opls 0.0 0.0 0.0 0.0
    dihedral_coeff 67 opls 0.0 0.0 0.0 0.0
    dihedral_coeff 68 opls 0.0 0.0 0.0 0.0
    dihedral_coeff 69 opls 0.0 0.0 0.0 0.0
    dihedral_coeff 70 opls 0.0 0.0 0.0 0.0
    dihedral_coeff 71 opls 0.0 0.0 0.0 0.0
    dihedral_coeff 72 opls 0.0 0.0 0.0 0.0
    dihedral_coeff 73 opls 0.0 0.0 0.0 0.0
    dihedral_coeff 74 opls 1.454 -0.144 -0.775 0.0
    dihedral_coeff 75 opls 1.454 -0.144 -0.775 0.0
    dihedral_coeff 76 opls 1.454 -0.144 -0.775 0.0
    dihedral_coeff 77 opls 1.454 -0.144 -0.775 0.0
    dihedral_coeff 78 opls 1.454 -0.144 -0.775 0.0
    dihedral_coeff 79 opls 1.454 -0.144 -0.775 0.0
    dihedral_coeff 80 opls 1.454 -0.144 -0.775 0.0
    dihedral_coeff 81 opls 1.454 -0.144 -0.775 0.0
    dihedral_coeff 82 opls 1.454 -0.144 -0.775 0.0
    dihedral_coeff 83 opls 1.454 -0.144 -0.775 0.0
    dihedral_coeff 84 opls 1.454 -0.144 -0.775 0.0
    dihedral_coeff 85 opls 1.454 -0.144 -0.775 0.0
    dihedral_coeff 86 opls 1.454 -0.144 -0.775 0.0
    dihedral_coeff 87 opls 1.454 -0.144 -0.775 0.0
    dihedral_coeff 88 opls 1.454 -0.144 -0.775 0.0
    dihedral_coeff 89 opls 1.454 -0.144 -0.775 0.0
    dihedral_coeff 90 opls 1.454 -0.144 -0.775 0.0
    dihedral_coeff 91 opls 1.454 -0.144 -0.775 0.0
    dihedral_coeff 92 opls 1.454 -0.144 -0.775 0.0
    dihedral_coeff 93 opls 1.454 -0.144 -0.775 0.0
    dihedral_coeff 94 opls 1.454 -0.144 -0.775 0.0
    dihedral_coeff 95 opls 1.454 -0.144 -0.775 0.0
    dihedral_coeff 96 opls 1.454 -0.144 -0.775 0.0
    dihedral_coeff 97 opls 1.454 -0.144 -0.775 0.0
    dihedral_coeff 98 opls 1.454 -0.144 -0.775 0.0
    dihedral_coeff 99 opls 1.454 -0.144 -0.775 0.0
    dihedral_coeff 100 opls 1.454 -0.144 -0.775 0.0
    dihedral_coeff 101 opls 1.454 -0.144 -0.775 0.0
    dihedral_coeff 102 opls 1.454 -0.144 -0.775 0.0
    dihedral_coeff 103 opls 1.454 -0.144 -0.775 0.0
    dihedral_coeff 104 opls 1.454 -0.144 -0.775 0.0
    dihedral_coeff 105 opls 1.454 -0.144 -0.775 0.0
    dihedral_coeff 106 opls 1.454 -0.144 -0.775 0.0
    dihedral_coeff 107 opls 1.454 -0.144 -0.775 0.0
    dihedral_coeff 108 opls 1.454 -0.144 -0.775 0.0
    dihedral_coeff 109 opls 1.454 -0.144 -0.775 0.0
    dihedral_coeff 110 opls 1.454 -0.144 -0.775 0.0
    dihedral_coeff 111 opls 1.454 -0.144 -0.775 0.0
    dihedral_coeff 112 opls 1.454 -0.144 -0.775 0.0
    dihedral_coeff 113 opls 1.454 -0.144 -0.775 0.0
    dihedral_coeff 114 opls 1.454 -0.144 -0.775 0.0
    dihedral_coeff 115 opls 1.454 -0.144 -0.775 0.0
    dihedral_coeff 116 opls 1.454 -0.144 -0.775 0.0
    dihedral_coeff 117 opls 1.454 -0.144 -0.775 0.0
    dihedral_coeff 118 opls 1.454 -0.144 -0.775 0.0
    dihedral_coeff 119 opls 1.454 -0.144 -0.775 0.0
    dihedral_coeff 120 opls 1.454 -0.144 -0.775 0.0
    dihedral_coeff 121 opls 1.454 -0.144 -0.775 0.0
    dihedral_coeff 122 opls 1.454 -0.144 -0.775 0.0
    dihedral_coeff 123 opls 1.454 -0.144 -0.775 0.0
    dihedral_coeff 124 opls 1.454 -0.144 -0.775 0.0
    dihedral_coeff 125 opls 1.454 -0.144 -0.775 0.0
    dihedral_coeff 126 opls 1.454 -0.144 -0.775 0.0
    dihedral_coeff 127 opls 1.454 -0.144 -0.775 0.0
    dihedral_coeff 128 opls 1.454 -0.144 -0.775 0.0
    dihedral_coeff 129 opls 1.454 -0.144 -0.775 0.0
    dihedral_coeff 130 opls 1.454 -0.144 -0.775 0.0
    dihedral_coeff 131 opls 1.454 -0.144 -0.775 0.0
    dihedral_coeff 132 opls 1.454 -0.144 -0.775 0.0
    dihedral_coeff 133 opls 1.454 -0.144 -0.775 0.0
    dihedral_coeff 134 opls 1.454 -0.144 -0.775 0.0
    dihedral_coeff 135 opls 1.454 -0.144 -0.775 0.0
    dihedral_coeff 136 opls 1.454 -0.144 -0.775 0.0
    dihedral_coeff 137 opls 1.454 -0.144 -0.775 0.0
    dihedral_coeff 138 opls 1.454 -0.144 -0.775 0.0
    dihedral_coeff 139 opls 1.454 -0.144 -0.775 0.0
    dihedral_coeff 140 opls 1.454 -0.144 -0.775 0.0
    dihedral_coeff 141 opls 1.454 -0.144 -0.775 0.0
    dihedral_coeff 142 opls 1.454 -0.144 -0.775 0.0
    dihedral_coeff 143 opls 1.454 -0.144 -0.775 0.0
    dihedral_coeff 144 opls 1.454 -0.144 -0.775 0.0
    dihedral_coeff 145 opls 1.454 -0.144 -0.775 0.0
    dihedral_coeff 146 opls 1.454 -0.144 -0.775 0.0
    dihedral_coeff 147 opls 1.454 -0.144 -0.775 0.0
    dihedral_coeff 148 opls 1.454 -0.144 -0.775 0.0
    dihedral_coeff 149 opls 1.454 -0.144 -0.775 0.0
    dihedral_coeff 150 opls 1.454 -0.144 -0.775 0.0
    dihedral_coeff 151 opls 1.454 -0.144 -0.775 0.0
    dihedral_coeff 152 opls 1.454 -0.144 -0.775 0.0
    dihedral_coeff 153 opls 1.454 -0.144 -0.775 0.0
    dihedral_coeff 154 opls 1.454 -0.144 -0.775 0.0
    dihedral_coeff 155 opls 1.454 -0.144 -0.775 0.0
    dihedral_coeff 156 opls 1.454 -0.144 -0.775 0.0
    dihedral_coeff 157 opls 1.454 -0.144 -0.775 0.0
    dihedral_coeff 158 opls 1.454 -0.144 -0.775 0.0
    dihedral_coeff 159 opls 1.454 -0.144 -0.775 0.0
    dihedral_coeff 160 opls 1.454 -0.144 -0.775 0.0
    dihedral_coeff 161 opls 1.454 -0.144 -0.775 0.0
    dihedral_coeff 162 opls 1.454 -0.144 -0.775 0.0
    dihedral_coeff 163 opls 1.454 -0.144 -0.775 0.0
    dihedral_coeff 164 opls 1.454 -0.144 -0.775 0.0
    dihedral_coeff 165 opls 1.454 -0.144 -0.775 0.0
    dihedral_coeff 166 opls 1.454 -0.144 -0.775 0.0
    dihedral_coeff 167 opls 1.454 -0.144 -0.775 0.0
    dihedral_coeff 168 opls 1.454 -0.144 -0.775 0.0
    dihedral_coeff 169 opls 1.454 -0.144 -0.775 0.0
    dihedral_coeff 170 opls 1.454 -0.144 -0.775 0.0
    dihedral_coeff 171 opls 1.454 -0.144 -0.775 0.0
    dihedral_coeff 172 opls 1.454 -0.144 -0.775 0.0
    dihedral_coeff 173 opls 1.454 -0.144 -0.775 0.0
    dihedral_coeff 174 opls 1.454 -0.144 -0.775 0.0
    dihedral_coeff 175 opls 1.454 -0.144 -0.775 0.0
    dihedral_coeff 176 opls 1.454 -0.144 -0.775 0.0
    dihedral_coeff 177 opls 1.454 -0.144 -0.775 0.0
    dihedral_coeff 178 opls 1.454 -0.144 -0.775 0.0
    dihedral_coeff 179 opls 1.454 -0.144 -0.775 0.0
    dihedral_coeff 180 opls 1.454 -0.144 -0.775 0.0
    dihedral_coeff 181 opls 1.454 -0.144 -0.775 0.0
    dihedral_coeff 182 opls 1.454 -0.144 -0.775 0.0
    dihedral_coeff 183 opls 1.454 -0.144 -0.775 0.0
    dihedral_coeff 184 opls 1.454 -0.144 -0.775 0.0
    dihedral_coeff 185 opls 1.454 -0.144 -0.775 0.0
    dihedral_coeff 186 opls 1.454 -0.144 -0.775 0.0
    dihedral_coeff 187 opls 1.454 -0.144 -0.775 0.0
    dihedral_coeff 188 opls 1.454 -0.144 -0.775 0.0
    dihedral_coeff 189 opls 1.454 -0.144 -0.775 0.0
    dihedral_coeff 190 opls 1.454 -0.144 -0.775 0.0
    dihedral_coeff 191 opls 1.454 -0.144 -0.775 0.0
    dihedral_coeff 192 opls 1.454 -0.144 -0.775 0.0
    dihedral_coeff 193 opls 1.454 -0.144 -0.775 0.0
    dihedral_coeff 194 opls 1.454 -0.144 -0.775 0.0
    dihedral_coeff 195 opls 1.454 -0.144 -0.775 0.0
    dihedral_coeff 196 opls 1.454 -0.144 -0.775 0.0
    dihedral_coeff 197 opls 1.454 -0.144 -0.775 0.0
    dihedral_coeff 198 opls 1.454 -0.144 -0.775 0.0
    dihedral_coeff 199 opls 0.0 0.0 0.275 0.0
    dihedral_coeff 200 opls 0.0 0.0 0.275 0.0
    dihedral_coeff 201 opls 0.0 0.0 0.275 0.0
    dihedral_coeff 202 opls 0.0 0.0 0.275 0.0
    dihedral_coeff 203 opls 0.0 0.0 0.275 0.0
    dihedral_coeff 204 opls 0.0 0.0 0.275 0.0
    dihedral_coeff 205 opls 0.0 0.0 0.275 0.0
    dihedral_coeff 206 opls 0.0 0.0 0.275 0.0
    dihedral_coeff 207 opls 0.0 0.0 0.275 0.0
    dihedral_coeff 208 opls 0.0 0.0 0.275 0.0
    dihedral_coeff 209 opls 0.0 0.0 0.275 0.0
    dihedral_coeff 210 opls 0.0 0.0 0.275 0.0
    dihedral_coeff 211 opls 0.0 0.0 0.275 0.0
    dihedral_coeff 212 opls 0.0 0.0 0.275 0.0
    dihedral_coeff 213 opls 0.0 0.0 0.275 0.0
    dihedral_coeff 214 opls 0.0 0.0 0.275 0.0
    dihedral_coeff 215 opls 0.0 0.0 0.275 0.0
    dihedral_coeff 216 opls 0.0 0.0 0.275 0.0
    dihedral_coeff 217 opls 0.0 0.0 0.275 0.0
    dihedral_coeff 218 opls 0.0 0.0 0.275 0.0
    dihedral_coeff 219 opls 0.0 0.0 0.275 0.0
    dihedral_coeff 220 opls 0.0 0.0 0.275 0.0
    dihedral_coeff 221 opls 0.0 0.0 0.275 0.0
    dihedral_coeff 222 opls 0.0 0.0 0.275 0.0
    dihedral_coeff 223 opls 0.0 0.0 0.275 0.0
    dihedral_coeff 224 opls 0.0 0.0 -0.553 0.0
    dihedral_coeff 225 opls 0.0 0.0 -0.553 0.0
    dihedral_coeff 226 opls 0.0 0.0 -0.553 0.0
    dihedral_coeff 227 opls 0.0 0.0 -0.553 0.0
    dihedral_coeff 228 opls 0.0 0.0 -0.553 0.0
    dihedral_coeff 229 opls 0.0 0.0 -0.553 0.0
    dihedral_coeff 230 opls 0.0 0.0 -0.553 0.0
    dihedral_coeff 231 opls 0.0 0.0 -0.553 0.0
    dihedral_coeff 232 opls 0.0 0.0 -0.553 0.0
    dihedral_coeff 233 opls 0.0 0.0 -0.553 0.0
    dihedral_coeff 234 opls 0.0 0.0 -0.553 0.0
    dihedral_coeff 235 opls 0.0 0.0 -0.553 0.0
    dihedral_coeff 236 opls 0.0 0.0 -0.553 0.0
    dihedral_coeff 237 opls 0.0 0.0 -0.553 0.0
    dihedral_coeff 238 opls 0.0 0.0 -0.553 0.0
    dihedral_coeff 239 opls 0.0 0.0 -0.553 0.0
    dihedral_coeff 240 opls 0.0 0.0 -0.553 0.0
    dihedral_coeff 241 opls 0.0 0.0 -0.553 0.0
    dihedral_coeff 242 opls 0.0 0.0 -0.553 0.0
    dihedral_coeff 243 opls 0.0 0.0 -0.553 0.0
    dihedral_coeff 244 opls 0.0 0.0 -0.553 0.0
    dihedral_coeff 245 opls 0.0 0.0 -0.553 0.0
    dihedral_coeff 246 opls 0.0 0.0 -0.553 0.0
    dihedral_coeff 247 opls 0.0 0.0 -0.553 0.0
    dihedral_coeff 248 opls 0.0 0.0 -0.553 0.0
    dihedral_coeff 249 opls 0.0 0.0 0.132 0.0
    dihedral_coeff 250 opls 0.0 0.0 0.132 0.0
    dihedral_coeff 251 opls 0.0 0.0 0.132 0.0
    dihedral_coeff 252 opls 0.0 0.0 0.132 0.0
    dihedral_coeff 253 opls 0.0 0.0 0.132 0.0
    dihedral_coeff 254 opls 0.0 0.0 0.0 0.0
    dihedral_coeff 255 opls 0.0 0.0 0.0 0.0
    dihedral_coeff 256 opls 0.0 0.0 0.0 0.0
    dihedral_coeff 257 opls 0.0 0.0 0.0 0.0
    dihedral_coeff 258 opls 0.0 0.0 0.0 0.0
    dihedral_coeff 259 opls 0.0 0.0 0.0 0.0
    dihedral_coeff 260 opls 0.0 0.0 0.0 0.0
    dihedral_coeff 261 opls 0.0 0.0 0.0 0.0
    dihedral_coeff 262 opls 0.0 0.0 0.0 0.0
    dihedral_coeff 263 opls 0.0 0.0 0.0 0.0
    dihedral_coeff 264 opls 0.0 0.0 0.0 0.0
    dihedral_coeff 265 opls 0.0 0.0 0.0 0.0
    dihedral_coeff 266 opls 0.0 0.0 0.0 0.0
    dihedral_coeff 267 opls 0.0 0.0 0.0 0.0
    dihedral_coeff 268 opls 0.0 0.0 0.0 0.0
    dihedral_coeff 269 opls 0.0 0.0 0.0 0.0
    dihedral_coeff 270 opls 0.0 0.0 0.0 0.0
    dihedral_coeff 271 opls 0.0 0.0 0.0 0.0
    dihedral_coeff 272 opls 0.0 0.0 0.0 0.0
    dihedral_coeff 273 opls 0.0 0.0 0.0 0.0
    dihedral_coeff 274 opls 0.0 0.0 0.0 0.0
    dihedral_coeff 275 opls 0.0 0.0 0.0 0.0
    dihedral_coeff 276 opls 0.0 0.0 0.0 0.0
    dihedral_coeff 277 opls 0.0 0.0 0.0 0.0
    dihedral_coeff 278 opls 0.0 0.0 0.0 0.0
    dihedral_coeff 279 opls 0.0 0.0 0.36 0.0
    dihedral_coeff 280 opls 0.0 0.0 0.36 0.0
    dihedral_coeff 281 opls 0.0 0.0 0.36 0.0
    dihedral_coeff 282 opls 0.0 0.0 0.36 0.0
    dihedral_coeff 283 opls 0.0 0.0 0.36 0.0
    dihedral_coeff 284 opls 0.0 5.124 0.0 0.0
    dihedral_coeff 285 opls 0.0 5.124 0.0 0.0
    dihedral_coeff 286 opls 0.0 5.124 0.0 0.0
    dihedral_coeff 287 opls 0.0 5.124 0.0 0.0
    dihedral_coeff 288 opls 0.0 5.124 0.0 0.0
    dihedral_coeff 289 opls 4.669 5.124 0.0 0.0
    dihedral_coeff 290 opls 4.669 5.124 0.0 0.0
    dihedral_coeff 291 opls 4.669 5.124 0.0 0.0
    dihedral_coeff 292 opls 4.669 5.124 0.0 0.0
    dihedral_coeff 293 opls 4.669 5.124 0.0 0.0
    dihedral_coeff 294 opls 4.669 5.124 0.0 0.0
    dihedral_coeff 295 opls 4.669 5.124 0.0 0.0
    dihedral_coeff 296 opls 4.669 5.124 0.0 0.0
    dihedral_coeff 297 opls 4.669 5.124 0.0 0.0
    dihedral_coeff 298 opls 4.669 5.124 0.0 0.0
    dihedral_coeff 299 opls 4.669 5.124 0.0 0.0
    dihedral_coeff 300 opls 4.669 5.124 0.0 0.0
    dihedral_coeff 301 opls 4.669 5.124 0.0 0.0
    dihedral_coeff 302 opls 4.669 5.124 0.0 0.0
    dihedral_coeff 303 opls 4.669 5.124 0.0 0.0
    dihedral_coeff 304 opls 4.669 5.124 0.0 0.0
    dihedral_coeff 305 opls 4.669 5.124 0.0 0.0
    dihedral_coeff 306 opls 4.669 5.124 0.0 0.0
    dihedral_coeff 307 opls 4.669 5.124 0.0 0.0
    dihedral_coeff 308 opls 4.669 5.124 0.0 0.0
    dihedral_coeff 309 opls 4.669 5.124 0.0 0.0
    dihedral_coeff 310 opls 4.669 5.124 0.0 0.0
    dihedral_coeff 311 opls 4.669 5.124 0.0 0.0
    dihedral_coeff 312 opls 4.669 5.124 0.0 0.0
    dihedral_coeff 313 opls 4.669 5.124 0.0 0.0
    dihedral_coeff 314 opls 4.669 5.124 0.0 0.0
    dihedral_coeff 315 opls 4.669 5.124 0.0 0.0
    dihedral_coeff 316 opls 4.669 5.124 0.0 0.0
    dihedral_coeff 317 opls 4.669 5.124 0.0 0.0
    dihedral_coeff 318 opls 4.669 5.124 0.0 0.0
    dihedral_coeff 319 opls -4.344 -1.714 0.0 0.0
    dihedral_coeff 320 opls -4.344 -1.714 0.0 0.0
    dihedral_coeff 321 opls -4.344 -1.714 0.0 0.0
    dihedral_coeff 322 opls -4.344 -1.714 0.0 0.0
    dihedral_coeff 323 opls -4.344 -1.714 0.0 0.0
    dihedral_coeff 324 opls -4.344 -1.714 0.0 0.0
    dihedral_coeff 325 opls -4.344 -1.714 0.0 0.0