LAMMPS Description

     3520  atoms
     3510  bonds
     6010  angles
     4040  dihedrals
     0  impropers

     8  atom types
     22  bond types
     63  angle types
     87  dihedral types

  -432.3870 432.3870 xlo xhi
  -432.3870 432.3870 ylo yhi
  -432.3870 432.3870 zlo zhi

Masses

    1 12.011 #CT "Alkane CH3-" 6 partial charge=-0.18
    2 1.008 #HC "Alkane H-C" 1 partial charge=0.06
    3 15.999 #OH "Alcohol -OH" 8 partial charge=-0.683
    4 1.008 #HO "Alcohol -OH" 1 partial charge=0.418
    5 12.011 #CT "Alcohol CH3OH & RCH2OH" 6 partial charge=0.145
    6 15.999 #OS "Dialkyl Ether -O-" 8 partial charge=-0.4
    7 12.011 #CT "Ethyl Ether -CH2OR" 6 partial charge=0.14
    8 1.008 #HC "Alkyl Ether H-COR" 1 partial charge=0.03

Atoms # full

1 1 1 -0.1800 -1.157 0.0 0.0
2 1 6 -0.4000 1.157 0.0 0.0
3 1 7 0.1400 0.069 0.727 -0.51
4 1 2 0.0600 -2.1 0.476 -0.295
5 1 2 0.0600 -1.032 -0.082 1.108
6 1 2 0.0600 -1.088 -1.035 -0.421
7 1 8 0.0300 0.111 0.787 -1.608
8 1 8 0.0300 0.149 1.76 -0.097
9 1 7 0.1400 3.1420000000000003 0.0 0.0
10 1 6 -0.4000 5.486 0.0 0.0
11 1 7 0.1400 4.368 -0.46199999999999997 0.685
12 1 8 0.0300 2.2760000000000002 -0.644 0.01500000000000004
13 1 8 0.0300 3.225 0.766 -0.748
14 1 8 0.0300 4.342 -1.578 0.7280000000000001
15 1 8 0.0300 4.326 -0.04399999999999989 1.722
16 1 7 0.1400 7.486 0.0 0.0
17 1 6 -0.4000 9.83 0.0 0.0
18 1 7 0.1400 8.712 0.685 -0.462
19 1 8 0.0300 6.619999999999999 0.015 -0.644
20 1 8 0.0300 7.568999999999999 -0.748 0.766
21 1 8 0.0300 8.686 0.728 -1.578
22 1 8 0.0300 8.67 1.722 -0.044
23 1 7 0.1400 11.83 0.0 0.0
24 1 6 -0.4000 14.174000000000001 0.0 0.0
25 1 7 0.1400 13.056000000000001 -0.46199999999999997 0.685
26 1 8 0.0300 10.964 -0.644 0.01500000000000004
27 1 8 0.0300 11.913 0.766 -0.748
28 1 8 0.0300 13.030000000000001 -1.578 0.7280000000000001
29 1 8 0.0300 13.014000000000001 -0.04399999999999989 1.722
30 1 7 0.1400 16.174 0.0 0.0
31 1 6 -0.4000 18.518 0.0 0.0
32 1 7 0.1400 17.4 0.685 -0.462
33 1 8 0.0300 15.308 0.015 -0.644
34 1 8 0.0300 16.257 -0.748 0.766
35 1 8 0.0300 17.374 0.728 -1.578
36 1 8 0.0300 17.358 1.722 -0.044
37 1 7 0.1400 20.518 0.0 0.0
38 1 6 -0.4000 22.862000000000002 0.0 0.0
39 1 7 0.1400 21.744 -0.46199999999999997 0.685
40 1 8 0.0300 19.652 -0.644 0.01500000000000004
41 1 8 0.0300 20.601000000000003 0.766 -0.748
42 1 8 0.0300 21.718 -1.578 0.7280000000000001
43 1 8 0.0300 21.702 -0.04399999999999989 1.722
44 1 7 0.1400 24.862 0.0 0.0
45 1 6 -0.4000 27.206 0.0 0.0
46 1 7 0.1400 26.087999999999997 0.685 0.462
47 1 8 0.0300 23.996 0.015 0.644
48 1 8 0.0300 24.945 -0.748 -0.766
49 1 8 0.0300 26.061999999999998 0.728 1.578
50 1 8 0.0300 26.046 1.722 0.044
51 1 7 0.1400 29.206 0.0 0.0
52 1 6 -0.4000 31.55 0.0 0.0
53 1 7 0.1400 30.432 -0.46199999999999997 0.685
54 1 8 0.0300 28.34 -0.644 0.01500000000000004
55 1 8 0.0300 29.289 0.766 -0.748
56 1 8 0.0300 30.406 -1.578 0.7280000000000001
57 1 8 0.0300 30.39 -0.04399999999999989 1.722
58 1 7 0.1400 33.550000000000004 0.0 0.0
59 1 6 -0.4000 35.894 0.0 0.0
60 1 7 0.1400 34.776 0.685 0.462
61 1 8 0.0300 32.684000000000005 0.015 0.644
62 1 8 0.0300 33.633 -0.748 -0.766
63 1 8 0.0300 34.75 0.728 1.578
64 1 8 0.0300 34.734 1.722 0.044
65 1 7 0.1400 37.894000000000005 0.0 0.0
66 1 6 -0.4000 40.238 0.0 0.0
67 1 7 0.1400 39.120000000000005 0.4620000000000001 0.685
68 1 8 0.0300 37.028000000000006 0.644 0.01499999999999996
69 1 8 0.0300 37.977000000000004 -0.766 -0.748
70 1 8 0.0300 39.094 1.578 0.7279999999999999
71 1 8 0.0300 39.078 0.0440000000000001 1.722
72 1 7 0.1400 42.238 0.0 0.0
73 1 6 -0.4000 44.581999999999994 0.0 0.0
74 1 7 0.1400 43.464 0.685 0.462
75 1 8 0.0300 41.372 0.015 0.644
76 1 8 0.0300 42.321 -0.748 -0.766
77 1 8 0.0300 43.437999999999995 0.728 1.578
78 1 8 0.0300 43.422 1.722 0.044
79 1 7 0.1400 46.582 0.0 0.0
80 1 6 -0.4000 48.925999999999995 0.0 0.0
81 1 7 0.1400 47.808 0.4620000000000001 0.685
82 1 8 0.0300 45.716 0.644 0.01499999999999996
83 1 8 0.0300 46.665 -0.766 -0.748
84 1 8 0.0300 47.782 1.578 0.7279999999999999
85 1 8 0.0300 47.766 0.0440000000000001 1.722
86 1 7 0.1400 50.926 0.0 0.0
87 1 6 -0.4000 53.269999999999996 0.0 0.0
88 1 7 0.1400 52.152 0.685 -0.462
89 1 8 0.0300 50.06 0.015 -0.644
90 1 8 0.0300 51.009 -0.748 0.766
91 1 8 0.0300 52.126 0.728 -1.578
92 1 8 0.0300 52.11 1.722 -0.044
93 1 7 0.1400 55.27 0.0 0.0
94 1 6 -0.4000 57.614 0.0 0.0
95 1 7 0.1400 56.496 -0.46199999999999997 0.685
96 1 8 0.0300 54.404 -0.644 0.01500000000000004
97 1 8 0.0300 55.353 0.766 -0.748
98 1 8 0.0300 56.47 -1.578 0.7280000000000001
99 1 8 0.0300 56.454 -0.04399999999999989 1.722
100 1 7 0.1400 59.614000000000004 0.0 0.0
101 1 6 -0.4000 61.958 0.0 0.0
102 1 7 0.1400 60.84 0.685 -0.462
103 1 8 0.0300 58.748000000000005 0.015 -0.644
104 1 8 0.0300 59.697 -0.748 0.766
105 1 8 0.0300 60.814 0.728 -1.578
106 1 8 0.0300 60.798 1.722 -0.044
107 1 7 0.1400 63.958 0.0 0.0
108 1 6 -0.4000 66.30199999999999 0.0 0.0
109 1 7 0.1400 65.184 0.4620000000000001 0.685
110 1 8 0.0300 63.092 0.644 0.01499999999999996
111 1 8 0.0300 64.041 -0.766 -0.748
112 1 8 0.0300 65.158 1.578 0.7279999999999999
113 1 8 0.0300 65.142 0.0440000000000001 1.722
114 1 7 0.1400 68.302 0.0 0.0
115 1 6 -0.4000 70.646 0.0 0.0
116 1 7 0.1400 69.528 0.685 -0.462
117 1 8 0.0300 67.436 0.015 -0.644
118 1 8 0.0300 68.385 -0.748 0.766
119 1 8 0.0300 69.50200000000001 0.728 -1.578
120 1 8 0.0300 69.486 1.722 -0.044
121 1 7 0.1400 72.646 0.0 0.0
122 1 6 -0.4000 74.99 0.0 0.0
123 1 7 0.1400 73.872 0.4620000000000001 0.685
124 1 8 0.0300 71.78 0.644 0.01499999999999996
125 1 8 0.0300 72.729 -0.766 -0.748
126 1 8 0.0300 73.846 1.578 0.7279999999999999
127 1 8 0.0300 73.83 0.0440000000000001 1.722
128 1 7 0.1400 76.99000000000001 0.0 0.0
129 1 6 -0.4000 79.334 0.0 0.0
130 1 7 0.1400 78.21600000000001 0.685 -0.462
131 1 8 0.0300 76.12400000000001 0.015 -0.644
132 1 8 0.0300 77.07300000000001 -0.748 0.766
133 1 8 0.0300 78.19000000000001 0.728 -1.578
134 1 8 0.0300 78.174 1.722 -0.044
135 1 7 0.1400 81.334 0.0 0.0
136 1 6 -0.4000 83.678 0.0 0.0
137 1 7 0.1400 82.56 -0.46199999999999997 0.685
138 1 8 0.0300 80.468 -0.644 0.01500000000000004
139 1 8 0.0300 81.417 0.766 -0.748
140 1 8 0.0300 82.534 -1.578 0.7280000000000001
141 1 8 0.0300 82.518 -0.04399999999999989 1.722
142 1 7 0.1400 85.678 0.0 0.0
143 1 6 -0.4000 88.02199999999999 0.0 0.0
144 1 7 0.1400 86.904 0.685 -0.462
145 1 8 0.0300 84.812 0.015 -0.644
146 1 8 0.0300 85.761 -0.748 0.766
147 1 8 0.0300 86.878 0.728 -1.578
148 1 8 0.0300 86.862 1.722 -0.044
149 1 7 0.1400 90.022 0.0 0.0
150 1 6 -0.4000 92.366 0.0 0.0
151 1 7 0.1400 91.248 -0.46199999999999997 0.685
152 1 8 0.0300 89.156 -0.644 0.01500000000000004
153 1 8 0.0300 90.105 0.766 -0.748
154 1 8 0.0300 91.22200000000001 -1.578 0.7280000000000001
155 1 8 0.0300 91.206 -0.04399999999999989 1.722
156 1 7 0.1400 94.366 0.0 0.0
157 1 6 -0.4000 96.71 0.0 0.0
158 1 7 0.1400 95.592 0.685 0.462
159 1 8 0.0300 93.5 0.015 0.644
160 1 8 0.0300 94.449 -0.748 -0.766
161 1 8 0.0300 95.566 0.728 1.578
162 1 8 0.0300 95.55 1.722 0.044
163 1 7 0.1400 98.71000000000001 0.0 0.0
164 1 6 -0.4000 101.054 0.0 0.0
165 1 7 0.1400 99.936 -0.46199999999999997 0.685
166 1 8 0.0300 97.84400000000001 -0.644 0.01500000000000004
167 1 8 0.0300 98.793 0.766 -0.748
168 1 8 0.0300 99.91000000000001 -1.578 0.7280000000000001
169 1 8 0.0300 99.894 -0.04399999999999989 1.722
170 1 7 0.1400 103.054 0.0 0.0
171 1 6 -0.4000 105.398 0.0 0.0
172 1 7 0.1400 104.28 0.685 -0.462
173 1 8 0.0300 102.188 0.015 -0.644
174 1 8 0.0300 103.137 -0.748 0.766
175 1 8 0.0300 104.254 0.728 -1.578
176 1 8 0.0300 104.238 1.722 -0.044
177 1 7 0.1400 107.398 0.0 0.0
178 1 6 -0.4000 109.74199999999999 0.0 0.0
179 1 7 0.1400 108.624 0.4620000000000001 0.685
180 1 8 0.0300 106.532 0.644 0.01499999999999996
181 1 8 0.0300 107.481 -0.766 -0.748
182 1 8 0.0300 108.598 1.578 0.7279999999999999
183 1 8 0.0300 108.582 0.0440000000000001 1.722
184 1 7 0.1400 111.742 0.0 0.0
185 1 6 -0.4000 114.086 0.0 0.0
186 1 7 0.1400 112.968 0.685 -0.462
187 1 8 0.0300 110.876 0.015 -0.644
188 1 8 0.0300 111.825 -0.748 0.766
189 1 8 0.0300 112.94200000000001 0.728 -1.578
190 1 8 0.0300 112.926 1.722 -0.044
191 1 7 0.1400 116.086 0.0 0.0
192 1 6 -0.4000 118.42999999999999 0.0 0.0
193 1 7 0.1400 117.312 0.4620000000000001 0.685
194 1 8 0.0300 115.22 0.644 0.01499999999999996
195 1 8 0.0300 116.169 -0.766 -0.748
196 1 8 0.0300 117.286 1.578 0.7279999999999999
197 1 8 0.0300 117.27 0.0440000000000001 1.722
198 1 7 0.1400 120.43 0.0 0.0
199 1 6 -0.4000 122.774 0.0 0.0
200 1 7 0.1400 121.656 0.685 -0.462
201 1 8 0.0300 119.56400000000001 0.015 -0.644
202 1 8 0.0300 120.513 -0.748 0.766
203 1 8 0.0300 121.63000000000001 0.728 -1.578
204 1 8 0.0300 121.614 1.722 -0.044
205 1 7 0.1400 124.774 0.0 0.0
206 1 6 -0.4000 127.118 0.0 0.0
207 1 7 0.1400 126.0 0.4620000000000001 0.685
208 1 8 0.0300 123.908 0.644 0.01499999999999996
209 1 8 0.0300 124.857 -0.766 -0.748
210 1 8 0.0300 125.974 1.578 0.7279999999999999
211 1 8 0.0300 125.958 0.0440000000000001 1.722
212 1 7 0.1400 129.118 0.0 0.0
213 1 6 -0.4000 131.462 0.0 0.0
214 1 7 0.1400 130.344 0.685 -0.462
215 1 8 0.0300 128.25199999999998 0.015 -0.644
216 1 8 0.0300 129.201 -0.748 0.766
217 1 8 0.0300 130.31799999999998 0.728 -1.578
218 1 8 0.0300 130.302 1.722 -0.044
219 1 7 0.1400 133.462 0.0 0.0
220 1 6 -0.4000 135.80599999999998 0.0 0.0
221 1 7 0.1400 134.688 0.4620000000000001 0.685
222 1 8 0.0300 132.59599999999998 0.644 0.01499999999999996
223 1 8 0.0300 133.545 -0.766 -0.748
224 1 8 0.0300 134.66199999999998 1.578 0.7279999999999999
225 1 8 0.0300 134.646 0.0440000000000001 1.722
226 1 7 0.1400 137.806 0.0 0.0
227 1 6 -0.4000 140.15 0.0 0.0
228 1 7 0.1400 139.032 0.685 -0.462
229 1 8 0.0300 136.94 0.015 -0.644
230 1 8 0.0300 137.889 -0.748 0.766
231 1 8 0.0300 139.006 0.728 -1.578
232 1 8 0.0300 138.99 1.722 -0.044
233 1 7 0.1400 142.15 0.0 0.0
234 1 6 -0.4000 144.494 0.0 0.0
235 1 7 0.1400 143.376 -0.46199999999999997 0.685
236 1 8 0.0300 141.284 -0.644 0.01500000000000004
237 1 8 0.0300 142.233 0.766 -0.748
238 1 8 0.0300 143.35 -1.578 0.7280000000000001
239 1 8 0.0300 143.334 -0.04399999999999989 1.722
240 1 7 0.1400 146.494 0.0 0.0
241 1 6 -0.4000 148.838 0.0 0.0
242 1 7 0.1400 147.72 0.685 -0.462
243 1 8 0.0300 145.628 0.015 -0.644
244 1 8 0.0300 146.577 -0.748 0.766
245 1 8 0.0300 147.694 0.728 -1.578
246 1 8 0.0300 147.678 1.722 -0.044
247 1 7 0.1400 150.838 0.0 0.0
248 1 6 -0.4000 153.182 0.0 0.0
249 1 7 0.1400 152.064 -0.46199999999999997 0.685
250 1 8 0.0300 149.97199999999998 -0.644 0.01500000000000004
251 1 8 0.0300 150.921 0.766 -0.748
252 1 8 0.0300 152.03799999999998 -1.578 0.7280000000000001
253 1 8 0.0300 152.022 -0.04399999999999989 1.722
254 1 7 0.1400 155.18200000000002 0.0 0.0
255 1 6 -0.4000 157.526 0.0 0.0
256 1 7 0.1400 156.40800000000002 0.685 -0.462
257 1 8 0.0300 154.316 0.015 -0.644
258 1 8 0.0300 155.26500000000001 -0.748 0.766
259 1 8 0.0300 156.382 0.728 -1.578
260 1 8 0.0300 156.366 1.722 -0.044
261 1 7 0.1400 159.526 0.0 0.0
262 1 6 -0.4000 161.87 0.0 0.0
263 1 7 0.1400 160.752 -0.46199999999999997 0.685
264 1 8 0.0300 158.66 -0.644 0.01500000000000004
265 1 8 0.0300 159.609 0.766 -0.748
266 1 8 0.0300 160.726 -1.578 0.7280000000000001
267 1 8 0.0300 160.71 -0.04399999999999989 1.722
268 1 7 0.1400 163.87 0.0 0.0
269 1 6 -0.4000 166.214 0.0 0.0
270 1 7 0.1400 165.096 0.685 0.462
271 1 8 0.0300 163.004 0.015 0.644
272 1 8 0.0300 163.953 -0.748 -0.766
273 1 8 0.0300 165.07 0.728 1.578
274 1 8 0.0300 165.054 1.722 0.044
275 1 7 0.1400 168.214 0.0 0.0
276 1 6 -0.4000 170.558 0.0 0.0
277 1 7 0.1400 169.44 0.4620000000000001 0.685
278 1 8 0.0300 167.34799999999998 0.644 0.01499999999999996
279 1 8 0.0300 168.297 -0.766 -0.748
280 1 8 0.0300 169.414 1.578 0.7279999999999999
281 1 8 0.0300 169.398 0.0440000000000001 1.722
282 1 7 0.1400 172.558 0.0 0.0
283 1 6 -0.4000 174.902 0.0 0.0
284 1 7 0.1400 173.784 0.685 0.462
285 1 8 0.0300 171.69199999999998 0.015 0.644
286 1 8 0.0300 172.641 -0.748 -0.766
287 1 8 0.0300 173.75799999999998 0.728 1.578
288 1 8 0.0300 173.742 1.722 0.044
289 1 7 0.1400 176.90200000000002 0.0 0.0
290 1 6 -0.4000 179.246 0.0 0.0
291 1 7 0.1400 178.12800000000001 -0.46199999999999997 0.685
292 1 8 0.0300 176.036 -0.644 0.01500000000000004
293 1 8 0.0300 176.985 0.766 -0.748
294 1 8 0.0300 178.102 -1.578 0.7280000000000001
295 1 8 0.0300 178.086 -0.04399999999999989 1.722
296 1 7 0.1400 181.246 0.0 0.0
297 1 6 -0.4000 183.59 0.0 0.0
298 1 7 0.1400 182.472 0.685 0.462
299 1 8 0.0300 180.38 0.015 0.644
300 1 8 0.0300 181.329 -0.748 -0.766
301 1 8 0.0300 182.446 0.728 1.578
302 1 8 0.0300 182.43 1.722 0.044
303 1 7 0.1400 185.59 0.0 0.0
304 1 6 -0.4000 187.934 0.0 0.0
305 1 7 0.1400 186.816 -0.46199999999999997 0.685
306 1 8 0.0300 184.724 -0.644 0.01500000000000004
307 1 8 0.0300 185.673 0.766 -0.748
308 1 8 0.0300 186.79 -1.578 0.7280000000000001
309 1 8 0.0300 186.774 -0.04399999999999989 1.722
310 1 7 0.1400 189.934 0.0 0.0
311 1 6 -0.4000 192.278 0.0 0.0
312 1 7 0.1400 191.16 0.685 -0.462
313 1 8 0.0300 189.06799999999998 0.015 -0.644
314 1 8 0.0300 190.017 -0.748 0.766
315 1 8 0.0300 191.134 0.728 -1.578
316 1 8 0.0300 191.118 1.722 -0.044
317 1 7 0.1400 194.278 0.0 0.0
318 1 6 -0.4000 196.62199999999999 0.0 0.0
319 1 7 0.1400 195.504 0.4620000000000001 0.685
320 1 8 0.0300 193.41199999999998 0.644 0.01499999999999996
321 1 8 0.0300 194.361 -0.766 -0.748
322 1 8 0.0300 195.47799999999998 1.578 0.7279999999999999
323 1 8 0.0300 195.462 0.0440000000000001 1.722
324 1 7 0.1400 198.622 0.0 0.0
325 1 6 -0.4000 200.966 0.0 0.0
326 1 7 0.1400 199.848 0.685 -0.462
327 1 8 0.0300 197.756 0.015 -0.644
328 1 8 0.0300 198.705 -0.748 0.766
329 1 8 0.0300 199.822 0.728 -1.578
330 1 8 0.0300 199.806 1.722 -0.044
331 1 7 0.1400 202.966 0.0 0.0
332 1 6 -0.4000 205.31 0.0 0.0
333 1 7 0.1400 204.192 0.4620000000000001 0.685
334 1 8 0.0300 202.1 0.644 0.01499999999999996
335 1 8 0.0300 203.049 -0.766 -0.748
336 1 8 0.0300 204.166 1.578 0.7279999999999999
337 1 8 0.0300 204.15 0.0440000000000001 1.722
338 1 7 0.1400 207.31 0.0 0.0
339 1 6 -0.4000 209.654 0.0 0.0
340 1 7 0.1400 208.536 0.685 -0.462
341 1 8 0.0300 206.444 0.015 -0.644
342 1 8 0.0300 207.393 -0.748 0.766
343 1 8 0.0300 208.51 0.728 -1.578
344 1 8 0.0300 208.494 1.722 -0.044
345 1 7 0.1400 211.396 0.0 0.0
346 1 5 0.1450 212.504 -0.516 0.807
347 1 3 -0.6830 213.59699999999998 0.34900000000000003 0.654
348 1 2 0.0600 210.382 -0.24299999999999997 0.263
349 1 2 0.0600 211.595 0.655 -0.83
350 1 2 0.0600 212.183 -0.5799999999999998 1.875
351 1 2 0.0600 212.785 -1.531 0.4260000000000001
352 1 4 0.4180 214.256 0.0 0.0
353 2 1 -0.1800 179.0043 0.0 0.0
354 2 6 -0.4000 181.31830000000002 0.0 0.0
355 2 7 0.1400 180.2303 0.727 -0.51
356 2 2 0.0600 178.06130000000002 0.476 -0.295
357 2 2 0.0600 179.1293 -0.082 1.108
358 2 2 0.0600 179.07330000000002 -1.035 -0.421
359 2 8 0.0300 180.2723 0.787 -1.608
360 2 8 0.0300 180.3103 1.76 -0.097
361 2 7 0.1400 183.3033 0.0 0.0
362 2 6 -0.4000 185.6473 0.0 0.0
363 2 7 0.1400 184.5293 -0.46199999999999997 0.685
364 2 8 0.0300 182.4373 -0.644 0.01500000000000004
365 2 8 0.0300 183.3863 0.766 -0.748
366 2 8 0.0300 184.5033 -1.578 0.7280000000000001
367 2 8 0.0300 184.4873 -0.04399999999999989 1.722
368 2 7 0.1400 187.6473 0.0 0.0
369 2 6 -0.4000 189.9913 0.0 0.0
370 2 7 0.1400 188.8733 0.685 -0.462
371 2 8 0.0300 186.7813 0.015 -0.644
372 2 8 0.0300 187.7303 -0.748 0.766
373 2 8 0.0300 188.8473 0.728 -1.578
374 2 8 0.0300 188.8313 1.722 -0.044
375 2 7 0.1400 191.99130000000002 0.0 0.0
376 2 6 -0.4000 194.33530000000002 0.0 0.0
377 2 7 0.1400 193.21730000000002 -0.46199999999999997 0.685
378 2 8 0.0300 191.1253 -0.644 0.01500000000000004
379 2 8 0.0300 192.07430000000002 0.766 -0.748
380 2 8 0.0300 193.1913 -1.578 0.7280000000000001
381 2 8 0.0300 193.17530000000002 -0.04399999999999989 1.722
382 2 7 0.1400 196.33530000000002 0.0 0.0
383 2 6 -0.4000 198.6793 0.0 0.0
384 2 7 0.1400 197.56130000000002 0.685 -0.462
385 2 8 0.0300 195.4693 0.015 -0.644
386 2 8 0.0300 196.41830000000002 -0.748 0.766
387 2 8 0.0300 197.5353 0.728 -1.578
388 2 8 0.0300 197.51930000000002 1.722 -0.044
389 2 7 0.1400 200.6793 0.0 0.0
390 2 6 -0.4000 203.0233 0.0 0.0
391 2 7 0.1400 201.9053 -0.46199999999999997 0.685
392 2 8 0.0300 199.8133 -0.644 0.01500000000000004
393 2 8 0.0300 200.7623 0.766 -0.748
394 2 8 0.0300 201.8793 -1.578 0.7280000000000001
395 2 8 0.0300 201.8633 -0.04399999999999989 1.722
396 2 7 0.1400 205.0233 0.0 0.0
397 2 6 -0.4000 207.3673 0.0 0.0
398 2 7 0.1400 206.2493 0.685 0.462
399 2 8 0.0300 204.1573 0.015 0.644
400 2 8 0.0300 205.1063 -0.748 -0.766
401 2 8 0.0300 206.2233 0.728 1.578
402 2 8 0.0300 206.2073 1.722 0.044
403 2 7 0.1400 209.36730000000003 0.0 0.0
404 2 6 -0.4000 211.71130000000002 0.0 0.0
405 2 7 0.1400 210.59330000000003 0.4620000000000001 0.685
406 2 8 0.0300 208.50130000000001 0.644 0.01499999999999996
407 2 8 0.0300 209.45030000000003 -0.766 -0.748
408 2 8 0.0300 210.56730000000002 1.578 0.7279999999999999
409 2 8 0.0300 210.55130000000003 0.0440000000000001 1.722
410 2 7 0.1400 213.71130000000002 0.0 0.0
411 2 6 -0.4000 216.05530000000002 0.0 0.0
412 2 7 0.1400 214.93730000000002 0.685 -0.462
413 2 8 0.0300 212.8453 0.015 -0.644
414 2 8 0.0300 213.79430000000002 -0.748 0.766
415 2 8 0.0300 214.9113 0.728 -1.578
416 2 8 0.0300 214.89530000000002 1.722 -0.044
417 2 7 0.1400 218.05530000000002 0.0 0.0
418 2 6 -0.4000 220.3993 0.0 0.0
419 2 7 0.1400 219.28130000000002 -0.46199999999999997 0.685
420 2 8 0.0300 217.1893 -0.644 0.01500000000000004
421 2 8 0.0300 218.13830000000002 0.766 -0.748
422 2 8 0.0300 219.2553 -1.578 0.7280000000000001
423 2 8 0.0300 219.23930000000001 -0.04399999999999989 1.722
424 2 7 0.1400 222.3993 0.0 0.0
425 2 6 -0.4000 224.7433 0.0 0.0
426 2 7 0.1400 223.6253 0.685 -0.462
427 2 8 0.0300 221.5333 0.015 -0.644
428 2 8 0.0300 222.4823 -0.748 0.766
429 2 8 0.0300 223.5993 0.728 -1.578
430 2 8 0.0300 223.5833 1.722 -0.044
431 2 7 0.1400 226.7433 0.0 0.0
432 2 6 -0.4000 229.0873 0.0 0.0
433 2 7 0.1400 227.9693 -0.46199999999999997 0.685
434 2 8 0.0300 225.8773 -0.644 0.01500000000000004
435 2 8 0.0300 226.8263 0.766 -0.748
436 2 8 0.0300 227.9433 -1.578 0.7280000000000001
437 2 8 0.0300 227.9273 -0.04399999999999989 1.722
438 2 7 0.1400 231.0873 0.0 0.0
439 2 6 -0.4000 233.4313 0.0 0.0
440 2 7 0.1400 232.3133 0.685 -0.462
441 2 8 0.0300 230.22129999999999 0.015 -0.644
442 2 8 0.0300 231.1703 -0.748 0.766
443 2 8 0.0300 232.2873 0.728 -1.578
444 2 8 0.0300 232.2713 1.722 -0.044
445 2 7 0.1400 235.43130000000002 0.0 0.0
446 2 6 -0.4000 237.77530000000002 0.0 0.0
447 2 7 0.1400 236.65730000000002 -0.46199999999999997 0.685
448 2 8 0.0300 234.5653 -0.644 0.01500000000000004
449 2 8 0.0300 235.51430000000002 0.766 -0.748
450 2 8 0.0300 236.6313 -1.578 0.7280000000000001
451 2 8 0.0300 236.61530000000002 -0.04399999999999989 1.722
452 2 7 0.1400 239.77530000000002 0.0 0.0
453 2 6 -0.4000 242.1193 0.0 0.0
454 2 7 0.1400 241.00130000000001 0.685 0.462
455 2 8 0.0300 238.9093 0.015 0.644
456 2 8 0.0300 239.8583 -0.748 -0.766
457 2 8 0.0300 240.9753 0.728 1.578
458 2 8 0.0300 240.9593 1.722 0.044
459 2 7 0.1400 244.1193 0.0 0.0
460 2 6 -0.4000 246.4633 0.0 0.0
461 2 7 0.1400 245.3453 0.4620000000000001 0.685
462 2 8 0.0300 243.2533 0.644 0.01499999999999996
463 2 8 0.0300 244.2023 -0.766 -0.748
464 2 8 0.0300 245.3193 1.578 0.7279999999999999
465 2 8 0.0300 245.3033 0.0440000000000001 1.722
466 2 7 0.1400 248.46330000000003 0.0 0.0
467 2 6 -0.4000 250.80730000000003 0.0 0.0
468 2 7 0.1400 249.68930000000003 0.685 -0.462
469 2 8 0.0300 247.59730000000002 0.015 -0.644
470 2 8 0.0300 248.54630000000003 -0.748 0.766
471 2 8 0.0300 249.66330000000002 0.728 -1.578
472 2 8 0.0300 249.64730000000003 1.722 -0.044
473 2 7 0.1400 252.80730000000003 0.0 0.0
474 2 6 -0.4000 255.15130000000002 0.0 0.0
475 2 7 0.1400 254.03330000000003 0.4620000000000001 0.685
476 2 8 0.0300 251.9413 0.644 0.01499999999999996
477 2 8 0.0300 252.89030000000002 -0.766 -0.748
478 2 8 0.0300 254.00730000000001 1.578 0.7279999999999999
479 2 8 0.0300 253.99130000000002 0.0440000000000001 1.722
480 2 7 0.1400 257.1513 0.0 0.0
481 2 6 -0.4000 259.49530000000004 0.0 0.0
482 2 7 0.1400 258.3773 0.685 -0.462
483 2 8 0.0300 256.2853 0.015 -0.644
484 2 8 0.0300 257.2343 -0.748 0.766
485 2 8 0.0300 258.35130000000004 0.728 -1.578
486 2 8 0.0300 258.3353 1.722 -0.044
487 2 7 0.1400 261.4953 0.0 0.0
488 2 6 -0.4000 263.83930000000004 0.0 0.0
489 2 7 0.1400 262.7213 0.4620000000000001 0.685
490 2 8 0.0300 260.6293 0.644 0.01499999999999996
491 2 8 0.0300 261.5783 -0.766 -0.748
492 2 8 0.0300 262.69530000000003 1.578 0.7279999999999999
493 2 8 0.0300 262.6793 0.0440000000000001 1.722
494 2 7 0.1400 265.8393 0.0 0.0
495 2 6 -0.4000 268.18330000000003 0.0 0.0
496 2 7 0.1400 267.0653 0.685 -0.462
497 2 8 0.0300 264.9733 0.015 -0.644
498 2 8 0.0300 265.9223 -0.748 0.766
499 2 8 0.0300 267.0393 0.728 -1.578
500 2 8 0.0300 267.0233 1.722 -0.044
501 2 7 0.1400 270.1833 0.0 0.0
502 2 6 -0.4000 272.5273 0.0 0.0
503 2 7 0.1400 271.4093 -0.46199999999999997 0.685
504 2 8 0.0300 269.3173 -0.644 0.01500000000000004
505 2 8 0.0300 270.2663 0.766 -0.748
506 2 8 0.0300 271.3833 -1.578 0.7280000000000001
507 2 8 0.0300 271.3673 -0.04399999999999989 1.722
508 2 7 0.1400 274.52729999999997 0.0 0.0
509 2 6 -0.4000 276.8713 0.0 0.0
510 2 7 0.1400 275.75329999999997 0.685 0.462
511 2 8 0.0300 273.6613 0.015 0.644
512 2 8 0.0300 274.6103 -0.748 -0.766
513 2 8 0.0300 275.7273 0.728 1.578
514 2 8 0.0300 275.7113 1.722 0.044
515 2 7 0.1400 278.8713 0.0 0.0
516 2 6 -0.4000 281.21530000000007 0.0 0.0
517 2 7 0.1400 280.0973 0.4620000000000001 0.685
518 2 8 0.0300 278.00530000000003 0.644 0.01499999999999996
519 2 8 0.0300 278.95430000000005 -0.766 -0.748
520 2 8 0.0300 280.07130000000006 1.578 0.7279999999999999
521 2 8 0.0300 280.05530000000005 0.0440000000000001 1.722
522 2 7 0.1400 283.21529999999996 0.0 0.0
523 2 6 -0.4000 285.5593 0.0 0.0
524 2 7 0.1400 284.44129999999996 0.685 -0.462
525 2 8 0.0300 282.34929999999997 0.015 -0.644
526 2 8 0.0300 283.2983 -0.748 0.766
527 2 8 0.0300 284.4153 0.728 -1.578
528 2 8 0.0300 284.3993 1.722 -0.044
529 2 7 0.1400 287.5593 0.0 0.0
530 2 6 -0.4000 289.90330000000006 0.0 0.0
531 2 7 0.1400 288.7853 0.4620000000000001 0.685
532 2 8 0.0300 286.6933 0.644 0.01499999999999996
533 2 8 0.0300 287.64230000000003 -0.766 -0.748
534 2 8 0.0300 288.75930000000005 1.578 0.7279999999999999
535 2 8 0.0300 288.74330000000003 0.0440000000000001 1.722
536 2 7 0.1400 291.9033 0.0 0.0
537 2 6 -0.4000 294.24730000000005 0.0 0.0
538 2 7 0.1400 293.1293 0.685 -0.462
539 2 8 0.0300 291.0373 0.015 -0.644
540 2 8 0.0300 291.9863 -0.748 0.766
541 2 8 0.0300 293.10330000000005 0.728 -1.578
542 2 8 0.0300 293.0873 1.722 -0.044
543 2 7 0.1400 296.2473 0.0 0.0
544 2 6 -0.4000 298.59130000000005 0.0 0.0
545 2 7 0.1400 297.4733 -0.46199999999999997 0.685
546 2 8 0.0300 295.3813 -0.644 0.01500000000000004
547 2 8 0.0300 296.3303 0.766 -0.748
548 2 8 0.0300 297.44730000000004 -1.578 0.7280000000000001
549 2 8 0.0300 297.4313 -0.04399999999999989 1.722
550 2 7 0.1400 300.5913 0.0 0.0
551 2 6 -0.4000 302.93530000000004 0.0 0.0
552 2 7 0.1400 301.8173 0.685 -0.462
553 2 8 0.0300 299.7253 0.015 -0.644
554 2 8 0.0300 300.6743 -0.748 0.766
555 2 8 0.0300 301.79130000000004 0.728 -1.578
556 2 8 0.0300 301.7753 1.722 -0.044
557 2 7 0.1400 304.9353 0.0 0.0
558 2 6 -0.4000 307.27930000000003 0.0 0.0
559 2 7 0.1400 306.1613 -0.46199999999999997 0.685
560 2 8 0.0300 304.0693 -0.644 0.01500000000000004
561 2 8 0.0300 305.0183 0.766 -0.748
562 2 8 0.0300 306.13530000000003 -1.578 0.7280000000000001
563 2 8 0.0300 306.1193 -0.04399999999999989 1.722
564 2 7 0.1400 309.2793 0.0 0.0
565 2 6 -0.4000 311.62330000000003 0.0 0.0
566 2 7 0.1400 310.5053 0.685 0.462
567 2 8 0.0300 308.4133 0.015 0.644
568 2 8 0.0300 309.3623 -0.748 -0.766
569 2 8 0.0300 310.4793 0.728 1.578
570 2 8 0.0300 310.4633 1.722 0.044
571 2 7 0.1400 313.6233 0.0 0.0
572 2 6 -0.4000 315.9673 0.0 0.0
573 2 7 0.1400 314.84929999999997 0.4620000000000001 0.685
574 2 8 0.0300 312.7573 0.644 0.01499999999999996
575 2 8 0.0300 313.7063 -0.766 -0.748
576 2 8 0.0300 314.8233 1.578 0.7279999999999999
577 2 8 0.0300 314.8073 0.0440000000000001 1.722
578 2 7 0.1400 317.9673 0.0 0.0
579 2 6 -0.4000 320.3113000000001 0.0 0.0
580 2 7 0.1400 319.1933 0.685 -0.462
581 2 8 0.0300 317.10130000000004 0.015 -0.644
582 2 8 0.0300 318.05030000000005 -0.748 0.766
583 2 8 0.0300 319.16730000000007 0.728 -1.578
584 2 8 0.0300 319.15130000000005 1.722 -0.044
585 2 7 0.1400 322.31129999999996 0.0 0.0
586 2 6 -0.4000 324.6553 0.0 0.0
587 2 7 0.1400 323.53729999999996 0.4620000000000001 0.685
588 2 8 0.0300 321.4453 0.644 0.01499999999999996
589 2 8 0.0300 322.3943 -0.766 -0.748
590 2 8 0.0300 323.5113 1.578 0.7279999999999999
591 2 8 0.0300 323.4953 0.0440000000000001 1.722
592 2 7 0.1400 326.6553 0.0 0.0
593 2 6 -0.4000 328.99930000000006 0.0 0.0
594 2 7 0.1400 327.8813 0.685 -0.462
595 2 8 0.0300 325.7893 0.015 -0.644
596 2 8 0.0300 326.73830000000004 -0.748 0.766
597 2 8 0.0300 327.85530000000006 0.728 -1.578
598 2 8 0.0300 327.83930000000004 1.722 -0.044
599 2 7 0.1400 330.99929999999995 0.0 0.0
600 2 6 -0.4000 333.3433 0.0 0.0
601 2 7 0.1400 332.22529999999995 -0.46199999999999997 0.685
602 2 8 0.0300 330.13329999999996 -0.644 0.01500000000000004
603 2 8 0.0300 331.0823 0.766 -0.748
604 2 8 0.0300 332.1993 -1.578 0.7280000000000001
605 2 8 0.0300 332.1833 -0.04399999999999989 1.722
606 2 7 0.1400 335.3433 0.0 0.0
607 2 6 -0.4000 337.68730000000005 0.0 0.0
608 2 7 0.1400 336.5693 0.685 0.462
609 2 8 0.0300 334.4773 0.015 0.644
610 2 8 0.0300 335.4263 -0.748 -0.766
611 2 8 0.0300 336.54330000000004 0.728 1.578
612 2 8 0.0300 336.5273 1.722 0.044
613 2 7 0.1400 339.6873 0.0 0.0
614 2 6 -0.4000 342.03130000000004 0.0 0.0
615 2 7 0.1400 340.9133 -0.46199999999999997 0.685
616 2 8 0.0300 338.8213 -0.644 0.01500000000000004
617 2 8 0.0300 339.7703 0.766 -0.748
618 2 8 0.0300 340.88730000000004 -1.578 0.7280000000000001
619 2 8 0.0300 340.8713 -0.04399999999999989 1.722
620 2 7 0.1400 344.0313 0.0 0.0
621 2 6 -0.4000 346.37530000000004 0.0 0.0
622 2 7 0.1400 345.2573 0.685 -0.462
623 2 8 0.0300 343.1653 0.015 -0.644
624 2 8 0.0300 344.1143 -0.748 0.766
625 2 8 0.0300 345.23130000000003 0.728 -1.578
626 2 8 0.0300 345.2153 1.722 -0.044
627 2 7 0.1400 348.3753 0.0 0.0
628 2 6 -0.4000 350.71930000000003 0.0 0.0
629 2 7 0.1400 349.6013 -0.46199999999999997 0.685
630 2 8 0.0300 347.5093 -0.644 0.01500000000000004
631 2 8 0.0300 348.4583 0.766 -0.748
632 2 8 0.0300 349.5753 -1.578 0.7280000000000001
633 2 8 0.0300 349.5593 -0.04399999999999989 1.722
634 2 7 0.1400 352.7193 0.0 0.0
635 2 6 -0.4000 355.0633 0.0 0.0
636 2 7 0.1400 353.9453 0.685 0.462
637 2 8 0.0300 351.8533 0.015 0.644
638 2 8 0.0300 352.8023 -0.748 -0.766
639 2 8 0.0300 353.9193 0.728 1.578
640 2 8 0.0300 353.9033 1.722 0.044
641 2 7 0.1400 357.0633 0.0 0.0
642 2 6 -0.4000 359.4073000000001 0.0 0.0
643 2 7 0.1400 358.2893 0.4620000000000001 0.685
644 2 8 0.0300 356.19730000000004 0.644 0.01499999999999996
645 2 8 0.0300 357.14630000000005 -0.766 -0.748
646 2 8 0.0300 358.2633000000001 1.578 0.7279999999999999
647 2 8 0.0300 358.24730000000005 0.0440000000000001 1.722
648 2 7 0.1400 361.40729999999996 0.0 0.0
649 2 6 -0.4000 363.7513 0.0 0.0
650 2 7 0.1400 362.63329999999996 0.685 -0.462
651 2 8 0.0300 360.5413 0.015 -0.644
652 2 8 0.0300 361.4903 -0.748 0.766
653 2 8 0.0300 362.6073 0.728 -1.578
654 2 8 0.0300 362.5913 1.722 -0.044
655 2 7 0.1400 365.7513 0.0 0.0
656 2 6 -0.4000 368.09530000000007 0.0 0.0
657 2 7 0.1400 366.9773 -0.46199999999999997 0.685
658 2 8 0.0300 364.88530000000003 -0.644 0.01500000000000004
659 2 8 0.0300 365.83430000000004 0.766 -0.748
660 2 8 0.0300 366.95130000000006 -1.578 0.7280000000000001
661 2 8 0.0300 366.93530000000004 -0.04399999999999989 1.722
662 2 7 0.1400 370.09529999999995 0.0 0.0
663 2 6 -0.4000 372.4393 0.0 0.0
664 2 7 0.1400 371.32129999999995 0.685 -0.462
665 2 8 0.0300 369.22929999999997 0.015 -0.644
666 2 8 0.0300 370.1783 -0.748 0.766
667 2 8 0.0300 371.2953 0.728 -1.578
668 2 8 0.0300 371.2793 1.722 -0.044
669 2 7 0.1400 374.4393 0.0 0.0
670 2 6 -0.4000 376.78330000000005 0.0 0.0
671 2 7 0.1400 375.6653 0.4620000000000001 0.685
672 2 8 0.0300 373.5733 0.644 0.01499999999999996
673 2 8 0.0300 374.52230000000003 -0.766 -0.748
674 2 8 0.0300 375.63930000000005 1.578 0.7279999999999999
675 2 8 0.0300 375.62330000000003 0.0440000000000001 1.722
676 2 7 0.1400 378.7833 0.0 0.0
677 2 6 -0.4000 381.12730000000005 0.0 0.0
678 2 7 0.1400 380.0093 0.685 -0.462
679 2 8 0.0300 377.9173 0.015 -0.644
680 2 8 0.0300 378.8663 -0.748 0.766
681 2 8 0.0300 379.98330000000004 0.728 -1.578
682 2 8 0.0300 379.9673 1.722 -0.044
683 2 7 0.1400 383.1273 0.0 0.0
684 2 6 -0.4000 385.47130000000004 0.0 0.0
685 2 7 0.1400 384.3533 -0.46199999999999997 0.685
686 2 8 0.0300 382.2613 -0.644 0.01500000000000004
687 2 8 0.0300 383.2103 0.766 -0.748
688 2 8 0.0300 384.32730000000004 -1.578 0.7280000000000001
689 2 8 0.0300 384.3113 -0.04399999999999989 1.722
690 2 7 0.1400 387.4713 0.0 0.0
691 2 6 -0.4000 389.81530000000004 0.0 0.0
692 2 7 0.1400 388.6973 0.685 0.462
693 2 8 0.0300 386.6053 0.015 0.644
694 2 8 0.0300 387.5543 -0.748 -0.766
695 2 8 0.0300 388.67130000000003 0.728 1.578
696 2 8 0.0300 388.6553 1.722 0.044
697 2 7 0.1400 391.5573 0.0 0.0
698 2 5 0.1450 392.6653 -0.516 0.807
699 2 3 -0.6830 393.7583 0.34900000000000003 0.654
700 2 2 0.0600 390.5433 -0.24299999999999997 0.263
701 2 2 0.0600 391.7563 0.655 -0.83
702 2 2 0.0600 392.34430000000003 -0.5799999999999998 1.875
703 2 2 0.0600 392.9463 -1.531 0.4260000000000001
704 2 4 0.4180 394.4173 0.0 0.0
705 3 1 -0.1800 359.1655 0.0 0.0
706 3 6 -0.4000 361.4795 0.0 0.0
707 3 7 0.1400 360.3915 0.727 -0.51
708 3 2 0.0600 358.22249999999997 0.476 -0.295
709 3 2 0.0600 359.2905 -0.082 1.108
710 3 2 0.0600 359.23449999999997 -1.035 -0.421
711 3 8 0.0300 360.4335 0.787 -1.608
712 3 8 0.0300 360.4715 1.76 -0.097
713 3 7 0.1400 363.4645 0.0 0.0
714 3 6 -0.4000 365.80850000000004 0.0 0.0
715 3 7 0.1400 364.6905 0.4620000000000001 0.685
716 3 8 0.0300 362.5985 0.644 0.01499999999999996
717 3 8 0.0300 363.5475 -0.766 -0.748
718 3 8 0.0300 364.66450000000003 1.578 0.7279999999999999
719 3 8 0.0300 364.6485 0.0440000000000001 1.722
720 3 7 0.1400 367.8085 0.0 0.0
721 3 6 -0.4000 370.15250000000003 0.0 0.0
722 3 7 0.1400 369.0345 0.685 -0.462
723 3 8 0.0300 366.9425 0.015 -0.644
724 3 8 0.0300 367.8915 -0.748 0.766
725 3 8 0.0300 369.0085 0.728 -1.578
726 3 8 0.0300 368.9925 1.722 -0.044
727 3 7 0.1400 372.1525 0.0 0.0
728 3 6 -0.4000 374.4965 0.0 0.0
729 3 7 0.1400 373.3785 -0.46199999999999997 0.685
730 3 8 0.0300 371.2865 -0.644 0.01500000000000004
731 3 8 0.0300 372.2355 0.766 -0.748
732 3 8 0.0300 373.3525 -1.578 0.7280000000000001
733 3 8 0.0300 373.3365 -0.04399999999999989 1.722
734 3 7 0.1400 376.49649999999997 0.0 0.0
735 3 6 -0.4000 378.8405 0.0 0.0
736 3 7 0.1400 377.72249999999997 0.685 -0.462
737 3 8 0.0300 375.6305 0.015 -0.644
738 3 8 0.0300 376.5795 -0.748 0.766
739 3 8 0.0300 377.6965 0.728 -1.578
740 3 8 0.0300 377.6805 1.722 -0.044
741 3 7 0.1400 380.84049999999996 0.0 0.0
742 3 6 -0.4000 383.1845 0.0 0.0
743 3 7 0.1400 382.06649999999996 -0.46199999999999997 0.685
744 3 8 0.0300 379.9745 -0.644 0.01500000000000004
745 3 8 0.0300 380.9235 0.766 -0.748
746 3 8 0.0300 382.0405 -1.578 0.7280000000000001
747 3 8 0.0300 382.0245 -0.04399999999999989 1.722
748 3 7 0.1400 385.18449999999996 0.0 0.0
749 3 6 -0.4000 387.5285 0.0 0.0
750 3 7 0.1400 386.41049999999996 0.685 -0.462
751 3 8 0.0300 384.3185 0.015 -0.644
752 3 8 0.0300 385.2675 -0.748 0.766
753 3 8 0.0300 386.3845 0.728 -1.578
754 3 8 0.0300 386.3685 1.722 -0.044
755 3 7 0.1400 389.52849999999995 0.0 0.0
756 3 6 -0.4000 391.8725 0.0 0.0
757 3 7 0.1400 390.75449999999995 0.4620000000000001 0.685
758 3 8 0.0300 388.66249999999997 0.644 0.01499999999999996
759 3 8 0.0300 389.6115 -0.766 -0.748
760 3 8 0.0300 390.7285 1.578 0.7279999999999999
761 3 8 0.0300 390.7125 0.0440000000000001 1.722
762 3 7 0.1400 393.87249999999995 0.0 0.0
763 3 6 -0.4000 396.2165 0.0 0.0
764 3 7 0.1400 395.09849999999994 0.685 -0.462
765 3 8 0.0300 393.00649999999996 0.015 -0.644
766 3 8 0.0300 393.9555 -0.748 0.766
767 3 8 0.0300 395.0725 0.728 -1.578
768 3 8 0.0300 395.05649999999997 1.722 -0.044
769 3 7 0.1400 398.2165 0.0 0.0
770 3 6 -0.4000 400.56050000000005 0.0 0.0
771 3 7 0.1400 399.4425 -0.46199999999999997 0.685
772 3 8 0.0300 397.3505 -0.644 0.01500000000000004
773 3 8 0.0300 398.2995 0.766 -0.748
774 3 8 0.0300 399.41650000000004 -1.578 0.7280000000000001
775 3 8 0.0300 399.4005 -0.04399999999999989 1.722
776 3 7 0.1400 402.56049999999993 0.0 0.0
777 3 6 -0.4000 404.9045 0.0 0.0
778 3 7 0.1400 403.78649999999993 0.685 0.462
779 3 8 0.0300 401.69449999999995 0.015 0.644
780 3 8 0.0300 402.64349999999996 -0.748 -0.766
781 3 8 0.0300 403.7605 0.728 1.578
782 3 8 0.0300 403.74449999999996 1.722 0.044
783 3 7 0.1400 406.9045 0.0 0.0
784 3 6 -0.4000 409.24850000000004 0.0 0.0
785 3 7 0.1400 408.1305 0.4620000000000001 0.685
786 3 8 0.0300 406.0385 0.644 0.01499999999999996
787 3 8 0.0300 406.9875 -0.766 -0.748
788 3 8 0.0300 408.10450000000003 1.578 0.7279999999999999
789 3 8 0.0300 408.0885 0.0440000000000001 1.722
790 3 7 0.1400 411.2485 0.0 0.0
791 3 6 -0.4000 413.59250000000003 0.0 0.0
792 3 7 0.1400 412.4745 0.685 0.462
793 3 8 0.0300 410.3825 0.015 0.644
794 3 8 0.0300 411.3315 -0.748 -0.766
795 3 8 0.0300 412.4485 0.728 1.578
796 3 8 0.0300 412.4325 1.722 0.044
797 3 7 0.1400 415.5925 0.0 0.0
798 3 6 -0.4000 417.9365 0.0 0.0
799 3 7 0.1400 416.8185 0.4620000000000001 0.685
800 3 8 0.0300 414.7265 0.644 0.01499999999999996
801 3 8 0.0300 415.6755 -0.766 -0.748
802 3 8 0.0300 416.7925 1.578 0.7279999999999999
803 3 8 0.0300 416.7765 0.0440000000000001 1.722
804 3 7 0.1400 419.93649999999997 0.0 0.0
805 3 6 -0.4000 422.2805 0.0 0.0
806 3 7 0.1400 421.16249999999997 0.685 -0.462
807 3 8 0.0300 419.0705 0.015 -0.644
808 3 8 0.0300 420.0195 -0.748 0.766
809 3 8 0.0300 421.1365 0.728 -1.578
810 3 8 0.0300 421.1205 1.722 -0.044
811 3 7 0.1400 424.28049999999996 0.0 0.0
812 3 6 -0.4000 426.6245 0.0 0.0
813 3 7 0.1400 425.50649999999996 -0.46199999999999997 0.685
814 3 8 0.0300 423.4145 -0.644 0.01500000000000004
815 3 8 0.0300 424.3635 0.766 -0.748
816 3 8 0.0300 425.4805 -1.578 0.7280000000000001
817 3 8 0.0300 425.4645 -0.04399999999999989 1.722
818 3 7 0.1400 428.62449999999995 0.0 0.0
819 3 6 -0.4000 430.9685 0.0 0.0
820 3 7 0.1400 429.85049999999995 0.685 0.462
821 3 8 0.0300 427.75849999999997 0.015 0.644
822 3 8 0.0300 428.7075 -0.748 -0.766
823 3 8 0.0300 429.8245 0.728 1.578
824 3 8 0.0300 429.8085 1.722 0.044
825 3 7 0.1400 432.96849999999995 0.0 0.0
826 3 6 -0.4000 435.3125 0.0 0.0
827 3 7 0.1400 434.19449999999995 -0.46199999999999997 0.685
828 3 8 0.0300 432.10249999999996 -0.644 0.01500000000000004
829 3 8 0.0300 433.0515 0.766 -0.748
830 3 8 0.0300 434.1685 -1.578 0.7280000000000001
831 3 8 0.0300 434.1525 -0.04399999999999989 1.722
832 3 7 0.1400 437.3125 0.0 0.0
833 3 6 -0.4000 439.65650000000005 0.0 0.0
834 3 7 0.1400 438.5385 0.685 -0.462
835 3 8 0.0300 436.4465 0.015 -0.644
836 3 8 0.0300 437.3955 -0.748 0.766
837 3 8 0.0300 438.51250000000005 0.728 -1.578
838 3 8 0.0300 438.4965 1.722 -0.044
839 3 7 0.1400 441.65649999999994 0.0 0.0
840 3 6 -0.4000 444.0005 0.0 0.0
841 3 7 0.1400 442.88249999999994 -0.46199999999999997 0.685
842 3 8 0.0300 440.79049999999995 -0.644 0.01500000000000004
843 3 8 0.0300 441.73949999999996 0.766 -0.748
844 3 8 0.0300 442.8565 -1.578 0.7280000000000001
845 3 8 0.0300 442.84049999999996 -0.04399999999999989 1.722
846 3 7 0.1400 446.0005 0.0 0.0
847 3 6 -0.4000 448.34450000000004 0.0 0.0
848 3 7 0.1400 447.2265 0.685 0.462
849 3 8 0.0300 445.1345 0.015 0.644
850 3 8 0.0300 446.0835 -0.748 -0.766
851 3 8 0.0300 447.20050000000003 0.728 1.578
852 3 8 0.0300 447.1845 1.722 0.044
853 3 7 0.1400 450.3445 0.0 0.0
854 3 6 -0.4000 452.68850000000003 0.0 0.0
855 3 7 0.1400 451.5705 -0.46199999999999997 0.685
856 3 8 0.0300 449.4785 -0.644 0.01500000000000004
857 3 8 0.0300 450.4275 0.766 -0.748
858 3 8 0.0300 451.5445 -1.578 0.7280000000000001
859 3 8 0.0300 451.5285 -0.04399999999999989 1.722
860 3 7 0.1400 454.6885 0.0 0.0
861 3 6 -0.4000 457.0325 0.0 0.0
862 3 7 0.1400 455.9145 0.685 -0.462
863 3 8 0.0300 453.8225 0.015 -0.644
864 3 8 0.0300 454.7715 -0.748 0.766
865 3 8 0.0300 455.8885 0.728 -1.578
866 3 8 0.0300 455.8725 1.722 -0.044
867 3 7 0.1400 459.03249999999997 0.0 0.0
868 3 6 -0.4000 461.3765 0.0 0.0
869 3 7 0.1400 460.25849999999997 0.4620000000000001 0.685
870 3 8 0.0300 458.1665 0.644 0.01499999999999996
871 3 8 0.0300 459.1155 -0.766 -0.748
872 3 8 0.0300 460.2325 1.578 0.7279999999999999
873 3 8 0.0300 460.2165 0.0440000000000001 1.722
874 3 7 0.1400 463.37649999999996 0.0 0.0
875 3 6 -0.4000 465.7205 0.0 0.0
876 3 7 0.1400 464.60249999999996 0.685 -0.462
877 3 8 0.0300 462.5105 0.015 -0.644
878 3 8 0.0300 463.4595 -0.748 0.766
879 3 8 0.0300 464.5765 0.728 -1.578
880 3 8 0.0300 464.5605 1.722 -0.044
881 3 7 0.1400 467.72049999999996 0.0 0.0
882 3 6 -0.4000 470.0645 0.0 0.0
883 3 7 0.1400 468.94649999999996 -0.46199999999999997 0.685
884 3 8 0.0300 466.8545 -0.644 0.01500000000000004
885 3 8 0.0300 467.8035 0.766 -0.748
886 3 8 0.0300 468.9205 -1.578 0.7280000000000001
887 3 8 0.0300 468.9045 -0.04399999999999989 1.722
888 3 7 0.1400 472.06449999999995 0.0 0.0
889 3 6 -0.4000 474.4085 0.0 0.0
890 3 7 0.1400 473.29049999999995 0.685 0.462
891 3 8 0.0300 471.19849999999997 0.015 0.644
892 3 8 0.0300 472.1475 -0.748 -0.766
893 3 8 0.0300 473.2645 0.728 1.578
894 3 8 0.0300 473.2485 1.722 0.044
895 3 7 0.1400 476.40849999999995 0.0 0.0
896 3 6 -0.4000 478.7525 0.0 0.0
897 3 7 0.1400 477.63449999999995 -0.46199999999999997 0.685
898 3 8 0.0300 475.54249999999996 -0.644 0.01500000000000004
899 3 8 0.0300 476.4915 0.766 -0.748
900 3 8 0.0300 477.6085 -1.578 0.7280000000000001
901 3 8 0.0300 477.5925 -0.04399999999999989 1.722
902 3 7 0.1400 480.75249999999994 0.0 0.0
903 3 6 -0.4000 483.0965 0.0 0.0
904 3 7 0.1400 481.97849999999994 0.685 -0.462
905 3 8 0.0300 479.88649999999996 0.015 -0.644
906 3 8 0.0300 480.83549999999997 -0.748 0.766
907 3 8 0.0300 481.9525 0.728 -1.578
908 3 8 0.0300 481.93649999999997 1.722 -0.044
909 3 7 0.1400 485.0965 0.0 0.0
910 3 6 -0.4000 487.44050000000004 0.0 0.0
911 3 7 0.1400 486.3225 0.4620000000000001 0.685
912 3 8 0.0300 484.2305 0.644 0.01499999999999996
913 3 8 0.0300 485.1795 -0.766 -0.748
914 3 8 0.0300 486.29650000000004 1.578 0.7279999999999999
915 3 8 0.0300 486.2805 0.0440000000000001 1.722
916 3 7 0.1400 489.44049999999993 0.0 0.0
917 3 6 -0.4000 491.7845 0.0 0.0
918 3 7 0.1400 490.6664999999999 0.685 -0.462
919 3 8 0.0300 488.57449999999994 0.015 -0.644
920 3 8 0.0300 489.52349999999996 -0.748 0.766
921 3 8 0.0300 490.6405 0.728 -1.578
922 3 8 0.0300 490.62449999999995 1.722 -0.044
923 3 7 0.1400 493.7845 0.0 0.0
924 3 6 -0.4000 496.12850000000003 0.0 0.0
925 3 7 0.1400 495.0105 0.4620000000000001 0.685
926 3 8 0.0300 492.9185 0.644 0.01499999999999996
927 3 8 0.0300 493.8675 -0.766 -0.748
928 3 8 0.0300 494.9845 1.578 0.7279999999999999
929 3 8 0.0300 494.9685 0.0440000000000001 1.722
930 3 7 0.1400 498.1285 0.0 0.0
931 3 6 -0.4000 500.4725 0.0 0.0
932 3 7 0.1400 499.3545 0.685 -0.462
933 3 8 0.0300 497.2625 0.015 -0.644
934 3 8 0.0300 498.2115 -0.748 0.766
935 3 8 0.0300 499.3285 0.728 -1.578
936 3 8 0.0300 499.3125 1.722 -0.044
937 3 7 0.1400 502.47249999999997 0.0 0.0
938 3 6 -0.4000 504.8165 0.0 0.0
939 3 7 0.1400 503.69849999999997 -0.46199999999999997 0.685
940 3 8 0.0300 501.6065 -0.644 0.01500000000000004
941 3 8 0.0300 502.5555 0.766 -0.748
942 3 8 0.0300 503.6725 -1.578 0.7280000000000001
943 3 8 0.0300 503.6565 -0.04399999999999989 1.722
944 3 7 0.1400 506.81649999999996 0.0 0.0
945 3 6 -0.4000 509.1605 0.0 0.0
946 3 7 0.1400 508.04249999999996 0.685 0.462
947 3 8 0.0300 505.9505 0.015 0.644
948 3 8 0.0300 506.8995 -0.748 -0.766
949 3 8 0.0300 508.0165 0.728 1.578
950 3 8 0.0300 508.0005 1.722 0.044
951 3 7 0.1400 511.16049999999996 0.0 0.0
952 3 6 -0.4000 513.5045 0.0 0.0
953 3 7 0.1400 512.3865 -0.46199999999999997 0.685
954 3 8 0.0300 510.29449999999997 -0.644 0.01500000000000004
955 3 8 0.0300 511.2435 0.766 -0.748
956 3 8 0.0300 512.3605 -1.578 0.7280000000000001
957 3 8 0.0300 512.3444999999999 -0.04399999999999989 1.722
958 3 7 0.1400 515.5045 0.0 0.0
959 3 6 -0.4000 517.8485000000001 0.0 0.0
960 3 7 0.1400 516.7305 0.685 0.462
961 3 8 0.0300 514.6385 0.015 0.644
962 3 8 0.0300 515.5875 -0.748 -0.766
963 3 8 0.0300 516.7045 0.728 1.578
964 3 8 0.0300 516.6885 1.722 0.044
965 3 7 0.1400 519.8485 0.0 0.0
966 3 6 -0.4000 522.1925 0.0 0.0
967 3 7 0.1400 521.0745 -0.46199999999999997 0.685
968 3 8 0.0300 518.9825 -0.644 0.01500000000000004
969 3 8 0.0300 519.9314999999999 0.766 -0.748
970 3 8 0.0300 521.0485 -1.578 0.7280000000000001
971 3 8 0.0300 521.0324999999999 -0.04399999999999989 1.722
972 3 7 0.1400 524.1925 0.0 0.0
973 3 6 -0.4000 526.5365 0.0 0.0
974 3 7 0.1400 525.4185 0.685 -0.462
975 3 8 0.0300 523.3265 0.015 -0.644
976 3 8 0.0300 524.2755 -0.748 0.766
977 3 8 0.0300 525.3925 0.728 -1.578
978 3 8 0.0300 525.3765 1.722 -0.044
979 3 7 0.1400 528.5364999999999 0.0 0.0
980 3 6 -0.4000 530.8805 0.0 0.0
981 3 7 0.1400 529.7624999999999 0.4620000000000001 0.685
982 3 8 0.0300 527.6705 0.644 0.01499999999999996
983 3 8 0.0300 528.6194999999999 -0.766 -0.748
984 3 8 0.0300 529.7365 1.578 0.7279999999999999
985 3 8 0.0300 529.7204999999999 0.0440000000000001 1.722
986 3 7 0.1400 532.8805 0.0 0.0
987 3 6 -0.4000 535.2245 0.0 0.0
988 3 7 0.1400 534.1065 0.685 -0.462
989 3 8 0.0300 532.0145 0.015 -0.644
990 3 8 0.0300 532.9635 -0.748 0.766
991 3 8 0.0300 534.0805 0.728 -1.578
992 3 8 0.0300 534.0645 1.722 -0.044
993 3 7 0.1400 537.2245 0.0 0.0
994 3 6 -0.4000 539.5685000000001 0.0 0.0
995 3 7 0.1400 538.4505 0.4620000000000001 0.685
996 3 8 0.0300 536.3585 0.644 0.01499999999999996
997 3 8 0.0300 537.3075 -0.766 -0.748
998 3 8 0.0300 538.4245000000001 1.578 0.7279999999999999
999 3 8 0.0300 538.4085 0.0440000000000001 1.722
1000 3 7 0.1400 541.5685 0.0 0.0
1001 3 6 -0.4000 543.9125 0.0 0.0
1002 3 7 0.1400 542.7945 0.685 -0.462
1003 3 8 0.0300 540.7025 0.015 -0.644
1004 3 8 0.0300 541.6514999999999 -0.748 0.766
1005 3 8 0.0300 542.7685 0.728 -1.578
1006 3 8 0.0300 542.7524999999999 1.722 -0.044
1007 3 7 0.1400 545.9124999999999 0.0 0.0
1008 3 6 -0.4000 548.2565 0.0 0.0
1009 3 7 0.1400 547.1384999999999 -0.46199999999999997 0.685
1010 3 8 0.0300 545.0464999999999 -0.644 0.01500000000000004
1011 3 8 0.0300 545.9954999999999 0.766 -0.748
1012 3 8 0.0300 547.1125 -1.578 0.7280000000000001
1013 3 8 0.0300 547.0964999999999 -0.04399999999999989 1.722
1014 3 7 0.1400 550.2565 0.0 0.0
1015 3 6 -0.4000 552.6005 0.0 0.0
1016 3 7 0.1400 551.4825 0.685 0.462
1017 3 8 0.0300 549.3905 0.015 0.644
1018 3 8 0.0300 550.3394999999999 -0.748 -0.766
1019 3 8 0.0300 551.4565 0.728 1.578
1020 3 8 0.0300 551.4404999999999 1.722 0.044
1021 3 7 0.1400 554.6005 0.0 0.0
1022 3 6 -0.4000 556.9445000000001 0.0 0.0
1023 3 7 0.1400 555.8265 -0.46199999999999997 0.685
1024 3 8 0.0300 553.7345 -0.644 0.01500000000000004
1025 3 8 0.0300 554.6835 0.766 -0.748
1026 3 8 0.0300 555.8005 -1.578 0.7280000000000001
1027 3 8 0.0300 555.7845 -0.04399999999999989 1.722
1028 3 7 0.1400 558.9445 0.0 0.0
1029 3 6 -0.4000 561.2885 0.0 0.0
1030 3 7 0.1400 560.1705 0.685 -0.462
1031 3 8 0.0300 558.0785 0.015 -0.644
1032 3 8 0.0300 559.0274999999999 -0.748 0.766
1033 3 8 0.0300 560.1445 0.728 -1.578
1034 3 8 0.0300 560.1284999999999 1.722 -0.044
1035 3 7 0.1400 563.2885 0.0 0.0
1036 3 6 -0.4000 565.6325 0.0 0.0
1037 3 7 0.1400 564.5145 -0.46199999999999997 0.685
1038 3 8 0.0300 562.4225 -0.644 0.01500000000000004
1039 3 8 0.0300 563.3715 0.766 -0.748
1040 3 8 0.0300 564.4885 -1.578 0.7280000000000001
1041 3 8 0.0300 564.4725 -0.04399999999999989 1.722
1042 3 7 0.1400 567.6324999999999 0.0 0.0
1043 3 6 -0.4000 569.9765 0.0 0.0
1044 3 7 0.1400 568.8584999999999 0.685 -0.462
1045 3 8 0.0300 566.7665 0.015 -0.644
1046 3 8 0.0300 567.7154999999999 -0.748 0.766
1047 3 8 0.0300 568.8325 0.728 -1.578
1048 3 8 0.0300 568.8164999999999 1.722 -0.044
1049 3 7 0.1400 571.7185000000001 0.0 0.0
1050 3 5 0.1450 572.8265 0.516 0.807
1051 3 3 -0.6830 573.9195 -0.3489999999999999 0.654
1052 3 2 0.0600 570.7045 0.24300000000000002 0.263
1053 3 2 0.0600 571.9175 -0.655 -0.83
1054 3 2 0.0600 572.5055 0.5800000000000001 1.875
1055 3 2 0.0600 573.1075 1.531 0.4259999999999999
1056 3 4 0.4180 574.5785 0.0 0.0
1057 4 1 -0.1800 539.3267999999999 0.0 0.0
1058 4 6 -0.4000 541.6408 0.0 0.0
1059 4 7 0.1400 540.5527999999999 0.727 -0.51
1060 4 2 0.0600 538.3838 0.476 -0.295
1061 4 2 0.0600 539.4517999999999 -0.082 1.108
1062 4 2 0.0600 539.3958 -1.035 -0.421
1063 4 8 0.0300 540.5948 0.787 -1.608
1064 4 8 0.0300 540.6328 1.76 -0.097
1065 4 7 0.1400 543.6257999999999 0.0 0.0
1066 4 6 -0.4000 545.9698 0.0 0.0
1067 4 7 0.1400 544.8517999999999 0.4620000000000001 0.685
1068 4 8 0.0300 542.7597999999999 0.644 0.01499999999999996
1069 4 8 0.0300 543.7087999999999 -0.766 -0.748
1070 4 8 0.0300 544.8258 1.578 0.7279999999999999
1071 4 8 0.0300 544.8097999999999 0.0440000000000001 1.722
1072 4 7 0.1400 547.9698 0.0 0.0
1073 4 6 -0.4000 550.3138 0.0 0.0
1074 4 7 0.1400 549.1958 0.685 -0.462
1075 4 8 0.0300 547.1038 0.015 -0.644
1076 4 8 0.0300 548.0527999999999 -0.748 0.766
1077 4 8 0.0300 549.1698 0.728 -1.578
1078 4 8 0.0300 549.1537999999999 1.722 -0.044
1079 4 7 0.1400 552.3137999999999 0.0 0.0
1080 4 6 -0.4000 554.6578 0.0 0.0
1081 4 7 0.1400 553.5397999999999 -0.46199999999999997 0.685
1082 4 8 0.0300 551.4477999999999 -0.644 0.01500000000000004
1083 4 8 0.0300 552.3967999999999 0.766 -0.748
1084 4 8 0.0300 553.5138 -1.578 0.7280000000000001
1085 4 8 0.0300 553.4977999999999 -0.04399999999999989 1.722
1086 4 7 0.1400 556.6578 0.0 0.0
1087 4 6 -0.4000 559.0018 0.0 0.0
1088 4 7 0.1400 557.8838 0.685 0.462
1089 4 8 0.0300 555.7918 0.015 0.644
1090 4 8 0.0300 556.7407999999999 -0.748 -0.766
1091 4 8 0.0300 557.8578 0.728 1.578
1092 4 8 0.0300 557.8417999999999 1.722 0.044
1093 4 7 0.1400 561.0018 0.0 0.0
1094 4 6 -0.4000 563.3458 0.0 0.0
1095 4 7 0.1400 562.2278 0.4620000000000001 0.685
1096 4 8 0.0300 560.1358 0.644 0.01499999999999996
1097 4 8 0.0300 561.0848 -0.766 -0.748
1098 4 8 0.0300 562.2018 1.578 0.7279999999999999
1099 4 8 0.0300 562.1858 0.0440000000000001 1.722
1100 4 7 0.1400 565.3457999999999 0.0 0.0
1101 4 6 -0.4000 567.6898 0.0 0.0
1102 4 7 0.1400 566.5717999999999 0.685 0.462
1103 4 8 0.0300 564.4798 0.015 0.644
1104 4 8 0.0300 565.4287999999999 -0.748 -0.766
1105 4 8 0.0300 566.5458 0.728 1.578
1106 4 8 0.0300 566.5297999999999 1.722 0.044
1107 4 7 0.1400 569.6898 0.0 0.0
1108 4 6 -0.4000 572.0338 0.0 0.0
1109 4 7 0.1400 570.9158 -0.46199999999999997 0.685
1110 4 8 0.0300 568.8238 -0.644 0.01500000000000004
1111 4 8 0.0300 569.7728 0.766 -0.748
1112 4 8 0.0300 570.8898 -1.578 0.7280000000000001
1113 4 8 0.0300 570.8738 -0.04399999999999989 1.722
1114 4 7 0.1400 574.0337999999999 0.0 0.0
1115 4 6 -0.4000 576.3778 0.0 0.0
1116 4 7 0.1400 575.2597999999999 0.685 -0.462
1117 4 8 0.0300 573.1677999999999 0.015 -0.644
1118 4 8 0.0300 574.1167999999999 -0.748 0.766
1119 4 8 0.0300 575.2338 0.728 -1.578
1120 4 8 0.0300 575.2177999999999 1.722 -0.044
1121 4 7 0.1400 578.3778 0.0 0.0
1122 4 6 -0.4000 580.7218 0.0 0.0
1123 4 7 0.1400 579.6038 0.4620000000000001 0.685
1124 4 8 0.0300 577.5118 0.644 0.01499999999999996
1125 4 8 0.0300 578.4608 -0.766 -0.748
1126 4 8 0.0300 579.5778 1.578 0.7279999999999999
1127 4 8 0.0300 579.5618 0.0440000000000001 1.722
1128 4 7 0.1400 582.7217999999999 0.0 0.0
1129 4 6 -0.4000 585.0658 0.0 0.0
1130 4 7 0.1400 583.9477999999999 0.685 0.462
1131 4 8 0.0300 581.8557999999999 0.015 0.644
1132 4 8 0.0300 582.8047999999999 -0.748 -0.766
1133 4 8 0.0300 583.9218 0.728 1.578
1134 4 8 0.0300 583.9057999999999 1.722 0.044
1135 4 7 0.1400 587.0658 0.0 0.0
1136 4 6 -0.4000 589.4098 0.0 0.0
1137 4 7 0.1400 588.2918 0.4620000000000001 0.685
1138 4 8 0.0300 586.1998 0.644 0.01499999999999996
1139 4 8 0.0300 587.1487999999999 -0.766 -0.748
1140 4 8 0.0300 588.2658 1.578 0.7279999999999999
1141 4 8 0.0300 588.2497999999999 0.0440000000000001 1.722
1142 4 7 0.1400 591.4097999999999 0.0 0.0
1143 4 6 -0.4000 593.7538 0.0 0.0
1144 4 7 0.1400 592.6357999999999 0.685 -0.462
1145 4 8 0.0300 590.5437999999999 0.015 -0.644
1146 4 8 0.0300 591.4927999999999 -0.748 0.766
1147 4 8 0.0300 592.6098 0.728 -1.578
1148 4 8 0.0300 592.5937999999999 1.722 -0.044
1149 4 7 0.1400 595.7538 0.0 0.0
1150 4 6 -0.4000 598.0978 0.0 0.0
1151 4 7 0.1400 596.9798 0.4620000000000001 0.685
1152 4 8 0.0300 594.8878 0.644 0.01499999999999996
1153 4 8 0.0300 595.8367999999999 -0.766 -0.748
1154 4 8 0.0300 596.9538 1.578 0.7279999999999999
1155 4 8 0.0300 596.9377999999999 0.0440000000000001 1.722
1156 4 7 0.1400 600.0978 0.0 0.0
1157 4 6 -0.4000 602.4418000000001 0.0 0.0
1158 4 7 0.1400 601.3238 0.685 -0.462
1159 4 8 0.0300 599.2318 0.015 -0.644
1160 4 8 0.0300 600.1808 -0.748 0.766
1161 4 8 0.0300 601.2978 0.728 -1.578
1162 4 8 0.0300 601.2818 1.722 -0.044
1163 4 7 0.1400 604.4418 0.0 0.0
1164 4 6 -0.4000 606.7858 0.0 0.0
1165 4 7 0.1400 605.6677999999999 -0.46199999999999997 0.685
1166 4 8 0.0300 603.5758 -0.644 0.01500000000000004
1167 4 8 0.0300 604.5247999999999 0.766 -0.748
1168 4 8 0.0300 605.6418 -1.578 0.7280000000000001
1169 4 8 0.0300 605.6257999999999 -0.04399999999999989 1.722
1170 4 7 0.1400 608.7858 0.0 0.0
1171 4 6 -0.4000 611.1298 0.0 0.0
1172 4 7 0.1400 610.0118 0.685 -0.462
1173 4 8 0.0300 607.9198 0.015 -0.644
1174 4 8 0.0300 608.8688 -0.748 0.766
1175 4 8 0.0300 609.9858 0.728 -1.578
1176 4 8 0.0300 609.9698 1.722 -0.044
1177 4 7 0.1400 613.1297999999999 0.0 0.0
1178 4 6 -0.4000 615.4738 0.0 0.0
1179 4 7 0.1400 614.3557999999999 -0.46199999999999997 0.685
1180 4 8 0.0300 612.2638 -0.644 0.01500000000000004
1181 4 8 0.0300 613.2127999999999 0.766 -0.748
1182 4 8 0.0300 614.3298 -1.578 0.7280000000000001
1183 4 8 0.0300 614.3137999999999 -0.04399999999999989 1.722
1184 4 7 0.1400 617.4738 0.0 0.0
1185 4 6 -0.4000 619.8178 0.0 0.0
1186 4 7 0.1400 618.6998 0.685 -0.462
1187 4 8 0.0300 616.6078 0.015 -0.644
1188 4 8 0.0300 617.5568 -0.748 0.766
1189 4 8 0.0300 618.6738 0.728 -1.578
1190 4 8 0.0300 618.6578 1.722 -0.044
1191 4 7 0.1400 621.8177999999999 0.0 0.0
1192 4 6 -0.4000 624.1618 0.0 0.0
1193 4 7 0.1400 623.0437999999999 -0.46199999999999997 0.685
1194 4 8 0.0300 620.9517999999999 -0.644 0.01500000000000004
1195 4 8 0.0300 621.9007999999999 0.766 -0.748
1196 4 8 0.0300 623.0178 -1.578 0.7280000000000001
1197 4 8 0.0300 623.0017999999999 -0.04399999999999989 1.722
1198 4 7 0.1400 626.1618 0.0 0.0
1199 4 6 -0.4000 628.5058 0.0 0.0
1200 4 7 0.1400 627.3878 0.685 0.462
1201 4 8 0.0300 625.2958 0.015 0.644
1202 4 8 0.0300 626.2447999999999 -0.748 -0.766
1203 4 8 0.0300 627.3618 0.728 1.578
1204 4 8 0.0300 627.3457999999999 1.722 0.044
1205 4 7 0.1400 630.5057999999999 0.0 0.0
1206 4 6 -0.4000 632.8498 0.0 0.0
1207 4 7 0.1400 631.7317999999999 -0.46199999999999997 0.685
1208 4 8 0.0300 629.6397999999999 -0.644 0.01500000000000004
1209 4 8 0.0300 630.5887999999999 0.766 -0.748
1210 4 8 0.0300 631.7058 -1.578 0.7280000000000001
1211 4 8 0.0300 631.6897999999999 -0.04399999999999989 1.722
1212 4 7 0.1400 634.8498 0.0 0.0
1213 4 6 -0.4000 637.1938 0.0 0.0
1214 4 7 0.1400 636.0758 0.685 -0.462
1215 4 8 0.0300 633.9838 0.015 -0.644
1216 4 8 0.0300 634.9327999999999 -0.748 0.766
1217 4 8 0.0300 636.0498 0.728 -1.578
1218 4 8 0.0300 636.0337999999999 1.722 -0.044
1219 4 7 0.1400 639.1938 0.0 0.0
1220 4 6 -0.4000 641.5378000000001 0.0 0.0
1221 4 7 0.1400 640.4198 -0.46199999999999997 0.685
1222 4 8 0.0300 638.3278 -0.644 0.01500000000000004
1223 4 8 0.0300 639.2768 0.766 -0.748
1224 4 8 0.0300 640.3938 -1.578 0.7280000000000001
1225 4 8 0.0300 640.3778 -0.04399999999999989 1.722
1226 4 7 0.1400 643.5378 0.0 0.0
1227 4 6 -0.4000 645.8818 0.0 0.0
1228 4 7 0.1400 644.7638 0.685 -0.462
1229 4 8 0.0300 642.6718 0.015 -0.644
1230 4 8 0.0300 643.6207999999999 -0.748 0.766
1231 4 8 0.0300 644.7378 0.728 -1.578
1232 4 8 0.0300 644.7217999999999 1.722 -0.044
1233 4 7 0.1400 647.8817999999999 0.0 0.0
1234 4 6 -0.4000 650.2257999999999 0.0 0.0
1235 4 7 0.1400 649.1077999999999 -0.46199999999999997 0.685
1236 4 8 0.0300 647.0157999999999 -0.644 0.01500000000000004
1237 4 8 0.0300 647.9647999999999 0.766 -0.748
1238 4 8 0.0300 649.0817999999999 -1.578 0.7280000000000001
1239 4 8 0.0300 649.0657999999999 -0.04399999999999989 1.722
1240 4 7 0.1400 652.2257999999999 0.0 0.0
1241 4 6 -0.4000 654.5698 0.0 0.0
1242 4 7 0.1400 653.4517999999999 0.685 0.462
1243 4 8 0.0300 651.3598 0.015 0.644
1244 4 8 0.0300 652.3087999999999 -0.748 -0.766
1245 4 8 0.0300 653.4258 0.728 1.578
1246 4 8 0.0300 653.4097999999999 1.722 0.044
1247 4 7 0.1400 656.5698 0.0 0.0
1248 4 6 -0.4000 658.9138 0.0 0.0
1249 4 7 0.1400 657.7958 -0.46199999999999997 0.685
1250 4 8 0.0300 655.7038 -0.644 0.01500000000000004
1251 4 8 0.0300 656.6528 0.766 -0.748
1252 4 8 0.0300 657.7698 -1.578 0.7280000000000001
1253 4 8 0.0300 657.7538 -0.04399999999999989 1.722
1254 4 7 0.1400 660.9137999999999 0.0 0.0
1255 4 6 -0.4000 663.2578 0.0 0.0
1256 4 7 0.1400 662.1397999999999 0.685 -0.462
1257 4 8 0.0300 660.0477999999999 0.015 -0.644
1258 4 8 0.0300 660.9967999999999 -0.748 0.766
1259 4 8 0.0300 662.1138 0.728 -1.578
1260 4 8 0.0300 662.0977999999999 1.722 -0.044
1261 4 7 0.1400 665.2578 0.0 0.0
1262 4 6 -0.4000 667.6018 0.0 0.0
1263 4 7 0.1400 666.4838 -0.46199999999999997 0.685
1264 4 8 0.0300 664.3918 -0.644 0.01500000000000004
1265 4 8 0.0300 665.3408 0.766 -0.748
1266 4 8 0.0300 666.4578 -1.578 0.7280000000000001
1267 4 8 0.0300 666.4418 -0.04399999999999989 1.722
1268 4 7 0.1400 669.6017999999999 0.0 0.0
1269 4 6 -0.4000 671.9458 0.0 0.0
1270 4 7 0.1400 670.8277999999999 0.685 0.462
1271 4 8 0.0300 668.7357999999999 0.015 0.644
1272 4 8 0.0300 669.6847999999999 -0.748 -0.766
1273 4 8 0.0300 670.8018 0.728 1.578
1274 4 8 0.0300 670.7857999999999 1.722 0.044
1275 4 7 0.1400 673.9458 0.0 0.0
1276 4 6 -0.4000 676.2898 0.0 0.0
1277 4 7 0.1400 675.1718 0.4620000000000001 0.685
1278 4 8 0.0300 673.0798 0.644 0.01499999999999996
1279 4 8 0.0300 674.0287999999999 -0.766 -0.748
1280 4 8 0.0300 675.1458 1.578 0.7279999999999999
1281 4 8 0.0300 675.1297999999999 0.0440000000000001 1.722
1282 4 7 0.1400 678.2898 0.0 0.0
1283 4 6 -0.4000 680.6338000000001 0.0 0.0
1284 4 7 0.1400 679.5158 0.685 -0.462
1285 4 8 0.0300 677.4238 0.015 -0.644
1286 4 8 0.0300 678.3728 -0.748 0.766
1287 4 8 0.0300 679.4898000000001 0.728 -1.578
1288 4 8 0.0300 679.4738 1.722 -0.044
1289 4 7 0.1400 682.6338 0.0 0.0
1290 4 6 -0.4000 684.9778 0.0 0.0
1291 4 7 0.1400 683.8598 -0.46199999999999997 0.685
1292 4 8 0.0300 681.7678 -0.644 0.01500000000000004
1293 4 8 0.0300 682.7167999999999 0.766 -0.748
1294 4 8 0.0300 683.8338 -1.578 0.7280000000000001
1295 4 8 0.0300 683.8177999999999 -0.04399999999999989 1.722
1296 4 7 0.1400 686.9777999999999 0.0 0.0
1297 4 6 -0.4000 689.3217999999999 0.0 0.0
1298 4 7 0.1400 688.2037999999999 0.685 0.462
1299 4 8 0.0300 686.1117999999999 0.015 0.644
1300 4 8 0.0300 687.0607999999999 -0.748 -0.766
1301 4 8 0.0300 688.1777999999999 0.728 1.578
1302 4 8 0.0300 688.1617999999999 1.722 0.044
1303 4 7 0.1400 691.3217999999999 0.0 0.0
1304 4 6 -0.4000 693.6658 0.0 0.0
1305 4 7 0.1400 692.5477999999999 -0.46199999999999997 0.685
1306 4 8 0.0300 690.4558 -0.644 0.01500000000000004
1307 4 8 0.0300 691.4047999999999 0.766 -0.748
1308 4 8 0.0300 692.5218 -1.578 0.7280000000000001
1309 4 8 0.0300 692.5057999999999 -0.04399999999999989 1.722
1310 4 7 0.1400 695.6658 0.0 0.0
1311 4 6 -0.4000 698.0098 0.0 0.0
1312 4 7 0.1400 696.8918 0.685 0.462
1313 4 8 0.0300 694.7998 0.015 0.644
1314 4 8 0.0300 695.7488 -0.748 -0.766
1315 4 8 0.0300 696.8658 0.728 1.578
1316 4 8 0.0300 696.8498 1.722 0.044
1317 4 7 0.1400 700.0097999999999 0.0 0.0
1318 4 6 -0.4000 702.3538 0.0 0.0
1319 4 7 0.1400 701.2357999999999 0.4620000000000001 0.685
1320 4 8 0.0300 699.1437999999999 0.644 0.01499999999999996
1321 4 8 0.0300 700.0927999999999 -0.766 -0.748
1322 4 8 0.0300 701.2098 1.578 0.7279999999999999
1323 4 8 0.0300 701.1937999999999 0.0440000000000001 1.722
1324 4 7 0.1400 704.3538 0.0 0.0
1325 4 6 -0.4000 706.6978 0.0 0.0
1326 4 7 0.1400 705.5798 0.685 -0.462
1327 4 8 0.0300 703.4878 0.015 -0.644
1328 4 8 0.0300 704.4368 -0.748 0.766
1329 4 8 0.0300 705.5538 0.728 -1.578
1330 4 8 0.0300 705.5378 1.722 -0.044
1331 4 7 0.1400 708.6977999999999 0.0 0.0
1332 4 6 -0.4000 711.0418 0.0 0.0
1333 4 7 0.1400 709.9237999999999 -0.46199999999999997 0.685
1334 4 8 0.0300 707.8317999999999 -0.644 0.01500000000000004
1335 4 8 0.0300 708.7807999999999 0.766 -0.748
1336 4 8 0.0300 709.8978 -1.578 0.7280000000000001
1337 4 8 0.0300 709.8817999999999 -0.04399999999999989 1.722
1338 4 7 0.1400 713.0418 0.0 0.0
1339 4 6 -0.4000 715.3858 0.0 0.0
1340 4 7 0.1400 714.2678 0.685 -0.462
1341 4 8 0.0300 712.1758 0.015 -0.644
1342 4 8 0.0300 713.1247999999999 -0.748 0.766
1343 4 8 0.0300 714.2418 0.728 -1.578
1344 4 8 0.0300 714.2257999999999 1.722 -0.044
1345 4 7 0.1400 717.3858 0.0 0.0
1346 4 6 -0.4000 719.7298000000001 0.0 0.0
1347 4 7 0.1400 718.6118 0.4620000000000001 0.685
1348 4 8 0.0300 716.5198 0.644 0.01499999999999996
1349 4 8 0.0300 717.4688 -0.766 -0.748
1350 4 8 0.0300 718.5858000000001 1.578 0.7279999999999999
1351 4 8 0.0300 718.5698 0.0440000000000001 1.722
1352 4 7 0.1400 721.7298 0.0 0.0
1353 4 6 -0.4000 724.0738 0.0 0.0
1354 4 7 0.1400 722.9558 0.685 0.462
1355 4 8 0.0300 720.8638 0.015 0.644
1356 4 8 0.0300 721.8127999999999 -0.748 -0.766
1357 4 8 0.0300 722.9298 0.728 1.578
1358 4 8 0.0300 722.9137999999999 1.722 0.044
1359 4 7 0.1400 726.0737999999999 0.0 0.0
1360 4 6 -0.4000 728.4177999999999 0.0 0.0
1361 4 7 0.1400 727.2997999999999 -0.46199999999999997 0.685
1362 4 8 0.0300 725.2077999999999 -0.644 0.01500000000000004
1363 4 8 0.0300 726.1567999999999 0.766 -0.748
1364 4 8 0.0300 727.2737999999999 -1.578 0.7280000000000001
1365 4 8 0.0300 727.2577999999999 -0.04399999999999989 1.722
1366 4 7 0.1400 730.4177999999999 0.0 0.0
1367 4 6 -0.4000 732.7618 0.0 0.0
1368 4 7 0.1400 731.6437999999999 0.685 -0.462
1369 4 8 0.0300 729.5518 0.015 -0.644
1370 4 8 0.0300 730.5007999999999 -0.748 0.766
1371 4 8 0.0300 731.6178 0.728 -1.578
1372 4 8 0.0300 731.6017999999999 1.722 -0.044
1373 4 7 0.1400 734.7618 0.0 0.0
1374 4 6 -0.4000 737.1058 0.0 0.0
1375 4 7 0.1400 735.9878 0.4620000000000001 0.685
1376 4 8 0.0300 733.8958 0.644 0.01499999999999996
1377 4 8 0.0300 734.8448 -0.766 -0.748
1378 4 8 0.0300 735.9618 1.578 0.7279999999999999
1379 4 8 0.0300 735.9458 0.0440000000000001 1.722
1380 4 7 0.1400 739.1057999999999 0.0 0.0
1381 4 6 -0.4000 741.4498 0.0 0.0
1382 4 7 0.1400 740.3317999999999 0.685 0.462
1383 4 8 0.0300 738.2398 0.015 0.644
1384 4 8 0.0300 739.1887999999999 -0.748 -0.766
1385 4 8 0.0300 740.3058 0.728 1.578
1386 4 8 0.0300 740.2897999999999 1.722 0.044
1387 4 7 0.1400 743.4498 0.0 0.0
1388 4 6 -0.4000 745.7938 0.0 0.0
1389 4 7 0.1400 744.6758 0.4620000000000001 0.685
1390 4 8 0.0300 742.5838 0.644 0.01499999999999996
1391 4 8 0.0300 743.5328 -0.766 -0.748
1392 4 8 0.0300 744.6498 1.578 0.7279999999999999
1393 4 8 0.0300 744.6338 0.0440000000000001 1.722
1394 4 7 0.1400 747.7937999999999 0.0 0.0
1395 4 6 -0.4000 750.1378 0.0 0.0
1396 4 7 0.1400 749.0197999999999 0.685 -0.462
1397 4 8 0.0300 746.9277999999999 0.015 -0.644
1398 4 8 0.0300 747.8767999999999 -0.748 0.766
1399 4 8 0.0300 748.9938 0.728 -1.578
1400 4 8 0.0300 748.9777999999999 1.722 -0.044
1401 4 7 0.1400 751.8798 0.0 0.0
1402 4 5 0.1450 752.9878 0.516 0.807
1403 4 3 -0.6830 754.0808 -0.3489999999999999 0.654
1404 4 2 0.0600 750.8658 0.24300000000000002 0.263
1405 4 2 0.0600 752.0788 -0.655 -0.83
1406 4 2 0.0600 752.6668 0.5800000000000001 1.875
1407 4 2 0.0600 753.2687999999999 1.531 0.4259999999999999
1408 4 4 0.4180 754.7398 0.0 0.0
1409 5 1 -0.1800 -1.157 180.1613 0.0
1410 5 6 -0.4000 1.157 180.1613 0.0
1411 5 7 0.1400 0.069 180.88830000000002 0.51
1412 5 2 0.0600 -2.1 180.6373 0.295
1413 5 2 0.0600 -1.032 180.07930000000002 -1.108
1414 5 2 0.0600 -1.088 179.12630000000001 0.421
1415 5 8 0.0300 0.111 180.94830000000002 1.608
1416 5 8 0.0300 0.149 181.9213 0.097
1417 5 7 0.1400 3.1420000000000003 180.1613 0.0
1418 5 6 -0.4000 5.486 180.1613 0.0
1419 5 7 0.1400 4.368 179.69930000000002 0.685
1420 5 8 0.0300 2.2760000000000002 179.5173 0.01500000000000004
1421 5 8 0.0300 3.225 180.9273 -0.748
1422 5 8 0.0300 4.342 178.5833 0.7280000000000001
1423 5 8 0.0300 4.326 180.1173 1.722
1424 5 7 0.1400 7.486 180.1613 0.0
1425 5 6 -0.4000 9.83 180.1613 0.0
1426 5 7 0.1400 8.712 180.8463 -0.462
1427 5 8 0.0300 6.619999999999999 180.1763 -0.644
1428 5 8 0.0300 7.568999999999999 179.41330000000002 0.766
1429 5 8 0.0300 8.686 180.88930000000002 -1.578
1430 5 8 0.0300 8.67 181.88330000000002 -0.044
1431 5 7 0.1400 11.83 180.1613 0.0
1432 5 6 -0.4000 14.174000000000001 180.1613 0.0
1433 5 7 0.1400 13.056000000000001 179.69930000000002 0.685
1434 5 8 0.0300 10.964 179.5173 0.01500000000000004
1435 5 8 0.0300 11.913 180.9273 -0.748
1436 5 8 0.0300 13.030000000000001 178.5833 0.7280000000000001
1437 5 8 0.0300 13.014000000000001 180.1173 1.722
1438 5 7 0.1400 16.174 180.1613 0.0
1439 5 6 -0.4000 18.518 180.1613 0.0
1440 5 7 0.1400 17.4 180.8463 0.462
1441 5 8 0.0300 15.308 180.1763 0.644
1442 5 8 0.0300 16.257 179.41330000000002 -0.766
1443 5 8 0.0300 17.374 180.88930000000002 1.578
1444 5 8 0.0300 17.358 181.88330000000002 0.044
1445 5 7 0.1400 20.518 180.1613 0.0
1446 5 6 -0.4000 22.862000000000002 180.1613 0.0
1447 5 7 0.1400 21.744 179.69930000000002 0.685
1448 5 8 0.0300 19.652 179.5173 0.01500000000000004
1449 5 8 0.0300 20.601000000000003 180.9273 -0.748
1450 5 8 0.0300 21.718 178.5833 0.7280000000000001
1451 5 8 0.0300 21.702 180.1173 1.722
1452 5 7 0.1400 24.862 180.1613 0.0
1453 5 6 -0.4000 27.206 180.1613 0.0
1454 5 7 0.1400 26.087999999999997 180.8463 0.462
1455 5 8 0.0300 23.996 180.1763 0.644
1456 5 8 0.0300 24.945 179.41330000000002 -0.766
1457 5 8 0.0300 26.061999999999998 180.88930000000002 1.578
1458 5 8 0.0300 26.046 181.88330000000002 0.044
1459 5 7 0.1400 29.206 180.1613 0.0
1460 5 6 -0.4000 31.55 180.1613 0.0
1461 5 7 0.1400 30.432 179.69930000000002 0.685
1462 5 8 0.0300 28.34 179.5173 0.01500000000000004
1463 5 8 0.0300 29.289 180.9273 -0.748
1464 5 8 0.0300 30.406 178.5833 0.7280000000000001
1465 5 8 0.0300 30.39 180.1173 1.722
1466 5 7 0.1400 33.550000000000004 180.1613 0.0
1467 5 6 -0.4000 35.894 180.1613 0.0
1468 5 7 0.1400 34.776 180.8463 0.462
1469 5 8 0.0300 32.684000000000005 180.1763 0.644
1470 5 8 0.0300 33.633 179.41330000000002 -0.766
1471 5 8 0.0300 34.75 180.88930000000002 1.578
1472 5 8 0.0300 34.734 181.88330000000002 0.044
1473 5 7 0.1400 37.894000000000005 180.1613 0.0
1474 5 6 -0.4000 40.238 180.1613 0.0
1475 5 7 0.1400 39.120000000000005 180.6233 0.685
1476 5 8 0.0300 37.028000000000006 180.80530000000002 0.01499999999999996
1477 5 8 0.0300 37.977000000000004 179.39530000000002 -0.748
1478 5 8 0.0300 39.094 181.73930000000001 0.7279999999999999
1479 5 8 0.0300 39.078 180.20530000000002 1.722
1480 5 7 0.1400 42.238 180.1613 0.0
1481 5 6 -0.4000 44.581999999999994 180.1613 0.0
1482 5 7 0.1400 43.464 180.8463 0.462
1483 5 8 0.0300 41.372 180.1763 0.644
1484 5 8 0.0300 42.321 179.41330000000002 -0.766
1485 5 8 0.0300 43.437999999999995 180.88930000000002 1.578
1486 5 8 0.0300 43.422 181.88330000000002 0.044
1487 5 7 0.1400 46.582 180.1613 0.0
1488 5 6 -0.4000 48.925999999999995 180.1613 0.0
1489 5 7 0.1400 47.808 179.69930000000002 0.685
1490 5 8 0.0300 45.716 179.5173 0.01500000000000004
1491 5 8 0.0300 46.665 180.9273 -0.748
1492 5 8 0.0300 47.782 178.5833 0.7280000000000001
1493 5 8 0.0300 47.766 180.1173 1.722
1494 5 7 0.1400 50.926 180.1613 0.0
1495 5 6 -0.4000 53.269999999999996 180.1613 0.0
1496 5 7 0.1400 52.152 180.8463 0.462
1497 5 8 0.0300 50.06 180.1763 0.644
1498 5 8 0.0300 51.009 179.41330000000002 -0.766
1499 5 8 0.0300 52.126 180.88930000000002 1.578
1500 5 8 0.0300 52.11 181.88330000000002 0.044
1501 5 7 0.1400 55.27 180.1613 0.0
1502 5 6 -0.4000 57.614 180.1613 0.0
1503 5 7 0.1400 56.496 180.6233 0.685
1504 5 8 0.0300 54.404 180.80530000000002 0.01499999999999996
1505 5 8 0.0300 55.353 179.39530000000002 -0.748
1506 5 8 0.0300 56.47 181.73930000000001 0.7279999999999999
1507 5 8 0.0300 56.454 180.20530000000002 1.722
1508 5 7 0.1400 59.614000000000004 180.1613 0.0
1509 5 6 -0.4000 61.958 180.1613 0.0
1510 5 7 0.1400 60.84 180.8463 -0.462
1511 5 8 0.0300 58.748000000000005 180.1763 -0.644
1512 5 8 0.0300 59.697 179.41330000000002 0.766
1513 5 8 0.0300 60.814 180.88930000000002 -1.578
1514 5 8 0.0300 60.798 181.88330000000002 -0.044
1515 5 7 0.1400 63.958 180.1613 0.0
1516 5 6 -0.4000 66.30199999999999 180.1613 0.0
1517 5 7 0.1400 65.184 180.6233 0.685
1518 5 8 0.0300 63.092 180.80530000000002 0.01499999999999996
1519 5 8 0.0300 64.041 179.39530000000002 -0.748
1520 5 8 0.0300 65.158 181.73930000000001 0.7279999999999999
1521 5 8 0.0300 65.142 180.20530000000002 1.722
1522 5 7 0.1400 68.302 180.1613 0.0
1523 5 6 -0.4000 70.646 180.1613 0.0
1524 5 7 0.1400 69.528 180.8463 -0.462
1525 5 8 0.0300 67.436 180.1763 -0.644
1526 5 8 0.0300 68.385 179.41330000000002 0.766
1527 5 8 0.0300 69.50200000000001 180.88930000000002 -1.578
1528 5 8 0.0300 69.486 181.88330000000002 -0.044
1529 5 7 0.1400 72.646 180.1613 0.0
1530 5 6 -0.4000 74.99 180.1613 0.0
1531 5 7 0.1400 73.872 180.6233 0.685
1532 5 8 0.0300 71.78 180.80530000000002 0.01499999999999996
1533 5 8 0.0300 72.729 179.39530000000002 -0.748
1534 5 8 0.0300 73.846 181.73930000000001 0.7279999999999999
1535 5 8 0.0300 73.83 180.20530000000002 1.722
1536 5 7 0.1400 76.99000000000001 180.1613 0.0
1537 5 6 -0.4000 79.334 180.1613 0.0
1538 5 7 0.1400 78.21600000000001 180.8463 -0.462
1539 5 8 0.0300 76.12400000000001 180.1763 -0.644
1540 5 8 0.0300 77.07300000000001 179.41330000000002 0.766
1541 5 8 0.0300 78.19000000000001 180.88930000000002 -1.578
1542 5 8 0.0300 78.174 181.88330000000002 -0.044
1543 5 7 0.1400 81.334 180.1613 0.0
1544 5 6 -0.4000 83.678 180.1613 0.0
1545 5 7 0.1400 82.56 179.69930000000002 0.685
1546 5 8 0.0300 80.468 179.5173 0.01500000000000004
1547 5 8 0.0300 81.417 180.9273 -0.748
1548 5 8 0.0300 82.534 178.5833 0.7280000000000001
1549 5 8 0.0300 82.518 180.1173 1.722
1550 5 7 0.1400 85.678 180.1613 0.0
1551 5 6 -0.4000 88.02199999999999 180.1613 0.0
1552 5 7 0.1400 86.904 180.8463 -0.462
1553 5 8 0.0300 84.812 180.1763 -0.644
1554 5 8 0.0300 85.761 179.41330000000002 0.766
1555 5 8 0.0300 86.878 180.88930000000002 -1.578
1556 5 8 0.0300 86.862 181.88330000000002 -0.044
1557 5 7 0.1400 90.022 180.1613 0.0
1558 5 6 -0.4000 92.366 180.1613 0.0
1559 5 7 0.1400 91.248 180.6233 0.685
1560 5 8 0.0300 89.156 180.80530000000002 0.01499999999999996
1561 5 8 0.0300 90.105 179.39530000000002 -0.748
1562 5 8 0.0300 91.22200000000001 181.73930000000001 0.7279999999999999
1563 5 8 0.0300 91.206 180.20530000000002 1.722
1564 5 7 0.1400 94.366 180.1613 0.0
1565 5 6 -0.4000 96.71 180.1613 0.0
1566 5 7 0.1400 95.592 180.8463 0.462
1567 5 8 0.0300 93.5 180.1763 0.644
1568 5 8 0.0300 94.449 179.41330000000002 -0.766
1569 5 8 0.0300 95.566 180.88930000000002 1.578
1570 5 8 0.0300 95.55 181.88330000000002 0.044
1571 5 7 0.1400 98.71000000000001 180.1613 0.0
1572 5 6 -0.4000 101.054 180.1613 0.0
1573 5 7 0.1400 99.936 179.69930000000002 0.685
1574 5 8 0.0300 97.84400000000001 179.5173 0.01500000000000004
1575 5 8 0.0300 98.793 180.9273 -0.748
1576 5 8 0.0300 99.91000000000001 178.5833 0.7280000000000001
1577 5 8 0.0300 99.894 180.1173 1.722
1578 5 7 0.1400 103.054 180.1613 0.0
1579 5 6 -0.4000 105.398 180.1613 0.0
1580 5 7 0.1400 104.28 180.8463 0.462
1581 5 8 0.0300 102.188 180.1763 0.644
1582 5 8 0.0300 103.137 179.41330000000002 -0.766
1583 5 8 0.0300 104.254 180.88930000000002 1.578
1584 5 8 0.0300 104.238 181.88330000000002 0.044
1585 5 7 0.1400 107.398 180.1613 0.0
1586 5 6 -0.4000 109.74199999999999 180.1613 0.0
1587 5 7 0.1400 108.624 180.6233 0.685
1588 5 8 0.0300 106.532 180.80530000000002 0.01499999999999996
1589 5 8 0.0300 107.481 179.39530000000002 -0.748
1590 5 8 0.0300 108.598 181.73930000000001 0.7279999999999999
1591 5 8 0.0300 108.582 180.20530000000002 1.722
1592 5 7 0.1400 111.742 180.1613 0.0
1593 5 6 -0.4000 114.086 180.1613 0.0
1594 5 7 0.1400 112.968 180.8463 0.462
1595 5 8 0.0300 110.876 180.1763 0.644
1596 5 8 0.0300 111.825 179.41330000000002 -0.766
1597 5 8 0.0300 112.94200000000001 180.88930000000002 1.578
1598 5 8 0.0300 112.926 181.88330000000002 0.044
1599 5 7 0.1400 116.086 180.1613 0.0
1600 5 6 -0.4000 118.42999999999999 180.1613 0.0
1601 5 7 0.1400 117.312 180.6233 0.685
1602 5 8 0.0300 115.22 180.80530000000002 0.01499999999999996
1603 5 8 0.0300 116.169 179.39530000000002 -0.748
1604 5 8 0.0300 117.286 181.73930000000001 0.7279999999999999
1605 5 8 0.0300 117.27 180.20530000000002 1.722
1606 5 7 0.1400 120.43 180.1613 0.0
1607 5 6 -0.4000 122.774 180.1613 0.0
1608 5 7 0.1400 121.656 180.8463 0.462
1609 5 8 0.0300 119.56400000000001 180.1763 0.644
1610 5 8 0.0300 120.513 179.41330000000002 -0.766
1611 5 8 0.0300 121.63000000000001 180.88930000000002 1.578
1612 5 8 0.0300 121.614 181.88330000000002 0.044
1613 5 7 0.1400 124.774 180.1613 0.0
1614 5 6 -0.4000 127.118 180.1613 0.0
1615 5 7 0.1400 126.0 180.6233 0.685
1616 5 8 0.0300 123.908 180.80530000000002 0.01499999999999996
1617 5 8 0.0300 124.857 179.39530000000002 -0.748
1618 5 8 0.0300 125.974 181.73930000000001 0.7279999999999999
1619 5 8 0.0300 125.958 180.20530000000002 1.722
1620 5 7 0.1400 129.118 180.1613 0.0
1621 5 6 -0.4000 131.462 180.1613 0.0
1622 5 7 0.1400 130.344 180.8463 -0.462
1623 5 8 0.0300 128.25199999999998 180.1763 -0.644
1624 5 8 0.0300 129.201 179.41330000000002 0.766
1625 5 8 0.0300 130.31799999999998 180.88930000000002 -1.578
1626 5 8 0.0300 130.302 181.88330000000002 -0.044
1627 5 7 0.1400 133.462 180.1613 0.0
1628 5 6 -0.4000 135.80599999999998 180.1613 0.0
1629 5 7 0.1400 134.688 180.6233 0.685
1630 5 8 0.0300 132.59599999999998 180.80530000000002 0.01499999999999996
1631 5 8 0.0300 133.545 179.39530000000002 -0.748
1632 5 8 0.0300 134.66199999999998 181.73930000000001 0.7279999999999999
1633 5 8 0.0300 134.646 180.20530000000002 1.722
1634 5 7 0.1400 137.806 180.1613 0.0
1635 5 6 -0.4000 140.15 180.1613 0.0
1636 5 7 0.1400 139.032 180.8463 -0.462
1637 5 8 0.0300 136.94 180.1763 -0.644
1638 5 8 0.0300 137.889 179.41330000000002 0.766
1639 5 8 0.0300 139.006 180.88930000000002 -1.578
1640 5 8 0.0300 138.99 181.88330000000002 -0.044
1641 5 7 0.1400 142.15 180.1613 0.0
1642 5 6 -0.4000 144.494 180.1613 0.0
1643 5 7 0.1400 143.376 179.69930000000002 0.685
1644 5 8 0.0300 141.284 179.5173 0.01500000000000004
1645 5 8 0.0300 142.233 180.9273 -0.748
1646 5 8 0.0300 143.35 178.5833 0.7280000000000001
1647 5 8 0.0300 143.334 180.1173 1.722
1648 5 7 0.1400 146.494 180.1613 0.0
1649 5 6 -0.4000 148.838 180.1613 0.0
1650 5 7 0.1400 147.72 180.8463 0.462
1651 5 8 0.0300 145.628 180.1763 0.644
1652 5 8 0.0300 146.577 179.41330000000002 -0.766
1653 5 8 0.0300 147.694 180.88930000000002 1.578
1654 5 8 0.0300 147.678 181.88330000000002 0.044
1655 5 7 0.1400 150.838 180.1613 0.0
1656 5 6 -0.4000 153.182 180.1613 0.0
1657 5 7 0.1400 152.064 180.6233 0.685
1658 5 8 0.0300 149.97199999999998 180.80530000000002 0.01499999999999996
1659 5 8 0.0300 150.921 179.39530000000002 -0.748
1660 5 8 0.0300 152.03799999999998 181.73930000000001 0.7279999999999999
1661 5 8 0.0300 152.022 180.20530000000002 1.722
1662 5 7 0.1400 155.18200000000002 180.1613 0.0
1663 5 6 -0.4000 157.526 180.1613 0.0
1664 5 7 0.1400 156.40800000000002 180.8463 -0.462
1665 5 8 0.0300 154.316 180.1763 -0.644
1666 5 8 0.0300 155.26500000000001 179.41330000000002 0.766
1667 5 8 0.0300 156.382 180.88930000000002 -1.578
1668 5 8 0.0300 156.366 181.88330000000002 -0.044
1669 5 7 0.1400 159.526 180.1613 0.0
1670 5 6 -0.4000 161.87 180.1613 0.0
1671 5 7 0.1400 160.752 179.69930000000002 0.685
1672 5 8 0.0300 158.66 179.5173 0.01500000000000004
1673 5 8 0.0300 159.609 180.9273 -0.748
1674 5 8 0.0300 160.726 178.5833 0.7280000000000001
1675 5 8 0.0300 160.71 180.1173 1.722
1676 5 7 0.1400 163.87 180.1613 0.0
1677 5 6 -0.4000 166.214 180.1613 0.0
1678 5 7 0.1400 165.096 180.8463 0.462
1679 5 8 0.0300 163.004 180.1763 0.644
1680 5 8 0.0300 163.953 179.41330000000002 -0.766
1681 5 8 0.0300 165.07 180.88930000000002 1.578
1682 5 8 0.0300 165.054 181.88330000000002 0.044
1683 5 7 0.1400 168.214 180.1613 0.0
1684 5 6 -0.4000 170.558 180.1613 0.0
1685 5 7 0.1400 169.44 180.6233 0.685
1686 5 8 0.0300 167.34799999999998 180.80530000000002 0.01499999999999996
1687 5 8 0.0300 168.297 179.39530000000002 -0.748
1688 5 8 0.0300 169.414 181.73930000000001 0.7279999999999999
1689 5 8 0.0300 169.398 180.20530000000002 1.722
1690 5 7 0.1400 172.558 180.1613 0.0
1691 5 6 -0.4000 174.902 180.1613 0.0
1692 5 7 0.1400 173.784 180.8463 0.462
1693 5 8 0.0300 171.69199999999998 180.1763 0.644
1694 5 8 0.0300 172.641 179.41330000000002 -0.766
1695 5 8 0.0300 173.75799999999998 180.88930000000002 1.578
1696 5 8 0.0300 173.742 181.88330000000002 0.044
1697 5 7 0.1400 176.90200000000002 180.1613 0.0
1698 5 6 -0.4000 179.246 180.1613 0.0
1699 5 7 0.1400 178.12800000000001 179.69930000000002 0.685
1700 5 8 0.0300 176.036 179.5173 0.01500000000000004
1701 5 8 0.0300 176.985 180.9273 -0.748
1702 5 8 0.0300 178.102 178.5833 0.7280000000000001
1703 5 8 0.0300 178.086 180.1173 1.722
1704 5 7 0.1400 181.246 180.1613 0.0
1705 5 6 -0.4000 183.59 180.1613 0.0
1706 5 7 0.1400 182.472 180.8463 0.462
1707 5 8 0.0300 180.38 180.1763 0.644
1708 5 8 0.0300 181.329 179.41330000000002 -0.766
1709 5 8 0.0300 182.446 180.88930000000002 1.578
1710 5 8 0.0300 182.43 181.88330000000002 0.044
1711 5 7 0.1400 185.59 180.1613 0.0
1712 5 6 -0.4000 187.934 180.1613 0.0
1713 5 7 0.1400 186.816 180.6233 0.685
1714 5 8 0.0300 184.724 180.80530000000002 0.01499999999999996
1715 5 8 0.0300 185.673 179.39530000000002 -0.748
1716 5 8 0.0300 186.79 181.73930000000001 0.7279999999999999
1717 5 8 0.0300 186.774 180.20530000000002 1.722
1718 5 7 0.1400 189.934 180.1613 0.0
1719 5 6 -0.4000 192.278 180.1613 0.0
1720 5 7 0.1400 191.16 180.8463 -0.462
1721 5 8 0.0300 189.06799999999998 180.1763 -0.644
1722 5 8 0.0300 190.017 179.41330000000002 0.766
1723 5 8 0.0300 191.134 180.88930000000002 -1.578
1724 5 8 0.0300 191.118 181.88330000000002 -0.044
1725 5 7 0.1400 194.278 180.1613 0.0
1726 5 6 -0.4000 196.62199999999999 180.1613 0.0
1727 5 7 0.1400 195.504 179.69930000000002 0.685
1728 5 8 0.0300 193.41199999999998 179.5173 0.01500000000000004
1729 5 8 0.0300 194.361 180.9273 -0.748
1730 5 8 0.0300 195.47799999999998 178.5833 0.7280000000000001
1731 5 8 0.0300 195.462 180.1173 1.722
1732 5 7 0.1400 198.622 180.1613 0.0
1733 5 6 -0.4000 200.966 180.1613 0.0
1734 5 7 0.1400 199.848 180.8463 -0.462
1735 5 8 0.0300 197.756 180.1763 -0.644
1736 5 8 0.0300 198.705 179.41330000000002 0.766
1737 5 8 0.0300 199.822 180.88930000000002 -1.578
1738 5 8 0.0300 199.806 181.88330000000002 -0.044
1739 5 7 0.1400 202.966 180.1613 0.0
1740 5 6 -0.4000 205.31 180.1613 0.0
1741 5 7 0.1400 204.192 179.69930000000002 0.685
1742 5 8 0.0300 202.1 179.5173 0.01500000000000004
1743 5 8 0.0300 203.049 180.9273 -0.748
1744 5 8 0.0300 204.166 178.5833 0.7280000000000001
1745 5 8 0.0300 204.15 180.1173 1.722
1746 5 7 0.1400 207.31 180.1613 0.0
1747 5 6 -0.4000 209.654 180.1613 0.0
1748 5 7 0.1400 208.536 180.8463 0.462
1749 5 8 0.0300 206.444 180.1763 0.644
1750 5 8 0.0300 207.393 179.41330000000002 -0.766
1751 5 8 0.0300 208.51 180.88930000000002 1.578
1752 5 8 0.0300 208.494 181.88330000000002 0.044
1753 5 7 0.1400 211.396 180.1613 0.0
1754 5 5 0.1450 212.504 180.6773 0.807
1755 5 3 -0.6830 213.59699999999998 179.81230000000002 0.654
1756 5 2 0.0600 210.382 180.4043 0.263
1757 5 2 0.0600 211.595 179.5063 -0.83
1758 5 2 0.0600 212.183 180.74130000000002 1.875
1759 5 2 0.0600 212.785 181.69230000000002 0.4259999999999999
1760 5 4 0.4180 214.256 180.1613 0.0
1761 6 1 -0.1800 179.0043 180.1613 0.0
1762 6 6 -0.4000 181.31830000000002 180.1613 0.0
1763 6 7 0.1400 180.2303 180.88830000000002 0.51
1764 6 2 0.0600 178.06130000000002 180.6373 0.295
1765 6 2 0.0600 179.1293 180.07930000000002 -1.108
1766 6 2 0.0600 179.07330000000002 179.12630000000001 0.421
1767 6 8 0.0300 180.2723 180.94830000000002 1.608
1768 6 8 0.0300 180.3103 181.9213 0.097
1769 6 7 0.1400 183.3033 180.1613 0.0
1770 6 6 -0.4000 185.6473 180.1613 0.0
1771 6 7 0.1400 184.5293 180.6233 0.685
1772 6 8 0.0300 182.4373 180.80530000000002 0.01499999999999996
1773 6 8 0.0300 183.3863 179.39530000000002 -0.748
1774 6 8 0.0300 184.5033 181.73930000000001 0.7279999999999999
1775 6 8 0.0300 184.4873 180.20530000000002 1.722
1776 6 7 0.1400 187.6473 180.1613 0.0
1777 6 6 -0.4000 189.9913 180.1613 0.0
1778 6 7 0.1400 188.8733 180.8463 0.462
1779 6 8 0.0300 186.7813 180.1763 0.644
1780 6 8 0.0300 187.7303 179.41330000000002 -0.766
1781 6 8 0.0300 188.8473 180.88930000000002 1.578
1782 6 8 0.0300 188.8313 181.88330000000002 0.044
1783 6 7 0.1400 191.99130000000002 180.1613 0.0
1784 6 6 -0.4000 194.33530000000002 180.1613 0.0
1785 6 7 0.1400 193.21730000000002 179.69930000000002 0.685
1786 6 8 0.0300 191.1253 179.5173 0.01500000000000004
1787 6 8 0.0300 192.07430000000002 180.9273 -0.748
1788 6 8 0.0300 193.1913 178.5833 0.7280000000000001
1789 6 8 0.0300 193.17530000000002 180.1173 1.722
1790 6 7 0.1400 196.33530000000002 180.1613 0.0
1791 6 6 -0.4000 198.6793 180.1613 0.0
1792 6 7 0.1400 197.56130000000002 180.8463 0.462
1793 6 8 0.0300 195.4693 180.1763 0.644
1794 6 8 0.0300 196.41830000000002 179.41330000000002 -0.766
1795 6 8 0.0300 197.5353 180.88930000000002 1.578
1796 6 8 0.0300 197.51930000000002 181.88330000000002 0.044
1797 6 7 0.1400 200.6793 180.1613 0.0
1798 6 6 -0.4000 203.0233 180.1613 0.0
1799 6 7 0.1400 201.9053 179.69930000000002 0.685
1800 6 8 0.0300 199.8133 179.5173 0.01500000000000004
1801 6 8 0.0300 200.7623 180.9273 -0.748
1802 6 8 0.0300 201.8793 178.5833 0.7280000000000001
1803 6 8 0.0300 201.8633 180.1173 1.722
1804 6 7 0.1400 205.0233 180.1613 0.0
1805 6 6 -0.4000 207.3673 180.1613 0.0
1806 6 7 0.1400 206.2493 180.8463 0.462
1807 6 8 0.0300 204.1573 180.1763 0.644
1808 6 8 0.0300 205.1063 179.41330000000002 -0.766
1809 6 8 0.0300 206.2233 180.88930000000002 1.578
1810 6 8 0.0300 206.2073 181.88330000000002 0.044
1811 6 7 0.1400 209.36730000000003 180.1613 0.0
1812 6 6 -0.4000 211.71130000000002 180.1613 0.0
1813 6 7 0.1400 210.59330000000003 179.69930000000002 0.685
1814 6 8 0.0300 208.50130000000001 179.5173 0.01500000000000004
1815 6 8 0.0300 209.45030000000003 180.9273 -0.748
1816 6 8 0.0300 210.56730000000002 178.5833 0.7280000000000001
1817 6 8 0.0300 210.55130000000003 180.1173 1.722
1818 6 7 0.1400 213.71130000000002 180.1613 0.0
1819 6 6 -0.4000 216.05530000000002 180.1613 0.0
1820 6 7 0.1400 214.93730000000002 180.8463 0.462
1821 6 8 0.0300 212.8453 180.1763 0.644
1822 6 8 0.0300 213.79430000000002 179.41330000000002 -0.766
1823 6 8 0.0300 214.9113 180.88930000000002 1.578
1824 6 8 0.0300 214.89530000000002 181.88330000000002 0.044
1825 6 7 0.1400 218.05530000000002 180.1613 0.0
1826 6 6 -0.4000 220.3993 180.1613 0.0
1827 6 7 0.1400 219.28130000000002 180.6233 0.685
1828 6 8 0.0300 217.1893 180.80530000000002 0.01499999999999996
1829 6 8 0.0300 218.13830000000002 179.39530000000002 -0.748
1830 6 8 0.0300 219.2553 181.73930000000001 0.7279999999999999
1831 6 8 0.0300 219.23930000000001 180.20530000000002 1.722
1832 6 7 0.1400 222.3993 180.1613 0.0
1833 6 6 -0.4000 224.7433 180.1613 0.0
1834 6 7 0.1400 223.6253 180.8463 -0.462
1835 6 8 0.0300 221.5333 180.1763 -0.644
1836 6 8 0.0300 222.4823 179.41330000000002 0.766
1837 6 8 0.0300 223.5993 180.88930000000002 -1.578
1838 6 8 0.0300 223.5833 181.88330000000002 -0.044
1839 6 7 0.1400 226.7433 180.1613 0.0
1840 6 6 -0.4000 229.0873 180.1613 0.0
1841 6 7 0.1400 227.9693 179.69930000000002 0.685
1842 6 8 0.0300 225.8773 179.5173 0.01500000000000004
1843 6 8 0.0300 226.8263 180.9273 -0.748
1844 6 8 0.0300 227.9433 178.5833 0.7280000000000001
1845 6 8 0.0300 227.9273 180.1173 1.722
1846 6 7 0.1400 231.0873 180.1613 0.0
1847 6 6 -0.4000 233.4313 180.1613 0.0
1848 6 7 0.1400 232.3133 180.8463 -0.462
1849 6 8 0.0300 230.22129999999999 180.1763 -0.644
1850 6 8 0.0300 231.1703 179.41330000000002 0.766
1851 6 8 0.0300 232.2873 180.88930000000002 -1.578
1852 6 8 0.0300 232.2713 181.88330000000002 -0.044
1853 6 7 0.1400 235.43130000000002 180.1613 0.0
1854 6 6 -0.4000 237.77530000000002 180.1613 0.0
1855 6 7 0.1400 236.65730000000002 180.6233 0.685
1856 6 8 0.0300 234.5653 180.80530000000002 0.01499999999999996
1857 6 8 0.0300 235.51430000000002 179.39530000000002 -0.748
1858 6 8 0.0300 236.6313 181.73930000000001 0.7279999999999999
1859 6 8 0.0300 236.61530000000002 180.20530000000002 1.722
1860 6 7 0.1400 239.77530000000002 180.1613 0.0
1861 6 6 -0.4000 242.1193 180.1613 0.0
1862 6 7 0.1400 241.00130000000001 180.8463 0.462
1863 6 8 0.0300 238.9093 180.1763 0.644
1864 6 8 0.0300 239.8583 179.41330000000002 -0.766
1865 6 8 0.0300 240.9753 180.88930000000002 1.578
1866 6 8 0.0300 240.9593 181.88330000000002 0.044
1867 6 7 0.1400 244.1193 180.1613 0.0
1868 6 6 -0.4000 246.4633 180.1613 0.0
1869 6 7 0.1400 245.3453 179.69930000000002 0.685
1870 6 8 0.0300 243.2533 179.5173 0.01500000000000004
1871 6 8 0.0300 244.2023 180.9273 -0.748
1872 6 8 0.0300 245.3193 178.5833 0.7280000000000001
1873 6 8 0.0300 245.3033 180.1173 1.722
1874 6 7 0.1400 248.46330000000003 180.1613 0.0
1875 6 6 -0.4000 250.80730000000003 180.1613 0.0
1876 6 7 0.1400 249.68930000000003 180.8463 0.462
1877 6 8 0.0300 247.59730000000002 180.1763 0.644
1878 6 8 0.0300 248.54630000000003 179.41330000000002 -0.766
1879 6 8 0.0300 249.66330000000002 180.88930000000002 1.578
1880 6 8 0.0300 249.64730000000003 181.88330000000002 0.044
1881 6 7 0.1400 252.80730000000003 180.1613 0.0
1882 6 6 -0.4000 255.15130000000002 180.1613 0.0
1883 6 7 0.1400 254.03330000000003 179.69930000000002 0.685
1884 6 8 0.0300 251.9413 179.5173 0.01500000000000004
1885 6 8 0.0300 252.89030000000002 180.9273 -0.748
1886 6 8 0.0300 254.00730000000001 178.5833 0.7280000000000001
1887 6 8 0.0300 253.99130000000002 180.1173 1.722
1888 6 7 0.1400 257.1513 180.1613 0.0
1889 6 6 -0.4000 259.49530000000004 180.1613 0.0
1890 6 7 0.1400 258.3773 180.8463 0.462
1891 6 8 0.0300 256.2853 180.1763 0.644
1892 6 8 0.0300 257.2343 179.41330000000002 -0.766
1893 6 8 0.0300 258.35130000000004 180.88930000000002 1.578
1894 6 8 0.0300 258.3353 181.88330000000002 0.044
1895 6 7 0.1400 261.4953 180.1613 0.0
1896 6 6 -0.4000 263.83930000000004 180.1613 0.0
1897 6 7 0.1400 262.7213 180.6233 0.685
1898 6 8 0.0300 260.6293 180.80530000000002 0.01499999999999996
1899 6 8 0.0300 261.5783 179.39530000000002 -0.748
1900 6 8 0.0300 262.69530000000003 181.73930000000001 0.7279999999999999
1901 6 8 0.0300 262.6793 180.20530000000002 1.722
1902 6 7 0.1400 265.8393 180.1613 0.0
1903 6 6 -0.4000 268.18330000000003 180.1613 0.0
1904 6 7 0.1400 267.0653 180.8463 0.462
1905 6 8 0.0300 264.9733 180.1763 0.644
1906 6 8 0.0300 265.9223 179.41330000000002 -0.766
1907 6 8 0.0300 267.0393 180.88930000000002 1.578
1908 6 8 0.0300 267.0233 181.88330000000002 0.044
1909 6 7 0.1400 270.1833 180.1613 0.0
1910 6 6 -0.4000 272.5273 180.1613 0.0
1911 6 7 0.1400 271.4093 180.6233 0.685
1912 6 8 0.0300 269.3173 180.80530000000002 0.01499999999999996
1913 6 8 0.0300 270.2663 179.39530000000002 -0.748
1914 6 8 0.0300 271.3833 181.73930000000001 0.7279999999999999
1915 6 8 0.0300 271.3673 180.20530000000002 1.722
1916 6 7 0.1400 274.52729999999997 180.1613 0.0
1917 6 6 -0.4000 276.8713 180.1613 0.0
1918 6 7 0.1400 275.75329999999997 180.8463 -0.462
1919 6 8 0.0300 273.6613 180.1763 -0.644
1920 6 8 0.0300 274.6103 179.41330000000002 0.766
1921 6 8 0.0300 275.7273 180.88930000000002 -1.578
1922 6 8 0.0300 275.7113 181.88330000000002 -0.044
1923 6 7 0.1400 278.8713 180.1613 0.0
1924 6 6 -0.4000 281.21530000000007 180.1613 0.0
1925 6 7 0.1400 280.0973 180.6233 0.685
1926 6 8 0.0300 278.00530000000003 180.80530000000002 0.01499999999999996
1927 6 8 0.0300 278.95430000000005 179.39530000000002 -0.748
1928 6 8 0.0300 280.07130000000006 181.73930000000001 0.7279999999999999
1929 6 8 0.0300 280.05530000000005 180.20530000000002 1.722
1930 6 7 0.1400 283.21529999999996 180.1613 0.0
1931 6 6 -0.4000 285.5593 180.1613 0.0
1932 6 7 0.1400 284.44129999999996 180.8463 0.462
1933 6 8 0.0300 282.34929999999997 180.1763 0.644
1934 6 8 0.0300 283.2983 179.41330000000002 -0.766
1935 6 8 0.0300 284.4153 180.88930000000002 1.578
1936 6 8 0.0300 284.3993 181.88330000000002 0.044
1937 6 7 0.1400 287.5593 180.1613 0.0
1938 6 6 -0.4000 289.90330000000006 180.1613 0.0
1939 6 7 0.1400 288.7853 179.69930000000002 0.685
1940 6 8 0.0300 286.6933 179.5173 0.01500000000000004
1941 6 8 0.0300 287.64230000000003 180.9273 -0.748
1942 6 8 0.0300 288.75930000000005 178.5833 0.7280000000000001
1943 6 8 0.0300 288.74330000000003 180.1173 1.722
1944 6 7 0.1400 291.9033 180.1613 0.0
1945 6 6 -0.4000 294.24730000000005 180.1613 0.0
1946 6 7 0.1400 293.1293 180.8463 -0.462
1947 6 8 0.0300 291.0373 180.1763 -0.644
1948 6 8 0.0300 291.9863 179.41330000000002 0.766
1949 6 8 0.0300 293.10330000000005 180.88930000000002 -1.578
1950 6 8 0.0300 293.0873 181.88330000000002 -0.044
1951 6 7 0.1400 296.2473 180.1613 0.0
1952 6 6 -0.4000 298.59130000000005 180.1613 0.0
1953 6 7 0.1400 297.4733 180.6233 0.685
1954 6 8 0.0300 295.3813 180.80530000000002 0.01499999999999996
1955 6 8 0.0300 296.3303 179.39530000000002 -0.748
1956 6 8 0.0300 297.44730000000004 181.73930000000001 0.7279999999999999
1957 6 8 0.0300 297.4313 180.20530000000002 1.722
1958 6 7 0.1400 300.5913 180.1613 0.0
1959 6 6 -0.4000 302.93530000000004 180.1613 0.0
1960 6 7 0.1400 301.8173 180.8463 0.462
1961 6 8 0.0300 299.7253 180.1763 0.644
1962 6 8 0.0300 300.6743 179.41330000000002 -0.766
1963 6 8 0.0300 301.79130000000004 180.88930000000002 1.578
1964 6 8 0.0300 301.7753 181.88330000000002 0.044
1965 6 7 0.1400 304.9353 180.1613 0.0
1966 6 6 -0.4000 307.27930000000003 180.1613 0.0
1967 6 7 0.1400 306.1613 180.6233 0.685
1968 6 8 0.0300 304.0693 180.80530000000002 0.01499999999999996
1969 6 8 0.0300 305.0183 179.39530000000002 -0.748
1970 6 8 0.0300 306.13530000000003 181.73930000000001 0.7279999999999999
1971 6 8 0.0300 306.1193 180.20530000000002 1.722
1972 6 7 0.1400 309.2793 180.1613 0.0
1973 6 6 -0.4000 311.62330000000003 180.1613 0.0
1974 6 7 0.1400 310.5053 180.8463 -0.462
1975 6 8 0.0300 308.4133 180.1763 -0.644
1976 6 8 0.0300 309.3623 179.41330000000002 0.766
1977 6 8 0.0300 310.4793 180.88930000000002 -1.578
1978 6 8 0.0300 310.4633 181.88330000000002 -0.044
1979 6 7 0.1400 313.6233 180.1613 0.0
1980 6 6 -0.4000 315.9673 180.1613 0.0
1981 6 7 0.1400 314.84929999999997 179.69930000000002 0.685
1982 6 8 0.0300 312.7573 179.5173 0.01500000000000004
1983 6 8 0.0300 313.7063 180.9273 -0.748
1984 6 8 0.0300 314.8233 178.5833 0.7280000000000001
1985 6 8 0.0300 314.8073 180.1173 1.722
1986 6 7 0.1400 317.9673 180.1613 0.0
1987 6 6 -0.4000 320.3113000000001 180.1613 0.0
1988 6 7 0.1400 319.1933 180.8463 -0.462
1989 6 8 0.0300 317.10130000000004 180.1763 -0.644
1990 6 8 0.0300 318.05030000000005 179.41330000000002 0.766
1991 6 8 0.0300 319.16730000000007 180.88930000000002 -1.578
1992 6 8 0.0300 319.15130000000005 181.88330000000002 -0.044
1993 6 7 0.1400 322.31129999999996 180.1613 0.0
1994 6 6 -0.4000 324.6553 180.1613 0.0
1995 6 7 0.1400 323.53729999999996 180.6233 0.685
1996 6 8 0.0300 321.4453 180.80530000000002 0.01499999999999996
1997 6 8 0.0300 322.3943 179.39530000000002 -0.748
1998 6 8 0.0300 323.5113 181.73930000000001 0.7279999999999999
1999 6 8 0.0300 323.4953 180.20530000000002 1.722
2000 6 7 0.1400 326.6553 180.1613 0.0
2001 6 6 -0.4000 328.99930000000006 180.1613 0.0
2002 6 7 0.1400 327.8813 180.8463 -0.462
2003 6 8 0.0300 325.7893 180.1763 -0.644
2004 6 8 0.0300 326.73830000000004 179.41330000000002 0.766
2005 6 8 0.0300 327.85530000000006 180.88930000000002 -1.578
2006 6 8 0.0300 327.83930000000004 181.88330000000002 -0.044
2007 6 7 0.1400 330.99929999999995 180.1613 0.0
2008 6 6 -0.4000 333.3433 180.1613 0.0
2009 6 7 0.1400 332.22529999999995 180.6233 0.685
2010 6 8 0.0300 330.13329999999996 180.80530000000002 0.01499999999999996
2011 6 8 0.0300 331.0823 179.39530000000002 -0.748
2012 6 8 0.0300 332.1993 181.73930000000001 0.7279999999999999
2013 6 8 0.0300 332.1833 180.20530000000002 1.722
2014 6 7 0.1400 335.3433 180.1613 0.0
2015 6 6 -0.4000 337.68730000000005 180.1613 0.0
2016 6 7 0.1400 336.5693 180.8463 -0.462
2017 6 8 0.0300 334.4773 180.1763 -0.644
2018 6 8 0.0300 335.4263 179.41330000000002 0.766
2019 6 8 0.0300 336.54330000000004 180.88930000000002 -1.578
2020 6 8 0.0300 336.5273 181.88330000000002 -0.044
2021 6 7 0.1400 339.6873 180.1613 0.0
2022 6 6 -0.4000 342.03130000000004 180.1613 0.0
2023 6 7 0.1400 340.9133 180.6233 0.685
2024 6 8 0.0300 338.8213 180.80530000000002 0.01499999999999996
2025 6 8 0.0300 339.7703 179.39530000000002 -0.748
2026 6 8 0.0300 340.88730000000004 181.73930000000001 0.7279999999999999
2027 6 8 0.0300 340.8713 180.20530000000002 1.722
2028 6 7 0.1400 344.0313 180.1613 0.0
2029 6 6 -0.4000 346.37530000000004 180.1613 0.0
2030 6 7 0.1400 345.2573 180.8463 0.462
2031 6 8 0.0300 343.1653 180.1763 0.644
2032 6 8 0.0300 344.1143 179.41330000000002 -0.766
2033 6 8 0.0300 345.23130000000003 180.88930000000002 1.578
2034 6 8 0.0300 345.2153 181.88330000000002 0.044
2035 6 7 0.1400 348.3753 180.1613 0.0
2036 6 6 -0.4000 350.71930000000003 180.1613 0.0
2037 6 7 0.1400 349.6013 179.69930000000002 0.685
2038 6 8 0.0300 347.5093 179.5173 0.01500000000000004
2039 6 8 0.0300 348.4583 180.9273 -0.748
2040 6 8 0.0300 349.5753 178.5833 0.7280000000000001
2041 6 8 0.0300 349.5593 180.1173 1.722
2042 6 7 0.1400 352.7193 180.1613 0.0
2043 6 6 -0.4000 355.0633 180.1613 0.0
2044 6 7 0.1400 353.9453 180.8463 0.462
2045 6 8 0.0300 351.8533 180.1763 0.644
2046 6 8 0.0300 352.8023 179.41330000000002 -0.766
2047 6 8 0.0300 353.9193 180.88930000000002 1.578
2048 6 8 0.0300 353.9033 181.88330000000002 0.044
2049 6 7 0.1400 357.0633 180.1613 0.0
2050 6 6 -0.4000 359.4073000000001 180.1613 0.0
2051 6 7 0.1400 358.2893 179.69930000000002 0.685
2052 6 8 0.0300 356.19730000000004 179.5173 0.01500000000000004
2053 6 8 0.0300 357.14630000000005 180.9273 -0.748
2054 6 8 0.0300 358.2633000000001 178.5833 0.7280000000000001
2055 6 8 0.0300 358.24730000000005 180.1173 1.722
2056 6 7 0.1400 361.40729999999996 180.1613 0.0
2057 6 6 -0.4000 363.7513 180.1613 0.0
2058 6 7 0.1400 362.63329999999996 180.8463 0.462
2059 6 8 0.0300 360.5413 180.1763 0.644
2060 6 8 0.0300 361.4903 179.41330000000002 -0.766
2061 6 8 0.0300 362.6073 180.88930000000002 1.578
2062 6 8 0.0300 362.5913 181.88330000000002 0.044
2063 6 7 0.1400 365.7513 180.1613 0.0
2064 6 6 -0.4000 368.09530000000007 180.1613 0.0
2065 6 7 0.1400 366.9773 180.6233 0.685
2066 6 8 0.0300 364.88530000000003 180.80530000000002 0.01499999999999996
2067 6 8 0.0300 365.83430000000004 179.39530000000002 -0.748
2068 6 8 0.0300 366.95130000000006 181.73930000000001 0.7279999999999999
2069 6 8 0.0300 366.93530000000004 180.20530000000002 1.722
2070 6 7 0.1400 370.09529999999995 180.1613 0.0
2071 6 6 -0.4000 372.4393 180.1613 0.0
2072 6 7 0.1400 371.32129999999995 180.8463 -0.462
2073 6 8 0.0300 369.22929999999997 180.1763 -0.644
2074 6 8 0.0300 370.1783 179.41330000000002 0.766
2075 6 8 0.0300 371.2953 180.88930000000002 -1.578
2076 6 8 0.0300 371.2793 181.88330000000002 -0.044
2077 6 7 0.1400 374.4393 180.1613 0.0
2078 6 6 -0.4000 376.78330000000005 180.1613 0.0
2079 6 7 0.1400 375.6653 180.6233 0.685
2080 6 8 0.0300 373.5733 180.80530000000002 0.01499999999999996
2081 6 8 0.0300 374.52230000000003 179.39530000000002 -0.748
2082 6 8 0.0300 375.63930000000005 181.73930000000001 0.7279999999999999
2083 6 8 0.0300 375.62330000000003 180.20530000000002 1.722
2084 6 7 0.1400 378.7833 180.1613 0.0
2085 6 6 -0.4000 381.12730000000005 180.1613 0.0
2086 6 7 0.1400 380.0093 180.8463 0.462
2087 6 8 0.0300 377.9173 180.1763 0.644
2088 6 8 0.0300 378.8663 179.41330000000002 -0.766
2089 6 8 0.0300 379.98330000000004 180.88930000000002 1.578
2090 6 8 0.0300 379.9673 181.88330000000002 0.044
2091 6 7 0.1400 383.1273 180.1613 0.0
2092 6 6 -0.4000 385.47130000000004 180.1613 0.0
2093 6 7 0.1400 384.3533 179.69930000000002 0.685
2094 6 8 0.0300 382.2613 179.5173 0.01500000000000004
2095 6 8 0.0300 383.2103 180.9273 -0.748
2096 6 8 0.0300 384.32730000000004 178.5833 0.7280000000000001
2097 6 8 0.0300 384.3113 180.1173 1.722
2098 6 7 0.1400 387.4713 180.1613 0.0
2099 6 6 -0.4000 389.81530000000004 180.1613 0.0
2100 6 7 0.1400 388.6973 180.8463 -0.462
2101 6 8 0.0300 386.6053 180.1763 -0.644
2102 6 8 0.0300 387.5543 179.41330000000002 0.766
2103 6 8 0.0300 388.67130000000003 180.88930000000002 -1.578
2104 6 8 0.0300 388.6553 181.88330000000002 -0.044
2105 6 7 0.1400 391.5573 180.1613 0.0
2106 6 5 0.1450 392.6653 180.6773 0.807
2107 6 3 -0.6830 393.7583 179.81230000000002 0.654
2108 6 2 0.0600 390.5433 180.4043 0.263
2109 6 2 0.0600 391.7563 179.5063 -0.83
2110 6 2 0.0600 392.34430000000003 180.74130000000002 1.875
2111 6 2 0.0600 392.9463 181.69230000000002 0.4259999999999999
2112 6 4 0.4180 394.4173 180.1613 0.0
2113 7 1 -0.1800 359.1655 180.1613 0.0
2114 7 6 -0.4000 361.4795 180.1613 0.0
2115 7 7 0.1400 360.3915 180.88830000000002 0.51
2116 7 2 0.0600 358.22249999999997 180.6373 0.295
2117 7 2 0.0600 359.2905 180.07930000000002 -1.108
2118 7 2 0.0600 359.23449999999997 179.12630000000001 0.421
2119 7 8 0.0300 360.4335 180.94830000000002 1.608
2120 7 8 0.0300 360.4715 181.9213 0.097
2121 7 7 0.1400 363.4645 180.1613 0.0
2122 7 6 -0.4000 365.80850000000004 180.1613 0.0
2123 7 7 0.1400 364.6905 180.6233 0.685
2124 7 8 0.0300 362.5985 180.80530000000002 0.01499999999999996
2125 7 8 0.0300 363.5475 179.39530000000002 -0.748
2126 7 8 0.0300 364.66450000000003 181.73930000000001 0.7279999999999999
2127 7 8 0.0300 364.6485 180.20530000000002 1.722
2128 7 7 0.1400 367.8085 180.1613 0.0
2129 7 6 -0.4000 370.15250000000003 180.1613 0.0
2130 7 7 0.1400 369.0345 180.8463 -0.462
2131 7 8 0.0300 366.9425 180.1763 -0.644
2132 7 8 0.0300 367.8915 179.41330000000002 0.766
2133 7 8 0.0300 369.0085 180.88930000000002 -1.578
2134 7 8 0.0300 368.9925 181.88330000000002 -0.044
2135 7 7 0.1400 372.1525 180.1613 0.0
2136 7 6 -0.4000 374.4965 180.1613 0.0
2137 7 7 0.1400 373.3785 180.6233 0.685
2138 7 8 0.0300 371.2865 180.80530000000002 0.01499999999999996
2139 7 8 0.0300 372.2355 179.39530000000002 -0.748
2140 7 8 0.0300 373.3525 181.73930000000001 0.7279999999999999
2141 7 8 0.0300 373.3365 180.20530000000002 1.722
2142 7 7 0.1400 376.49649999999997 180.1613 0.0
2143 7 6 -0.4000 378.8405 180.1613 0.0
2144 7 7 0.1400 377.72249999999997 180.8463 -0.462
2145 7 8 0.0300 375.6305 180.1763 -0.644
2146 7 8 0.0300 376.5795 179.41330000000002 0.766
2147 7 8 0.0300 377.6965 180.88930000000002 -1.578
2148 7 8 0.0300 377.6805 181.88330000000002 -0.044
2149 7 7 0.1400 380.84049999999996 180.1613 0.0
2150 7 6 -0.4000 383.1845 180.1613 0.0
2151 7 7 0.1400 382.06649999999996 179.69930000000002 0.685
2152 7 8 0.0300 379.9745 179.5173 0.01500000000000004
2153 7 8 0.0300 380.9235 180.9273 -0.748
2154 7 8 0.0300 382.0405 178.5833 0.7280000000000001
2155 7 8 0.0300 382.0245 180.1173 1.722
2156 7 7 0.1400 385.18449999999996 180.1613 0.0
2157 7 6 -0.4000 387.5285 180.1613 0.0
2158 7 7 0.1400 386.41049999999996 180.8463 -0.462
2159 7 8 0.0300 384.3185 180.1763 -0.644
2160 7 8 0.0300 385.2675 179.41330000000002 0.766
2161 7 8 0.0300 386.3845 180.88930000000002 -1.578
2162 7 8 0.0300 386.3685 181.88330000000002 -0.044
2163 7 7 0.1400 389.52849999999995 180.1613 0.0
2164 7 6 -0.4000 391.8725 180.1613 0.0
2165 7 7 0.1400 390.75449999999995 180.6233 0.685
2166 7 8 0.0300 388.66249999999997 180.80530000000002 0.01499999999999996
2167 7 8 0.0300 389.6115 179.39530000000002 -0.748
2168 7 8 0.0300 390.7285 181.73930000000001 0.7279999999999999
2169 7 8 0.0300 390.7125 180.20530000000002 1.722
2170 7 7 0.1400 393.87249999999995 180.1613 0.0
2171 7 6 -0.4000 396.2165 180.1613 0.0
2172 7 7 0.1400 395.09849999999994 180.8463 -0.462
2173 7 8 0.0300 393.00649999999996 180.1763 -0.644
2174 7 8 0.0300 393.9555 179.41330000000002 0.766
2175 7 8 0.0300 395.0725 180.88930000000002 -1.578
2176 7 8 0.0300 395.05649999999997 181.88330000000002 -0.044
2177 7 7 0.1400 398.2165 180.1613 0.0
2178 7 6 -0.4000 400.56050000000005 180.1613 0.0
2179 7 7 0.1400 399.4425 179.69930000000002 0.685
2180 7 8 0.0300 397.3505 179.5173 0.01500000000000004
2181 7 8 0.0300 398.2995 180.9273 -0.748
2182 7 8 0.0300 399.41650000000004 178.5833 0.7280000000000001
2183 7 8 0.0300 399.4005 180.1173 1.722
2184 7 7 0.1400 402.56049999999993 180.1613 0.0
2185 7 6 -0.4000 404.9045 180.1613 0.0
2186 7 7 0.1400 403.78649999999993 180.8463 0.462
2187 7 8 0.0300 401.69449999999995 180.1763 0.644
2188 7 8 0.0300 402.64349999999996 179.41330000000002 -0.766
2189 7 8 0.0300 403.7605 180.88930000000002 1.578
2190 7 8 0.0300 403.74449999999996 181.88330000000002 0.044
2191 7 7 0.1400 406.9045 180.1613 0.0
2192 7 6 -0.4000 409.24850000000004 180.1613 0.0
2193 7 7 0.1400 408.1305 179.69930000000002 0.685
2194 7 8 0.0300 406.0385 179.5173 0.01500000000000004
2195 7 8 0.0300 406.9875 180.9273 -0.748
2196 7 8 0.0300 408.10450000000003 178.5833 0.7280000000000001
2197 7 8 0.0300 408.0885 180.1173 1.722
2198 7 7 0.1400 411.2485 180.1613 0.0
2199 7 6 -0.4000 413.59250000000003 180.1613 0.0
2200 7 7 0.1400 412.4745 180.8463 -0.462
2201 7 8 0.0300 410.3825 180.1763 -0.644
2202 7 8 0.0300 411.3315 179.41330000000002 0.766
2203 7 8 0.0300 412.4485 180.88930000000002 -1.578
2204 7 8 0.0300 412.4325 181.88330000000002 -0.044
2205 7 7 0.1400 415.5925 180.1613 0.0
2206 7 6 -0.4000 417.9365 180.1613 0.0
2207 7 7 0.1400 416.8185 180.6233 0.685
2208 7 8 0.0300 414.7265 180.80530000000002 0.01499999999999996
2209 7 8 0.0300 415.6755 179.39530000000002 -0.748
2210 7 8 0.0300 416.7925 181.73930000000001 0.7279999999999999
2211 7 8 0.0300 416.7765 180.20530000000002 1.722
2212 7 7 0.1400 419.93649999999997 180.1613 0.0
2213 7 6 -0.4000 422.2805 180.1613 0.0
2214 7 7 0.1400 421.16249999999997 180.8463 -0.462
2215 7 8 0.0300 419.0705 180.1763 -0.644
2216 7 8 0.0300 420.0195 179.41330000000002 0.766
2217 7 8 0.0300 421.1365 180.88930000000002 -1.578
2218 7 8 0.0300 421.1205 181.88330000000002 -0.044
2219 7 7 0.1400 424.28049999999996 180.1613 0.0
2220 7 6 -0.4000 426.6245 180.1613 0.0
2221 7 7 0.1400 425.50649999999996 180.6233 0.685
2222 7 8 0.0300 423.4145 180.80530000000002 0.01499999999999996
2223 7 8 0.0300 424.3635 179.39530000000002 -0.748
2224 7 8 0.0300 425.4805 181.73930000000001 0.7279999999999999
2225 7 8 0.0300 425.4645 180.20530000000002 1.722
2226 7 7 0.1400 428.62449999999995 180.1613 0.0
2227 7 6 -0.4000 430.9685 180.1613 0.0
2228 7 7 0.1400 429.85049999999995 180.8463 -0.462
2229 7 8 0.0300 427.75849999999997 180.1763 -0.644
2230 7 8 0.0300 428.7075 179.41330000000002 0.766
2231 7 8 0.0300 429.8245 180.88930000000002 -1.578
2232 7 8 0.0300 429.8085 181.88330000000002 -0.044
2233 7 7 0.1400 432.96849999999995 180.1613 0.0
2234 7 6 -0.4000 435.3125 180.1613 0.0
2235 7 7 0.1400 434.19449999999995 179.69930000000002 0.685
2236 7 8 0.0300 432.10249999999996 179.5173 0.01500000000000004
2237 7 8 0.0300 433.0515 180.9273 -0.748
2238 7 8 0.0300 434.1685 178.5833 0.7280000000000001
2239 7 8 0.0300 434.1525 180.1173 1.722
2240 7 7 0.1400 437.3125 180.1613 0.0
2241 7 6 -0.4000 439.65650000000005 180.1613 0.0
2242 7 7 0.1400 438.5385 180.8463 0.462
2243 7 8 0.0300 436.4465 180.1763 0.644
2244 7 8 0.0300 437.3955 179.41330000000002 -0.766
2245 7 8 0.0300 438.51250000000005 180.88930000000002 1.578
2246 7 8 0.0300 438.4965 181.88330000000002 0.044
2247 7 7 0.1400 441.65649999999994 180.1613 0.0
2248 7 6 -0.4000 444.0005 180.1613 0.0
2249 7 7 0.1400 442.88249999999994 179.69930000000002 0.685
2250 7 8 0.0300 440.79049999999995 179.5173 0.01500000000000004
2251 7 8 0.0300 441.73949999999996 180.9273 -0.748
2252 7 8 0.0300 442.8565 178.5833 0.7280000000000001
2253 7 8 0.0300 442.84049999999996 180.1173 1.722
2254 7 7 0.1400 446.0005 180.1613 0.0
2255 7 6 -0.4000 448.34450000000004 180.1613 0.0
2256 7 7 0.1400 447.2265 180.8463 0.462
2257 7 8 0.0300 445.1345 180.1763 0.644
2258 7 8 0.0300 446.0835 179.41330000000002 -0.766
2259 7 8 0.0300 447.20050000000003 180.88930000000002 1.578
2260 7 8 0.0300 447.1845 181.88330000000002 0.044
2261 7 7 0.1400 450.3445 180.1613 0.0
2262 7 6 -0.4000 452.68850000000003 180.1613 0.0
2263 7 7 0.1400 451.5705 179.69930000000002 0.685
2264 7 8 0.0300 449.4785 179.5173 0.01500000000000004
2265 7 8 0.0300 450.4275 180.9273 -0.748
2266 7 8 0.0300 451.5445 178.5833 0.7280000000000001
2267 7 8 0.0300 451.5285 180.1173 1.722
2268 7 7 0.1400 454.6885 180.1613 0.0
2269 7 6 -0.4000 457.0325 180.1613 0.0
2270 7 7 0.1400 455.9145 180.8463 -0.462
2271 7 8 0.0300 453.8225 180.1763 -0.644
2272 7 8 0.0300 454.7715 179.41330000000002 0.766
2273 7 8 0.0300 455.8885 180.88930000000002 -1.578
2274 7 8 0.0300 455.8725 181.88330000000002 -0.044
2275 7 7 0.1400 459.03249999999997 180.1613 0.0
2276 7 6 -0.4000 461.3765 180.1613 0.0
2277 7 7 0.1400 460.25849999999997 180.6233 0.685
2278 7 8 0.0300 458.1665 180.80530000000002 0.01499999999999996
2279 7 8 0.0300 459.1155 179.39530000000002 -0.748
2280 7 8 0.0300 460.2325 181.73930000000001 0.7279999999999999
2281 7 8 0.0300 460.2165 180.20530000000002 1.722
2282 7 7 0.1400 463.37649999999996 180.1613 0.0
2283 7 6 -0.4000 465.7205 180.1613 0.0
2284 7 7 0.1400 464.60249999999996 180.8463 -0.462
2285 7 8 0.0300 462.5105 180.1763 -0.644
2286 7 8 0.0300 463.4595 179.41330000000002 0.766
2287 7 8 0.0300 464.5765 180.88930000000002 -1.578
2288 7 8 0.0300 464.5605 181.88330000000002 -0.044
2289 7 7 0.1400 467.72049999999996 180.1613 0.0
2290 7 6 -0.4000 470.0645 180.1613 0.0
2291 7 7 0.1400 468.94649999999996 179.69930000000002 0.685
2292 7 8 0.0300 466.8545 179.5173 0.01500000000000004
2293 7 8 0.0300 467.8035 180.9273 -0.748
2294 7 8 0.0300 468.9205 178.5833 0.7280000000000001
2295 7 8 0.0300 468.9045 180.1173 1.722
2296 7 7 0.1400 472.06449999999995 180.1613 0.0
2297 7 6 -0.4000 474.4085 180.1613 0.0
2298 7 7 0.1400 473.29049999999995 180.8463 -0.462
2299 7 8 0.0300 471.19849999999997 180.1763 -0.644
2300 7 8 0.0300 472.1475 179.41330000000002 0.766
2301 7 8 0.0300 473.2645 180.88930000000002 -1.578
2302 7 8 0.0300 473.2485 181.88330000000002 -0.044
2303 7 7 0.1400 476.40849999999995 180.1613 0.0
2304 7 6 -0.4000 478.7525 180.1613 0.0
2305 7 7 0.1400 477.63449999999995 180.6233 0.685
2306 7 8 0.0300 475.54249999999996 180.80530000000002 0.01499999999999996
2307 7 8 0.0300 476.4915 179.39530000000002 -0.748
2308 7 8 0.0300 477.6085 181.73930000000001 0.7279999999999999
2309 7 8 0.0300 477.5925 180.20530000000002 1.722
2310 7 7 0.1400 480.75249999999994 180.1613 0.0
2311 7 6 -0.4000 483.0965 180.1613 0.0
2312 7 7 0.1400 481.97849999999994 180.8463 -0.462
2313 7 8 0.0300 479.88649999999996 180.1763 -0.644
2314 7 8 0.0300 480.83549999999997 179.41330000000002 0.766
2315 7 8 0.0300 481.9525 180.88930000000002 -1.578
2316 7 8 0.0300 481.93649999999997 181.88330000000002 -0.044
2317 7 7 0.1400 485.0965 180.1613 0.0
2318 7 6 -0.4000 487.44050000000004 180.1613 0.0
2319 7 7 0.1400 486.3225 180.6233 0.685
2320 7 8 0.0300 484.2305 180.80530000000002 0.01499999999999996
2321 7 8 0.0300 485.1795 179.39530000000002 -0.748
2322 7 8 0.0300 486.29650000000004 181.73930000000001 0.7279999999999999
2323 7 8 0.0300 486.2805 180.20530000000002 1.722
2324 7 7 0.1400 489.44049999999993 180.1613 0.0
2325 7 6 -0.4000 491.7845 180.1613 0.0
2326 7 7 0.1400 490.6664999999999 180.8463 0.462
2327 7 8 0.0300 488.57449999999994 180.1763 0.644
2328 7 8 0.0300 489.52349999999996 179.41330000000002 -0.766
2329 7 8 0.0300 490.6405 180.88930000000002 1.578
2330 7 8 0.0300 490.62449999999995 181.88330000000002 0.044
2331 7 7 0.1400 493.7845 180.1613 0.0
2332 7 6 -0.4000 496.12850000000003 180.1613 0.0
2333 7 7 0.1400 495.0105 180.6233 0.685
2334 7 8 0.0300 492.9185 180.80530000000002 0.01499999999999996
2335 7 8 0.0300 493.8675 179.39530000000002 -0.748
2336 7 8 0.0300 494.9845 181.73930000000001 0.7279999999999999
2337 7 8 0.0300 494.9685 180.20530000000002 1.722
2338 7 7 0.1400 498.1285 180.1613 0.0
2339 7 6 -0.4000 500.4725 180.1613 0.0
2340 7 7 0.1400 499.3545 180.8463 -0.462
2341 7 8 0.0300 497.2625 180.1763 -0.644
2342 7 8 0.0300 498.2115 179.41330000000002 0.766
2343 7 8 0.0300 499.3285 180.88930000000002 -1.578
2344 7 8 0.0300 499.3125 181.88330000000002 -0.044
2345 7 7 0.1400 502.47249999999997 180.1613 0.0
2346 7 6 -0.4000 504.8165 180.1613 0.0
2347 7 7 0.1400 503.69849999999997 180.6233 0.685
2348 7 8 0.0300 501.6065 180.80530000000002 0.01499999999999996
2349 7 8 0.0300 502.5555 179.39530000000002 -0.748
2350 7 8 0.0300 503.6725 181.73930000000001 0.7279999999999999
2351 7 8 0.0300 503.6565 180.20530000000002 1.722
2352 7 7 0.1400 506.81649999999996 180.1613 0.0
2353 7 6 -0.4000 509.1605 180.1613 0.0
2354 7 7 0.1400 508.04249999999996 180.8463 0.462
2355 7 8 0.0300 505.9505 180.1763 0.644
2356 7 8 0.0300 506.8995 179.41330000000002 -0.766
2357 7 8 0.0300 508.0165 180.88930000000002 1.578
2358 7 8 0.0300 508.0005 181.88330000000002 0.044
2359 7 7 0.1400 511.16049999999996 180.1613 0.0
2360 7 6 -0.4000 513.5045 180.1613 0.0
2361 7 7 0.1400 512.3865 180.6233 0.685
2362 7 8 0.0300 510.29449999999997 180.80530000000002 0.01499999999999996
2363 7 8 0.0300 511.2435 179.39530000000002 -0.748
2364 7 8 0.0300 512.3605 181.73930000000001 0.7279999999999999
2365 7 8 0.0300 512.3444999999999 180.20530000000002 1.722
2366 7 7 0.1400 515.5045 180.1613 0.0
2367 7 6 -0.4000 517.8485000000001 180.1613 0.0
2368 7 7 0.1400 516.7305 180.8463 -0.462
2369 7 8 0.0300 514.6385 180.1763 -0.644
2370 7 8 0.0300 515.5875 179.41330000000002 0.766
2371 7 8 0.0300 516.7045 180.88930000000002 -1.578
2372 7 8 0.0300 516.6885 181.88330000000002 -0.044
2373 7 7 0.1400 519.8485 180.1613 0.0
2374 7 6 -0.4000 522.1925 180.1613 0.0
2375 7 7 0.1400 521.0745 180.6233 0.685
2376 7 8 0.0300 518.9825 180.80530000000002 0.01499999999999996
2377 7 8 0.0300 519.9314999999999 179.39530000000002 -0.748
2378 7 8 0.0300 521.0485 181.73930000000001 0.7279999999999999
2379 7 8 0.0300 521.0324999999999 180.20530000000002 1.722
2380 7 7 0.1400 524.1925 180.1613 0.0
2381 7 6 -0.4000 526.5365 180.1613 0.0
2382 7 7 0.1400 525.4185 180.8463 -0.462
2383 7 8 0.0300 523.3265 180.1763 -0.644
2384 7 8 0.0300 524.2755 179.41330000000002 0.766
2385 7 8 0.0300 525.3925 180.88930000000002 -1.578
2386 7 8 0.0300 525.3765 181.88330000000002 -0.044
2387 7 7 0.1400 528.5364999999999 180.1613 0.0
2388 7 6 -0.4000 530.8805 180.1613 0.0
2389 7 7 0.1400 529.7624999999999 180.6233 0.685
2390 7 8 0.0300 527.6705 180.80530000000002 0.01499999999999996
2391 7 8 0.0300 528.6194999999999 179.39530000000002 -0.748
2392 7 8 0.0300 529.7365 181.73930000000001 0.7279999999999999
2393 7 8 0.0300 529.7204999999999 180.20530000000002 1.722
2394 7 7 0.1400 532.8805 180.1613 0.0
2395 7 6 -0.4000 535.2245 180.1613 0.0
2396 7 7 0.1400 534.1065 180.8463 -0.462
2397 7 8 0.0300 532.0145 180.1763 -0.644
2398 7 8 0.0300 532.9635 179.41330000000002 0.766
2399 7 8 0.0300 534.0805 180.88930000000002 -1.578
2400 7 8 0.0300 534.0645 181.88330000000002 -0.044
2401 7 7 0.1400 537.2245 180.1613 0.0
2402 7 6 -0.4000 539.5685000000001 180.1613 0.0
2403 7 7 0.1400 538.4505 180.6233 0.685
2404 7 8 0.0300 536.3585 180.80530000000002 0.01499999999999996
2405 7 8 0.0300 537.3075 179.39530000000002 -0.748
2406 7 8 0.0300 538.4245000000001 181.73930000000001 0.7279999999999999
2407 7 8 0.0300 538.4085 180.20530000000002 1.722
2408 7 7 0.1400 541.5685 180.1613 0.0
2409 7 6 -0.4000 543.9125 180.1613 0.0
2410 7 7 0.1400 542.7945 180.8463 0.462
2411 7 8 0.0300 540.7025 180.1763 0.644
2412 7 8 0.0300 541.6514999999999 179.41330000000002 -0.766
2413 7 8 0.0300 542.7685 180.88930000000002 1.578
2414 7 8 0.0300 542.7524999999999 181.88330000000002 0.044
2415 7 7 0.1400 545.9124999999999 180.1613 0.0
2416 7 6 -0.4000 548.2565 180.1613 0.0
2417 7 7 0.1400 547.1384999999999 179.69930000000002 0.685
2418 7 8 0.0300 545.0464999999999 179.5173 0.01500000000000004
2419 7 8 0.0300 545.9954999999999 180.9273 -0.748
2420 7 8 0.0300 547.1125 178.5833 0.7280000000000001
2421 7 8 0.0300 547.0964999999999 180.1173 1.722
2422 7 7 0.1400 550.2565 180.1613 0.0
2423 7 6 -0.4000 552.6005 180.1613 0.0
2424 7 7 0.1400 551.4825 180.8463 -0.462
2425 7 8 0.0300 549.3905 180.1763 -0.644
2426 7 8 0.0300 550.3394999999999 179.41330000000002 0.766
2427 7 8 0.0300 551.4565 180.88930000000002 -1.578
2428 7 8 0.0300 551.4404999999999 181.88330000000002 -0.044
2429 7 7 0.1400 554.6005 180.1613 0.0
2430 7 6 -0.4000 556.9445000000001 180.1613 0.0
2431 7 7 0.1400 555.8265 179.69930000000002 0.685
2432 7 8 0.0300 553.7345 179.5173 0.01500000000000004
2433 7 8 0.0300 554.6835 180.9273 -0.748
2434 7 8 0.0300 555.8005 178.5833 0.7280000000000001
2435 7 8 0.0300 555.7845 180.1173 1.722
2436 7 7 0.1400 558.9445 180.1613 0.0
2437 7 6 -0.4000 561.2885 180.1613 0.0
2438 7 7 0.1400 560.1705 180.8463 0.462
2439 7 8 0.0300 558.0785 180.1763 0.644
2440 7 8 0.0300 559.0274999999999 179.41330000000002 -0.766
2441 7 8 0.0300 560.1445 180.88930000000002 1.578
2442 7 8 0.0300 560.1284999999999 181.88330000000002 0.044
2443 7 7 0.1400 563.2885 180.1613 0.0
2444 7 6 -0.4000 565.6325 180.1613 0.0
2445 7 7 0.1400 564.5145 180.6233 0.685
2446 7 8 0.0300 562.4225 180.80530000000002 0.01499999999999996
2447 7 8 0.0300 563.3715 179.39530000000002 -0.748
2448 7 8 0.0300 564.4885 181.73930000000001 0.7279999999999999
2449 7 8 0.0300 564.4725 180.20530000000002 1.722
2450 7 7 0.1400 567.6324999999999 180.1613 0.0
2451 7 6 -0.4000 569.9765 180.1613 0.0
2452 7 7 0.1400 568.8584999999999 180.8463 0.462
2453 7 8 0.0300 566.7665 180.1763 0.644
2454 7 8 0.0300 567.7154999999999 179.41330000000002 -0.766
2455 7 8 0.0300 568.8325 180.88930000000002 1.578
2456 7 8 0.0300 568.8164999999999 181.88330000000002 0.044
2457 7 7 0.1400 571.7185000000001 180.1613 0.0
2458 7 5 0.1450 572.8265 179.64530000000002 0.807
2459 7 3 -0.6830 573.9195 180.5103 0.654
2460 7 2 0.0600 570.7045 179.91830000000002 0.263
2461 7 2 0.0600 571.9175 180.8163 -0.83
2462 7 2 0.0600 572.5055 179.5813 1.875
2463 7 2 0.0600 573.1075 178.6303 0.4260000000000001
2464 7 4 0.4180 574.5785 180.1613 0.0
2465 8 1 -0.1800 539.3267999999999 180.1613 0.0
2466 8 6 -0.4000 541.6408 180.1613 0.0
2467 8 7 0.1400 540.5527999999999 180.88830000000002 0.51
2468 8 2 0.0600 538.3838 180.6373 0.295
2469 8 2 0.0600 539.4517999999999 180.07930000000002 -1.108
2470 8 2 0.0600 539.3958 179.12630000000001 0.421
2471 8 8 0.0300 540.5948 180.94830000000002 1.608
2472 8 8 0.0300 540.6328 181.9213 0.097
2473 8 7 0.1400 543.6257999999999 180.1613 0.0
2474 8 6 -0.4000 545.9698 180.1613 0.0
2475 8 7 0.1400 544.8517999999999 180.6233 0.685
2476 8 8 0.0300 542.7597999999999 180.80530000000002 0.01499999999999996
2477 8 8 0.0300 543.7087999999999 179.39530000000002 -0.748
2478 8 8 0.0300 544.8258 181.73930000000001 0.7279999999999999
2479 8 8 0.0300 544.8097999999999 180.20530000000002 1.722
2480 8 7 0.1400 547.9698 180.1613 0.0
2481 8 6 -0.4000 550.3138 180.1613 0.0
2482 8 7 0.1400 549.1958 180.8463 0.462
2483 8 8 0.0300 547.1038 180.1763 0.644
2484 8 8 0.0300 548.0527999999999 179.41330000000002 -0.766
2485 8 8 0.0300 549.1698 180.88930000000002 1.578
2486 8 8 0.0300 549.1537999999999 181.88330000000002 0.044
2487 8 7 0.1400 552.3137999999999 180.1613 0.0
2488 8 6 -0.4000 554.6578 180.1613 0.0
2489 8 7 0.1400 553.5397999999999 180.6233 0.685
2490 8 8 0.0300 551.4477999999999 180.80530000000002 0.01499999999999996
2491 8 8 0.0300 552.3967999999999 179.39530000000002 -0.748
2492 8 8 0.0300 553.5138 181.73930000000001 0.7279999999999999
2493 8 8 0.0300 553.4977999999999 180.20530000000002 1.722
2494 8 7 0.1400 556.6578 180.1613 0.0
2495 8 6 -0.4000 559.0018 180.1613 0.0
2496 8 7 0.1400 557.8838 180.8463 0.462
2497 8 8 0.0300 555.7918 180.1763 0.644
2498 8 8 0.0300 556.7407999999999 179.41330000000002 -0.766
2499 8 8 0.0300 557.8578 180.88930000000002 1.578
2500 8 8 0.0300 557.8417999999999 181.88330000000002 0.044
2501 8 7 0.1400 561.0018 180.1613 0.0
2502 8 6 -0.4000 563.3458 180.1613 0.0
2503 8 7 0.1400 562.2278 179.69930000000002 0.685
2504 8 8 0.0300 560.1358 179.5173 0.01500000000000004
2505 8 8 0.0300 561.0848 180.9273 -0.748
2506 8 8 0.0300 562.2018 178.5833 0.7280000000000001
2507 8 8 0.0300 562.1858 180.1173 1.722
2508 8 7 0.1400 565.3457999999999 180.1613 0.0
2509 8 6 -0.4000 567.6898 180.1613 0.0
2510 8 7 0.1400 566.5717999999999 180.8463 -0.462
2511 8 8 0.0300 564.4798 180.1763 -0.644
2512 8 8 0.0300 565.4287999999999 179.41330000000002 0.766
2513 8 8 0.0300 566.5458 180.88930000000002 -1.578
2514 8 8 0.0300 566.5297999999999 181.88330000000002 -0.044
2515 8 7 0.1400 569.6898 180.1613 0.0
2516 8 6 -0.4000 572.0338 180.1613 0.0
2517 8 7 0.1400 570.9158 179.69930000000002 0.685
2518 8 8 0.0300 568.8238 179.5173 0.01500000000000004
2519 8 8 0.0300 569.7728 180.9273 -0.748
2520 8 8 0.0300 570.8898 178.5833 0.7280000000000001
2521 8 8 0.0300 570.8738 180.1173 1.722
2522 8 7 0.1400 574.0337999999999 180.1613 0.0
2523 8 6 -0.4000 576.3778 180.1613 0.0
2524 8 7 0.1400 575.2597999999999 180.8463 0.462
2525 8 8 0.0300 573.1677999999999 180.1763 0.644
2526 8 8 0.0300 574.1167999999999 179.41330000000002 -0.766
2527 8 8 0.0300 575.2338 180.88930000000002 1.578
2528 8 8 0.0300 575.2177999999999 181.88330000000002 0.044
2529 8 7 0.1400 578.3778 180.1613 0.0
2530 8 6 -0.4000 580.7218 180.1613 0.0
2531 8 7 0.1400 579.6038 179.69930000000002 0.685
2532 8 8 0.0300 577.5118 179.5173 0.01500000000000004
2533 8 8 0.0300 578.4608 180.9273 -0.748
2534 8 8 0.0300 579.5778 178.5833 0.7280000000000001
2535 8 8 0.0300 579.5618 180.1173 1.722
2536 8 7 0.1400 582.7217999999999 180.1613 0.0
2537 8 6 -0.4000 585.0658 180.1613 0.0
2538 8 7 0.1400 583.9477999999999 180.8463 0.462
2539 8 8 0.0300 581.8557999999999 180.1763 0.644
2540 8 8 0.0300 582.8047999999999 179.41330000000002 -0.766
2541 8 8 0.0300 583.9218 180.88930000000002 1.578
2542 8 8 0.0300 583.9057999999999 181.88330000000002 0.044
2543 8 7 0.1400 587.0658 180.1613 0.0
2544 8 6 -0.4000 589.4098 180.1613 0.0
2545 8 7 0.1400 588.2918 179.69930000000002 0.685
2546 8 8 0.0300 586.1998 179.5173 0.01500000000000004
2547 8 8 0.0300 587.1487999999999 180.9273 -0.748
2548 8 8 0.0300 588.2658 178.5833 0.7280000000000001
2549 8 8 0.0300 588.2497999999999 180.1173 1.722
2550 8 7 0.1400 591.4097999999999 180.1613 0.0
2551 8 6 -0.4000 593.7538 180.1613 0.0
2552 8 7 0.1400 592.6357999999999 180.8463 -0.462
2553 8 8 0.0300 590.5437999999999 180.1763 -0.644
2554 8 8 0.0300 591.4927999999999 179.41330000000002 0.766
2555 8 8 0.0300 592.6098 180.88930000000002 -1.578
2556 8 8 0.0300 592.5937999999999 181.88330000000002 -0.044
2557 8 7 0.1400 595.7538 180.1613 0.0
2558 8 6 -0.4000 598.0978 180.1613 0.0
2559 8 7 0.1400 596.9798 179.69930000000002 0.685
2560 8 8 0.0300 594.8878 179.5173 0.01500000000000004
2561 8 8 0.0300 595.8367999999999 180.9273 -0.748
2562 8 8 0.0300 596.9538 178.5833 0.7280000000000001
2563 8 8 0.0300 596.9377999999999 180.1173 1.722
2564 8 7 0.1400 600.0978 180.1613 0.0
2565 8 6 -0.4000 602.4418000000001 180.1613 0.0
2566 8 7 0.1400 601.3238 180.8463 0.462
2567 8 8 0.0300 599.2318 180.1763 0.644
2568 8 8 0.0300 600.1808 179.41330000000002 -0.766
2569 8 8 0.0300 601.2978 180.88930000000002 1.578
2570 8 8 0.0300 601.2818 181.88330000000002 0.044
2571 8 7 0.1400 604.4418 180.1613 0.0
2572 8 6 -0.4000 606.7858 180.1613 0.0
2573 8 7 0.1400 605.6677999999999 180.6233 0.685
2574 8 8 0.0300 603.5758 180.80530000000002 0.01499999999999996
2575 8 8 0.0300 604.5247999999999 179.39530000000002 -0.748
2576 8 8 0.0300 605.6418 181.73930000000001 0.7279999999999999
2577 8 8 0.0300 605.6257999999999 180.20530000000002 1.722
2578 8 7 0.1400 608.7858 180.1613 0.0
2579 8 6 -0.4000 611.1298 180.1613 0.0
2580 8 7 0.1400 610.0118 180.8463 0.462
2581 8 8 0.0300 607.9198 180.1763 0.644
2582 8 8 0.0300 608.8688 179.41330000000002 -0.766
2583 8 8 0.0300 609.9858 180.88930000000002 1.578
2584 8 8 0.0300 609.9698 181.88330000000002 0.044
2585 8 7 0.1400 613.1297999999999 180.1613 0.0
2586 8 6 -0.4000 615.4738 180.1613 0.0
2587 8 7 0.1400 614.3557999999999 179.69930000000002 0.685
2588 8 8 0.0300 612.2638 179.5173 0.01500000000000004
2589 8 8 0.0300 613.2127999999999 180.9273 -0.748
2590 8 8 0.0300 614.3298 178.5833 0.7280000000000001
2591 8 8 0.0300 614.3137999999999 180.1173 1.722
2592 8 7 0.1400 617.4738 180.1613 0.0
2593 8 6 -0.4000 619.8178 180.1613 0.0
2594 8 7 0.1400 618.6998 180.8463 -0.462
2595 8 8 0.0300 616.6078 180.1763 -0.644
2596 8 8 0.0300 617.5568 179.41330000000002 0.766
2597 8 8 0.0300 618.6738 180.88930000000002 -1.578
2598 8 8 0.0300 618.6578 181.88330000000002 -0.044
2599 8 7 0.1400 621.8177999999999 180.1613 0.0
2600 8 6 -0.4000 624.1618 180.1613 0.0
2601 8 7 0.1400 623.0437999999999 180.6233 0.685
2602 8 8 0.0300 620.9517999999999 180.80530000000002 0.01499999999999996
2603 8 8 0.0300 621.9007999999999 179.39530000000002 -0.748
2604 8 8 0.0300 623.0178 181.73930000000001 0.7279999999999999
2605 8 8 0.0300 623.0017999999999 180.20530000000002 1.722
2606 8 7 0.1400 626.1618 180.1613 0.0
2607 8 6 -0.4000 628.5058 180.1613 0.0
2608 8 7 0.1400 627.3878 180.8463 -0.462
2609 8 8 0.0300 625.2958 180.1763 -0.644
2610 8 8 0.0300 626.2447999999999 179.41330000000002 0.766
2611 8 8 0.0300 627.3618 180.88930000000002 -1.578
2612 8 8 0.0300 627.3457999999999 181.88330000000002 -0.044
2613 8 7 0.1400 630.5057999999999 180.1613 0.0
2614 8 6 -0.4000 632.8498 180.1613 0.0
2615 8 7 0.1400 631.7317999999999 180.6233 0.685
2616 8 8 0.0300 629.6397999999999 180.80530000000002 0.01499999999999996
2617 8 8 0.0300 630.5887999999999 179.39530000000002 -0.748
2618 8 8 0.0300 631.7058 181.73930000000001 0.7279999999999999
2619 8 8 0.0300 631.6897999999999 180.20530000000002 1.722
2620 8 7 0.1400 634.8498 180.1613 0.0
2621 8 6 -0.4000 637.1938 180.1613 0.0
2622 8 7 0.1400 636.0758 180.8463 0.462
2623 8 8 0.0300 633.9838 180.1763 0.644
2624 8 8 0.0300 634.9327999999999 179.41330000000002 -0.766
2625 8 8 0.0300 636.0498 180.88930000000002 1.578
2626 8 8 0.0300 636.0337999999999 181.88330000000002 0.044
2627 8 7 0.1400 639.1938 180.1613 0.0
2628 8 6 -0.4000 641.5378000000001 180.1613 0.0
2629 8 7 0.1400 640.4198 180.6233 0.685
2630 8 8 0.0300 638.3278 180.80530000000002 0.01499999999999996
2631 8 8 0.0300 639.2768 179.39530000000002 -0.748
2632 8 8 0.0300 640.3938 181.73930000000001 0.7279999999999999
2633 8 8 0.0300 640.3778 180.20530000000002 1.722
2634 8 7 0.1400 643.5378 180.1613 0.0
2635 8 6 -0.4000 645.8818 180.1613 0.0
2636 8 7 0.1400 644.7638 180.8463 0.462
2637 8 8 0.0300 642.6718 180.1763 0.644
2638 8 8 0.0300 643.6207999999999 179.41330000000002 -0.766
2639 8 8 0.0300 644.7378 180.88930000000002 1.578
2640 8 8 0.0300 644.7217999999999 181.88330000000002 0.044
2641 8 7 0.1400 647.8817999999999 180.1613 0.0
2642 8 6 -0.4000 650.2257999999999 180.1613 0.0
2643 8 7 0.1400 649.1077999999999 179.69930000000002 0.685
2644 8 8 0.0300 647.0157999999999 179.5173 0.01500000000000004
2645 8 8 0.0300 647.9647999999999 180.9273 -0.748
2646 8 8 0.0300 649.0817999999999 178.5833 0.7280000000000001
2647 8 8 0.0300 649.0657999999999 180.1173 1.722
2648 8 7 0.1400 652.2257999999999 180.1613 0.0
2649 8 6 -0.4000 654.5698 180.1613 0.0
2650 8 7 0.1400 653.4517999999999 180.8463 0.462
2651 8 8 0.0300 651.3598 180.1763 0.644
2652 8 8 0.0300 652.3087999999999 179.41330000000002 -0.766
2653 8 8 0.0300 653.4258 180.88930000000002 1.578
2654 8 8 0.0300 653.4097999999999 181.88330000000002 0.044
2655 8 7 0.1400 656.5698 180.1613 0.0
2656 8 6 -0.4000 658.9138 180.1613 0.0
2657 8 7 0.1400 657.7958 179.69930000000002 0.685
2658 8 8 0.0300 655.7038 179.5173 0.01500000000000004
2659 8 8 0.0300 656.6528 180.9273 -0.748
2660 8 8 0.0300 657.7698 178.5833 0.7280000000000001
2661 8 8 0.0300 657.7538 180.1173 1.722
2662 8 7 0.1400 660.9137999999999 180.1613 0.0
2663 8 6 -0.4000 663.2578 180.1613 0.0
2664 8 7 0.1400 662.1397999999999 180.8463 -0.462
2665 8 8 0.0300 660.0477999999999 180.1763 -0.644
2666 8 8 0.0300 660.9967999999999 179.41330000000002 0.766
2667 8 8 0.0300 662.1138 180.88930000000002 -1.578
2668 8 8 0.0300 662.0977999999999 181.88330000000002 -0.044
2669 8 7 0.1400 665.2578 180.1613 0.0
2670 8 6 -0.4000 667.6018 180.1613 0.0
2671 8 7 0.1400 666.4838 179.69930000000002 0.685
2672 8 8 0.0300 664.3918 179.5173 0.01500000000000004
2673 8 8 0.0300 665.3408 180.9273 -0.748
2674 8 8 0.0300 666.4578 178.5833 0.7280000000000001
2675 8 8 0.0300 666.4418 180.1173 1.722
2676 8 7 0.1400 669.6017999999999 180.1613 0.0
2677 8 6 -0.4000 671.9458 180.1613 0.0
2678 8 7 0.1400 670.8277999999999 180.8463 -0.462
2679 8 8 0.0300 668.7357999999999 180.1763 -0.644
2680 8 8 0.0300 669.6847999999999 179.41330000000002 0.766
2681 8 8 0.0300 670.8018 180.88930000000002 -1.578
2682 8 8 0.0300 670.7857999999999 181.88330000000002 -0.044
2683 8 7 0.1400 673.9458 180.1613 0.0
2684 8 6 -0.4000 676.2898 180.1613 0.0
2685 8 7 0.1400 675.1718 180.6233 0.685
2686 8 8 0.0300 673.0798 180.80530000000002 0.01499999999999996
2687 8 8 0.0300 674.0287999999999 179.39530000000002 -0.748
2688 8 8 0.0300 675.1458 181.73930000000001 0.7279999999999999
2689 8 8 0.0300 675.1297999999999 180.20530000000002 1.722
2690 8 7 0.1400 678.2898 180.1613 0.0
2691 8 6 -0.4000 680.6338000000001 180.1613 0.0
2692 8 7 0.1400 679.5158 180.8463 0.462
2693 8 8 0.0300 677.4238 180.1763 0.644
2694 8 8 0.0300 678.3728 179.41330000000002 -0.766
2695 8 8 0.0300 679.4898000000001 180.88930000000002 1.578
2696 8 8 0.0300 679.4738 181.88330000000002 0.044
2697 8 7 0.1400 682.6338 180.1613 0.0
2698 8 6 -0.4000 684.9778 180.1613 0.0
2699 8 7 0.1400 683.8598 180.6233 0.685
2700 8 8 0.0300 681.7678 180.80530000000002 0.01499999999999996
2701 8 8 0.0300 682.7167999999999 179.39530000000002 -0.748
2702 8 8 0.0300 683.8338 181.73930000000001 0.7279999999999999
2703 8 8 0.0300 683.8177999999999 180.20530000000002 1.722
2704 8 7 0.1400 686.9777999999999 180.1613 0.0
2705 8 6 -0.4000 689.3217999999999 180.1613 0.0
2706 8 7 0.1400 688.2037999999999 180.8463 0.462
2707 8 8 0.0300 686.1117999999999 180.1763 0.644
2708 8 8 0.0300 687.0607999999999 179.41330000000002 -0.766
2709 8 8 0.0300 688.1777999999999 180.88930000000002 1.578
2710 8 8 0.0300 688.1617999999999 181.88330000000002 0.044
2711 8 7 0.1400 691.3217999999999 180.1613 0.0
2712 8 6 -0.4000 693.6658 180.1613 0.0
2713 8 7 0.1400 692.5477999999999 179.69930000000002 0.685
2714 8 8 0.0300 690.4558 179.5173 0.01500000000000004
2715 8 8 0.0300 691.4047999999999 180.9273 -0.748
2716 8 8 0.0300 692.5218 178.5833 0.7280000000000001
2717 8 8 0.0300 692.5057999999999 180.1173 1.722
2718 8 7 0.1400 695.6658 180.1613 0.0
2719 8 6 -0.4000 698.0098 180.1613 0.0
2720 8 7 0.1400 696.8918 180.8463 0.462
2721 8 8 0.0300 694.7998 180.1763 0.644
2722 8 8 0.0300 695.7488 179.41330000000002 -0.766
2723 8 8 0.0300 696.8658 180.88930000000002 1.578
2724 8 8 0.0300 696.8498 181.88330000000002 0.044
2725 8 7 0.1400 700.0097999999999 180.1613 0.0
2726 8 6 -0.4000 702.3538 180.1613 0.0
2727 8 7 0.1400 701.2357999999999 179.69930000000002 0.685
2728 8 8 0.0300 699.1437999999999 179.5173 0.01500000000000004
2729 8 8 0.0300 700.0927999999999 180.9273 -0.748
2730 8 8 0.0300 701.2098 178.5833 0.7280000000000001
2731 8 8 0.0300 701.1937999999999 180.1173 1.722
2732 8 7 0.1400 704.3538 180.1613 0.0
2733 8 6 -0.4000 706.6978 180.1613 0.0
2734 8 7 0.1400 705.5798 180.8463 -0.462
2735 8 8 0.0300 703.4878 180.1763 -0.644
2736 8 8 0.0300 704.4368 179.41330000000002 0.766
2737 8 8 0.0300 705.5538 180.88930000000002 -1.578
2738 8 8 0.0300 705.5378 181.88330000000002 -0.044
2739 8 7 0.1400 708.6977999999999 180.1613 0.0
2740 8 6 -0.4000 711.0418 180.1613 0.0
2741 8 7 0.1400 709.9237999999999 179.69930000000002 0.685
2742 8 8 0.0300 707.8317999999999 179.5173 0.01500000000000004
2743 8 8 0.0300 708.7807999999999 180.9273 -0.748
2744 8 8 0.0300 709.8978 178.5833 0.7280000000000001
2745 8 8 0.0300 709.8817999999999 180.1173 1.722
2746 8 7 0.1400 713.0418 180.1613 0.0
2747 8 6 -0.4000 715.3858 180.1613 0.0
2748 8 7 0.1400 714.2678 180.8463 -0.462
2749 8 8 0.0300 712.1758 180.1763 -0.644
2750 8 8 0.0300 713.1247999999999 179.41330000000002 0.766
2751 8 8 0.0300 714.2418 180.88930000000002 -1.578
2752 8 8 0.0300 714.2257999999999 181.88330000000002 -0.044
2753 8 7 0.1400 717.3858 180.1613 0.0
2754 8 6 -0.4000 719.7298000000001 180.1613 0.0
2755 8 7 0.1400 718.6118 179.69930000000002 0.685
2756 8 8 0.0300 716.5198 179.5173 0.01500000000000004
2757 8 8 0.0300 717.4688 180.9273 -0.748
2758 8 8 0.0300 718.5858000000001 178.5833 0.7280000000000001
2759 8 8 0.0300 718.5698 180.1173 1.722
2760 8 7 0.1400 721.7298 180.1613 0.0
2761 8 6 -0.4000 724.0738 180.1613 0.0
2762 8 7 0.1400 722.9558 180.8463 0.462
2763 8 8 0.0300 720.8638 180.1763 0.644
2764 8 8 0.0300 721.8127999999999 179.41330000000002 -0.766
2765 8 8 0.0300 722.9298 180.88930000000002 1.578
2766 8 8 0.0300 722.9137999999999 181.88330000000002 0.044
2767 8 7 0.1400 726.0737999999999 180.1613 0.0
2768 8 6 -0.4000 728.4177999999999 180.1613 0.0
2769 8 7 0.1400 727.2997999999999 180.6233 0.685
2770 8 8 0.0300 725.2077999999999 180.80530000000002 0.01499999999999996
2771 8 8 0.0300 726.1567999999999 179.39530000000002 -0.748
2772 8 8 0.0300 727.2737999999999 181.73930000000001 0.7279999999999999
2773 8 8 0.0300 727.2577999999999 180.20530000000002 1.722
2774 8 7 0.1400 730.4177999999999 180.1613 0.0
2775 8 6 -0.4000 732.7618 180.1613 0.0
2776 8 7 0.1400 731.6437999999999 180.8463 -0.462
2777 8 8 0.0300 729.5518 180.1763 -0.644
2778 8 8 0.0300 730.5007999999999 179.41330000000002 0.766
2779 8 8 0.0300 731.6178 180.88930000000002 -1.578
2780 8 8 0.0300 731.6017999999999 181.88330000000002 -0.044
2781 8 7 0.1400 734.7618 180.1613 0.0
2782 8 6 -0.4000 737.1058 180.1613 0.0
2783 8 7 0.1400 735.9878 180.6233 0.685
2784 8 8 0.0300 733.8958 180.80530000000002 0.01499999999999996
2785 8 8 0.0300 734.8448 179.39530000000002 -0.748
2786 8 8 0.0300 735.9618 181.73930000000001 0.7279999999999999
2787 8 8 0.0300 735.9458 180.20530000000002 1.722
2788 8 7 0.1400 739.1057999999999 180.1613 0.0
2789 8 6 -0.4000 741.4498 180.1613 0.0
2790 8 7 0.1400 740.3317999999999 180.8463 0.462
2791 8 8 0.0300 738.2398 180.1763 0.644
2792 8 8 0.0300 739.1887999999999 179.41330000000002 -0.766
2793 8 8 0.0300 740.3058 180.88930000000002 1.578
2794 8 8 0.0300 740.2897999999999 181.88330000000002 0.044
2795 8 7 0.1400 743.4498 180.1613 0.0
2796 8 6 -0.4000 745.7938 180.1613 0.0
2797 8 7 0.1400 744.6758 180.6233 0.685
2798 8 8 0.0300 742.5838 180.80530000000002 0.01499999999999996
2799 8 8 0.0300 743.5328 179.39530000000002 -0.748
2800 8 8 0.0300 744.6498 181.73930000000001 0.7279999999999999
2801 8 8 0.0300 744.6338 180.20530000000002 1.722
2802 8 7 0.1400 747.7937999999999 180.1613 0.0
2803 8 6 -0.4000 750.1378 180.1613 0.0
2804 8 7 0.1400 749.0197999999999 180.8463 0.462
2805 8 8 0.0300 746.9277999999999 180.1763 0.644
2806 8 8 0.0300 747.8767999999999 179.41330000000002 -0.766
2807 8 8 0.0300 748.9938 180.88930000000002 1.578
2808 8 8 0.0300 748.9777999999999 181.88330000000002 0.044
2809 8 7 0.1400 751.8798 180.1613 0.0
2810 8 5 0.1450 752.9878 179.64530000000002 0.807
2811 8 3 -0.6830 754.0808 180.5103 0.654
2812 8 2 0.0600 750.8658 179.91830000000002 0.263
2813 8 2 0.0600 752.0788 180.8163 -0.83
2814 8 2 0.0600 752.6668 179.5813 1.875
2815 8 2 0.0600 753.2687999999999 178.6303 0.4260000000000001
2816 8 4 0.4180 754.7398 180.1613 0.0
2817 9 1 -0.1800 -1.157 360.3225 0.0
2818 9 6 -0.4000 1.157 360.3225 0.0
2819 9 7 0.1400 0.069 361.04949999999997 -0.51
2820 9 2 0.0600 -2.1 360.7985 -0.295
2821 9 2 0.0600 -1.032 360.2405 1.108
2822 9 2 0.0600 -1.088 359.28749999999997 -0.421
2823 9 8 0.0300 0.111 361.10949999999997 -1.608
2824 9 8 0.0300 0.149 362.0825 -0.097
2825 9 7 0.1400 3.1420000000000003 360.3225 0.0
2826 9 6 -0.4000 5.486 360.3225 0.0
2827 9 7 0.1400 4.368 360.7845 0.685
2828 9 8 0.0300 2.2760000000000002 360.9665 0.01499999999999996
2829 9 8 0.0300 3.225 359.55649999999997 -0.748
2830 9 8 0.0300 4.342 361.90049999999997 0.7279999999999999
2831 9 8 0.0300 4.326 360.3665 1.722
2832 9 7 0.1400 7.486 360.3225 0.0
2833 9 6 -0.4000 9.83 360.3225 0.0
2834 9 7 0.1400 8.712 361.0075 -0.462
2835 9 8 0.0300 6.619999999999999 360.3375 -0.644
2836 9 8 0.0300 7.568999999999999 359.5745 0.766
2837 9 8 0.0300 8.686 361.0505 -1.578
2838 9 8 0.0300 8.67 362.04449999999997 -0.044
2839 9 7 0.1400 11.83 360.3225 0.0
2840 9 6 -0.4000 14.174000000000001 360.3225 0.0
2841 9 7 0.1400 13.056000000000001 360.7845 0.685
2842 9 8 0.0300 10.964 360.9665 0.01499999999999996
2843 9 8 0.0300 11.913 359.55649999999997 -0.748
2844 9 8 0.0300 13.030000000000001 361.90049999999997 0.7279999999999999
2845 9 8 0.0300 13.014000000000001 360.3665 1.722
2846 9 7 0.1400 16.174 360.3225 0.0
2847 9 6 -0.4000 18.518 360.3225 0.0
2848 9 7 0.1400 17.4 361.0075 0.462
2849 9 8 0.0300 15.308 360.3375 0.644
2850 9 8 0.0300 16.257 359.5745 -0.766
2851 9 8 0.0300 17.374 361.0505 1.578
2852 9 8 0.0300 17.358 362.04449999999997 0.044
2853 9 7 0.1400 20.518 360.3225 0.0
2854 9 6 -0.4000 22.862000000000002 360.3225 0.0
2855 9 7 0.1400 21.744 360.7845 0.685
2856 9 8 0.0300 19.652 360.9665 0.01499999999999996
2857 9 8 0.0300 20.601000000000003 359.55649999999997 -0.748
2858 9 8 0.0300 21.718 361.90049999999997 0.7279999999999999
2859 9 8 0.0300 21.702 360.3665 1.722
2860 9 7 0.1400 24.862 360.3225 0.0
2861 9 6 -0.4000 27.206 360.3225 0.0
2862 9 7 0.1400 26.087999999999997 361.0075 0.462
2863 9 8 0.0300 23.996 360.3375 0.644
2864 9 8 0.0300 24.945 359.5745 -0.766
2865 9 8 0.0300 26.061999999999998 361.0505 1.578
2866 9 8 0.0300 26.046 362.04449999999997 0.044
2867 9 7 0.1400 29.206 360.3225 0.0
2868 9 6 -0.4000 31.55 360.3225 0.0
2869 9 7 0.1400 30.432 360.7845 0.685
2870 9 8 0.0300 28.34 360.9665 0.01499999999999996
2871 9 8 0.0300 29.289 359.55649999999997 -0.748
2872 9 8 0.0300 30.406 361.90049999999997 0.7279999999999999
2873 9 8 0.0300 30.39 360.3665 1.722
2874 9 7 0.1400 33.550000000000004 360.3225 0.0
2875 9 6 -0.4000 35.894 360.3225 0.0
2876 9 7 0.1400 34.776 361.0075 0.462
2877 9 8 0.0300 32.684000000000005 360.3375 0.644
2878 9 8 0.0300 33.633 359.5745 -0.766
2879 9 8 0.0300 34.75 361.0505 1.578
2880 9 8 0.0300 34.734 362.04449999999997 0.044
2881 9 7 0.1400 37.894000000000005 360.3225 0.0
2882 9 6 -0.4000 40.238 360.3225 0.0
2883 9 7 0.1400 39.120000000000005 359.8605 0.685
2884 9 8 0.0300 37.028000000000006 359.6785 0.01500000000000004
2885 9 8 0.0300 37.977000000000004 361.0885 -0.748
2886 9 8 0.0300 39.094 358.7445 0.7280000000000001
2887 9 8 0.0300 39.078 360.2785 1.722
2888 9 7 0.1400 42.238 360.3225 0.0
2889 9 6 -0.4000 44.581999999999994 360.3225 0.0
2890 9 7 0.1400 43.464 361.0075 0.462
2891 9 8 0.0300 41.372 360.3375 0.644
2892 9 8 0.0300 42.321 359.5745 -0.766
2893 9 8 0.0300 43.437999999999995 361.0505 1.578
2894 9 8 0.0300 43.422 362.04449999999997 0.044
2895 9 7 0.1400 46.582 360.3225 0.0
2896 9 6 -0.4000 48.925999999999995 360.3225 0.0
2897 9 7 0.1400 47.808 359.8605 0.685
2898 9 8 0.0300 45.716 359.6785 0.01500000000000004
2899 9 8 0.0300 46.665 361.0885 -0.748
2900 9 8 0.0300 47.782 358.7445 0.7280000000000001
2901 9 8 0.0300 47.766 360.2785 1.722
2902 9 7 0.1400 50.926 360.3225 0.0
2903 9 6 -0.4000 53.269999999999996 360.3225 0.0
2904 9 7 0.1400 52.152 361.0075 0.462
2905 9 8 0.0300 50.06 360.3375 0.644
2906 9 8 0.0300 51.009 359.5745 -0.766
2907 9 8 0.0300 52.126 361.0505 1.578
2908 9 8 0.0300 52.11 362.04449999999997 0.044
2909 9 7 0.1400 55.27 360.3225 0.0
2910 9 6 -0.4000 57.614 360.3225 0.0
2911 9 7 0.1400 56.496 359.8605 0.685
2912 9 8 0.0300 54.404 359.6785 0.01500000000000004
2913 9 8 0.0300 55.353 361.0885 -0.748
2914 9 8 0.0300 56.47 358.7445 0.7280000000000001
2915 9 8 0.0300 56.454 360.2785 1.722
2916 9 7 0.1400 59.614000000000004 360.3225 0.0
2917 9 6 -0.4000 61.958 360.3225 0.0
2918 9 7 0.1400 60.84 361.0075 0.462
2919 9 8 0.0300 58.748000000000005 360.3375 0.644
2920 9 8 0.0300 59.697 359.5745 -0.766
2921 9 8 0.0300 60.814 361.0505 1.578
2922 9 8 0.0300 60.798 362.04449999999997 0.044
2923 9 7 0.1400 63.958 360.3225 0.0
2924 9 6 -0.4000 66.30199999999999 360.3225 0.0
2925 9 7 0.1400 65.184 359.8605 0.685
2926 9 8 0.0300 63.092 359.6785 0.01500000000000004
2927 9 8 0.0300 64.041 361.0885 -0.748
2928 9 8 0.0300 65.158 358.7445 0.7280000000000001
2929 9 8 0.0300 65.142 360.2785 1.722
2930 9 7 0.1400 68.302 360.3225 0.0
2931 9 6 -0.4000 70.646 360.3225 0.0
2932 9 7 0.1400 69.528 361.0075 0.462
2933 9 8 0.0300 67.436 360.3375 0.644
2934 9 8 0.0300 68.385 359.5745 -0.766
2935 9 8 0.0300 69.50200000000001 361.0505 1.578
2936 9 8 0.0300 69.486 362.04449999999997 0.044
2937 9 7 0.1400 72.646 360.3225 0.0
2938 9 6 -0.4000 74.99 360.3225 0.0
2939 9 7 0.1400 73.872 360.7845 0.685
2940 9 8 0.0300 71.78 360.9665 0.01499999999999996
2941 9 8 0.0300 72.729 359.55649999999997 -0.748
2942 9 8 0.0300 73.846 361.90049999999997 0.7279999999999999
2943 9 8 0.0300 73.83 360.3665 1.722
2944 9 7 0.1400 76.99000000000001 360.3225 0.0
2945 9 6 -0.4000 79.334 360.3225 0.0
2946 9 7 0.1400 78.21600000000001 361.0075 0.462
2947 9 8 0.0300 76.12400000000001 360.3375 0.644
2948 9 8 0.0300 77.07300000000001 359.5745 -0.766
2949 9 8 0.0300 78.19000000000001 361.0505 1.578
2950 9 8 0.0300 78.174 362.04449999999997 0.044
2951 9 7 0.1400 81.334 360.3225 0.0
2952 9 6 -0.4000 83.678 360.3225 0.0
2953 9 7 0.1400 82.56 359.8605 0.685
2954 9 8 0.0300 80.468 359.6785 0.01500000000000004
2955 9 8 0.0300 81.417 361.0885 -0.748
2956 9 8 0.0300 82.534 358.7445 0.7280000000000001
2957 9 8 0.0300 82.518 360.2785 1.722
2958 9 7 0.1400 85.678 360.3225 0.0
2959 9 6 -0.4000 88.02199999999999 360.3225 0.0
2960 9 7 0.1400 86.904 361.0075 0.462
2961 9 8 0.0300 84.812 360.3375 0.644
2962 9 8 0.0300 85.761 359.5745 -0.766
2963 9 8 0.0300 86.878 361.0505 1.578
2964 9 8 0.0300 86.862 362.04449999999997 0.044
2965 9 7 0.1400 90.022 360.3225 0.0
2966 9 6 -0.4000 92.366 360.3225 0.0
2967 9 7 0.1400 91.248 359.8605 0.685
2968 9 8 0.0300 89.156 359.6785 0.01500000000000004
2969 9 8 0.0300 90.105 361.0885 -0.748
2970 9 8 0.0300 91.22200000000001 358.7445 0.7280000000000001
2971 9 8 0.0300 91.206 360.2785 1.722
2972 9 7 0.1400 94.366 360.3225 0.0
2973 9 6 -0.4000 96.71 360.3225 0.0
2974 9 7 0.1400 95.592 361.0075 -0.462
2975 9 8 0.0300 93.5 360.3375 -0.644
2976 9 8 0.0300 94.449 359.5745 0.766
2977 9 8 0.0300 95.566 361.0505 -1.578
2978 9 8 0.0300 95.55 362.04449999999997 -0.044
2979 9 7 0.1400 98.71000000000001 360.3225 0.0
2980 9 6 -0.4000 101.054 360.3225 0.0
2981 9 7 0.1400 99.936 360.7845 0.685
2982 9 8 0.0300 97.84400000000001 360.9665 0.01499999999999996
2983 9 8 0.0300 98.793 359.55649999999997 -0.748
2984 9 8 0.0300 99.91000000000001 361.90049999999997 0.7279999999999999
2985 9 8 0.0300 99.894 360.3665 1.722
2986 9 7 0.1400 103.054 360.3225 0.0
2987 9 6 -0.4000 105.398 360.3225 0.0
2988 9 7 0.1400 104.28 361.0075 0.462
2989 9 8 0.0300 102.188 360.3375 0.644
2990 9 8 0.0300 103.137 359.5745 -0.766
2991 9 8 0.0300 104.254 361.0505 1.578
2992 9 8 0.0300 104.238 362.04449999999997 0.044
2993 9 7 0.1400 107.398 360.3225 0.0
2994 9 6 -0.4000 109.74199999999999 360.3225 0.0
2995 9 7 0.1400 108.624 360.7845 0.685
2996 9 8 0.0300 106.532 360.9665 0.01499999999999996
2997 9 8 0.0300 107.481 359.55649999999997 -0.748
2998 9 8 0.0300 108.598 361.90049999999997 0.7279999999999999
2999 9 8 0.0300 108.582 360.3665 1.722
3000 9 7 0.1400 111.742 360.3225 0.0
3001 9 6 -0.4000 114.086 360.3225 0.0
3002 9 7 0.1400 112.968 361.0075 -0.462
3003 9 8 0.0300 110.876 360.3375 -0.644
3004 9 8 0.0300 111.825 359.5745 0.766
3005 9 8 0.0300 112.94200000000001 361.0505 -1.578
3006 9 8 0.0300 112.926 362.04449999999997 -0.044
3007 9 7 0.1400 116.086 360.3225 0.0
3008 9 6 -0.4000 118.42999999999999 360.3225 0.0
3009 9 7 0.1400 117.312 359.8605 0.685
3010 9 8 0.0300 115.22 359.6785 0.01500000000000004
3011 9 8 0.0300 116.169 361.0885 -0.748
3012 9 8 0.0300 117.286 358.7445 0.7280000000000001
3013 9 8 0.0300 117.27 360.2785 1.722
3014 9 7 0.1400 120.43 360.3225 0.0
3015 9 6 -0.4000 122.774 360.3225 0.0
3016 9 7 0.1400 121.656 361.0075 0.462
3017 9 8 0.0300 119.56400000000001 360.3375 0.644
3018 9 8 0.0300 120.513 359.5745 -0.766
3019 9 8 0.0300 121.63000000000001 361.0505 1.578
3020 9 8 0.0300 121.614 362.04449999999997 0.044
3021 9 7 0.1400 124.774 360.3225 0.0
3022 9 6 -0.4000 127.118 360.3225 0.0
3023 9 7 0.1400 126.0 359.8605 0.685
3024 9 8 0.0300 123.908 359.6785 0.01500000000000004
3025 9 8 0.0300 124.857 361.0885 -0.748
3026 9 8 0.0300 125.974 358.7445 0.7280000000000001
3027 9 8 0.0300 125.958 360.2785 1.722
3028 9 7 0.1400 129.118 360.3225 0.0
3029 9 6 -0.4000 131.462 360.3225 0.0
3030 9 7 0.1400 130.344 361.0075 0.462
3031 9 8 0.0300 128.25199999999998 360.3375 0.644
3032 9 8 0.0300 129.201 359.5745 -0.766
3033 9 8 0.0300 130.31799999999998 361.0505 1.578
3034 9 8 0.0300 130.302 362.04449999999997 0.044
3035 9 7 0.1400 133.462 360.3225 0.0
3036 9 6 -0.4000 135.80599999999998 360.3225 0.0
3037 9 7 0.1400 134.688 360.7845 0.685
3038 9 8 0.0300 132.59599999999998 360.9665 0.01499999999999996
3039 9 8 0.0300 133.545 359.55649999999997 -0.748
3040 9 8 0.0300 134.66199999999998 361.90049999999997 0.7279999999999999
3041 9 8 0.0300 134.646 360.3665 1.722
3042 9 7 0.1400 137.806 360.3225 0.0
3043 9 6 -0.4000 140.15 360.3225 0.0
3044 9 7 0.1400 139.032 361.0075 -0.462
3045 9 8 0.0300 136.94 360.3375 -0.644
3046 9 8 0.0300 137.889 359.5745 0.766
3047 9 8 0.0300 139.006 361.0505 -1.578
3048 9 8 0.0300 138.99 362.04449999999997 -0.044
3049 9 7 0.1400 142.15 360.3225 0.0
3050 9 6 -0.4000 144.494 360.3225 0.0
3051 9 7 0.1400 143.376 359.8605 0.685
3052 9 8 0.0300 141.284 359.6785 0.01500000000000004
3053 9 8 0.0300 142.233 361.0885 -0.748
3054 9 8 0.0300 143.35 358.7445 0.7280000000000001
3055 9 8 0.0300 143.334 360.2785 1.722
3056 9 7 0.1400 146.494 360.3225 0.0
3057 9 6 -0.4000 148.838 360.3225 0.0
3058 9 7 0.1400 147.72 361.0075 0.462
3059 9 8 0.0300 145.628 360.3375 0.644
3060 9 8 0.0300 146.577 359.5745 -0.766
3061 9 8 0.0300 147.694 361.0505 1.578
3062 9 8 0.0300 147.678 362.04449999999997 0.044
3063 9 7 0.1400 150.838 360.3225 0.0
3064 9 6 -0.4000 153.182 360.3225 0.0
3065 9 7 0.1400 152.064 359.8605 0.685
3066 9 8 0.0300 149.97199999999998 359.6785 0.01500000000000004
3067 9 8 0.0300 150.921 361.0885 -0.748
3068 9 8 0.0300 152.03799999999998 358.7445 0.7280000000000001
3069 9 8 0.0300 152.022 360.2785 1.722
3070 9 7 0.1400 155.18200000000002 360.3225 0.0
3071 9 6 -0.4000 157.526 360.3225 0.0
3072 9 7 0.1400 156.40800000000002 361.0075 0.462
3073 9 8 0.0300 154.316 360.3375 0.644
3074 9 8 0.0300 155.26500000000001 359.5745 -0.766
3075 9 8 0.0300 156.382 361.0505 1.578
3076 9 8 0.0300 156.366 362.04449999999997 0.044
3077 9 7 0.1400 159.526 360.3225 0.0
3078 9 6 -0.4000 161.87 360.3225 0.0
3079 9 7 0.1400 160.752 360.7845 0.685
3080 9 8 0.0300 158.66 360.9665 0.01499999999999996
3081 9 8 0.0300 159.609 359.55649999999997 -0.748
3082 9 8 0.0300 160.726 361.90049999999997 0.7279999999999999
3083 9 8 0.0300 160.71 360.3665 1.722
3084 9 7 0.1400 163.87 360.3225 0.0
3085 9 6 -0.4000 166.214 360.3225 0.0
3086 9 7 0.1400 165.096 361.0075 -0.462
3087 9 8 0.0300 163.004 360.3375 -0.644
3088 9 8 0.0300 163.953 359.5745 0.766
3089 9 8 0.0300 165.07 361.0505 -1.578
3090 9 8 0.0300 165.054 362.04449999999997 -0.044
3091 9 7 0.1400 168.214 360.3225 0.0
3092 9 6 -0.4000 170.558 360.3225 0.0
3093 9 7 0.1400 169.44 359.8605 0.685
3094 9 8 0.0300 167.34799999999998 359.6785 0.01500000000000004
3095 9 8 0.0300 168.297 361.0885 -0.748
3096 9 8 0.0300 169.414 358.7445 0.7280000000000001
3097 9 8 0.0300 169.398 360.2785 1.722
3098 9 7 0.1400 172.558 360.3225 0.0
3099 9 6 -0.4000 174.902 360.3225 0.0
3100 9 7 0.1400 173.784 361.0075 0.462
3101 9 8 0.0300 171.69199999999998 360.3375 0.644
3102 9 8 0.0300 172.641 359.5745 -0.766
3103 9 8 0.0300 173.75799999999998 361.0505 1.578
3104 9 8 0.0300 173.742 362.04449999999997 0.044
3105 9 7 0.1400 176.90200000000002 360.3225 0.0
3106 9 6 -0.4000 179.246 360.3225 0.0
3107 9 7 0.1400 178.12800000000001 360.7845 0.685
3108 9 8 0.0300 176.036 360.9665 0.01499999999999996
3109 9 8 0.0300 176.985 359.55649999999997 -0.748
3110 9 8 0.0300 178.102 361.90049999999997 0.7279999999999999
3111 9 8 0.0300 178.086 360.3665 1.722
3112 9 7 0.1400 181.246 360.3225 0.0
3113 9 6 -0.4000 183.59 360.3225 0.0
3114 9 7 0.1400 182.472 361.0075 0.462
3115 9 8 0.0300 180.38 360.3375 0.644
3116 9 8 0.0300 181.329 359.5745 -0.766
3117 9 8 0.0300 182.446 361.0505 1.578
3118 9 8 0.0300 182.43 362.04449999999997 0.044
3119 9 7 0.1400 185.59 360.3225 0.0
3120 9 6 -0.4000 187.934 360.3225 0.0
3121 9 7 0.1400 186.816 360.7845 0.685
3122 9 8 0.0300 184.724 360.9665 0.01499999999999996
3123 9 8 0.0300 185.673 359.55649999999997 -0.748
3124 9 8 0.0300 186.79 361.90049999999997 0.7279999999999999
3125 9 8 0.0300 186.774 360.3665 1.722
3126 9 7 0.1400 189.934 360.3225 0.0
3127 9 6 -0.4000 192.278 360.3225 0.0
3128 9 7 0.1400 191.16 361.0075 0.462
3129 9 8 0.0300 189.06799999999998 360.3375 0.644
3130 9 8 0.0300 190.017 359.5745 -0.766
3131 9 8 0.0300 191.134 361.0505 1.578
3132 9 8 0.0300 191.118 362.04449999999997 0.044
3133 9 7 0.1400 194.278 360.3225 0.0
3134 9 6 -0.4000 196.62199999999999 360.3225 0.0
3135 9 7 0.1400 195.504 359.8605 0.685
3136 9 8 0.0300 193.41199999999998 359.6785 0.01500000000000004
3137 9 8 0.0300 194.361 361.0885 -0.748
3138 9 8 0.0300 195.47799999999998 358.7445 0.7280000000000001
3139 9 8 0.0300 195.462 360.2785 1.722
3140 9 7 0.1400 198.622 360.3225 0.0
3141 9 6 -0.4000 200.966 360.3225 0.0
3142 9 7 0.1400 199.848 361.0075 0.462
3143 9 8 0.0300 197.756 360.3375 0.644
3144 9 8 0.0300 198.705 359.5745 -0.766
3145 9 8 0.0300 199.822 361.0505 1.578
3146 9 8 0.0300 199.806 362.04449999999997 0.044
3147 9 7 0.1400 202.966 360.3225 0.0
3148 9 6 -0.4000 205.31 360.3225 0.0
3149 9 7 0.1400 204.192 360.7845 0.685
3150 9 8 0.0300 202.1 360.9665 0.01499999999999996
3151 9 8 0.0300 203.049 359.55649999999997 -0.748
3152 9 8 0.0300 204.166 361.90049999999997 0.7279999999999999
3153 9 8 0.0300 204.15 360.3665 1.722
3154 9 7 0.1400 207.31 360.3225 0.0
3155 9 6 -0.4000 209.654 360.3225 0.0
3156 9 7 0.1400 208.536 361.0075 -0.462
3157 9 8 0.0300 206.444 360.3375 -0.644
3158 9 8 0.0300 207.393 359.5745 0.766
3159 9 8 0.0300 208.51 361.0505 -1.578
3160 9 8 0.0300 208.494 362.04449999999997 -0.044
3161 9 7 0.1400 211.396 360.3225 0.0
3162 9 5 0.1450 212.504 360.8385 0.807
3163 9 3 -0.6830 213.59699999999998 359.9735 0.654
3164 9 2 0.0600 210.382 360.5655 0.263
3165 9 2 0.0600 211.595 359.6675 -0.83
3166 9 2 0.0600 212.183 360.9025 1.875
3167 9 2 0.0600 212.785 361.8535 0.4259999999999999
3168 9 4 0.4180 214.256 360.3225 0.0
3169 10 1 -0.1800 179.0043 360.3225 0.0
3170 10 6 -0.4000 181.31830000000002 360.3225 0.0
3171 10 7 0.1400 180.2303 361.04949999999997 0.51
3172 10 2 0.0600 178.06130000000002 360.7985 0.295
3173 10 2 0.0600 179.1293 360.2405 -1.108
3174 10 2 0.0600 179.07330000000002 359.28749999999997 0.421
3175 10 8 0.0300 180.2723 361.10949999999997 1.608
3176 10 8 0.0300 180.3103 362.0825 0.097
3177 10 7 0.1400 183.3033 360.3225 0.0
3178 10 6 -0.4000 185.6473 360.3225 0.0
3179 10 7 0.1400 184.5293 359.8605 0.685
3180 10 8 0.0300 182.4373 359.6785 0.01500000000000004
3181 10 8 0.0300 183.3863 361.0885 -0.748
3182 10 8 0.0300 184.5033 358.7445 0.7280000000000001
3183 10 8 0.0300 184.4873 360.2785 1.722
3184 10 7 0.1400 187.6473 360.3225 0.0
3185 10 6 -0.4000 189.9913 360.3225 0.0
3186 10 7 0.1400 188.8733 361.0075 -0.462
3187 10 8 0.0300 186.7813 360.3375 -0.644
3188 10 8 0.0300 187.7303 359.5745 0.766
3189 10 8 0.0300 188.8473 361.0505 -1.578
3190 10 8 0.0300 188.8313 362.04449999999997 -0.044
3191 10 7 0.1400 191.99130000000002 360.3225 0.0
3192 10 6 -0.4000 194.33530000000002 360.3225 0.0
3193 10 7 0.1400 193.21730000000002 360.7845 0.685
3194 10 8 0.0300 191.1253 360.9665 0.01499999999999996
3195 10 8 0.0300 192.07430000000002 359.55649999999997 -0.748
3196 10 8 0.0300 193.1913 361.90049999999997 0.7279999999999999
3197 10 8 0.0300 193.17530000000002 360.3665 1.722
3198 10 7 0.1400 196.33530000000002 360.3225 0.0
3199 10 6 -0.4000 198.6793 360.3225 0.0
3200 10 7 0.1400 197.56130000000002 361.0075 0.462
3201 10 8 0.0300 195.4693 360.3375 0.644
3202 10 8 0.0300 196.41830000000002 359.5745 -0.766
3203 10 8 0.0300 197.5353 361.0505 1.578
3204 10 8 0.0300 197.51930000000002 362.04449999999997 0.044
3205 10 7 0.1400 200.6793 360.3225 0.0
3206 10 6 -0.4000 203.0233 360.3225 0.0
3207 10 7 0.1400 201.9053 360.7845 0.685
3208 10 8 0.0300 199.8133 360.9665 0.01499999999999996
3209 10 8 0.0300 200.7623 359.55649999999997 -0.748
3210 10 8 0.0300 201.8793 361.90049999999997 0.7279999999999999
3211 10 8 0.0300 201.8633 360.3665 1.722
3212 10 7 0.1400 205.0233 360.3225 0.0
3213 10 6 -0.4000 207.3673 360.3225 0.0
3214 10 7 0.1400 206.2493 361.0075 0.462
3215 10 8 0.0300 204.1573 360.3375 0.644
3216 10 8 0.0300 205.1063 359.5745 -0.766
3217 10 8 0.0300 206.2233 361.0505 1.578
3218 10 8 0.0300 206.2073 362.04449999999997 0.044
3219 10 7 0.1400 209.36730000000003 360.3225 0.0
3220 10 6 -0.4000 211.71130000000002 360.3225 0.0
3221 10 7 0.1400 210.59330000000003 360.7845 0.685
3222 10 8 0.0300 208.50130000000001 360.9665 0.01499999999999996
3223 10 8 0.0300 209.45030000000003 359.55649999999997 -0.748
3224 10 8 0.0300 210.56730000000002 361.90049999999997 0.7279999999999999
3225 10 8 0.0300 210.55130000000003 360.3665 1.722
3226 10 7 0.1400 213.71130000000002 360.3225 0.0
3227 10 6 -0.4000 216.05530000000002 360.3225 0.0
3228 10 7 0.1400 214.93730000000002 361.0075 -0.462
3229 10 8 0.0300 212.8453 360.3375 -0.644
3230 10 8 0.0300 213.79430000000002 359.5745 0.766
3231 10 8 0.0300 214.9113 361.0505 -1.578
3232 10 8 0.0300 214.89530000000002 362.04449999999997 -0.044
3233 10 7 0.1400 218.05530000000002 360.3225 0.0
3234 10 6 -0.4000 220.3993 360.3225 0.0
3235 10 7 0.1400 219.28130000000002 359.8605 0.685
3236 10 8 0.0300 217.1893 359.6785 0.01500000000000004
3237 10 8 0.0300 218.13830000000002 361.0885 -0.748
3238 10 8 0.0300 219.2553 358.7445 0.7280000000000001
3239 10 8 0.0300 219.23930000000001 360.2785 1.722
3240 10 7 0.1400 222.3993 360.3225 0.0
3241 10 6 -0.4000 224.7433 360.3225 0.0
3242 10 7 0.1400 223.6253 361.0075 -0.462
3243 10 8 0.0300 221.5333 360.3375 -0.644
3244 10 8 0.0300 222.4823 359.5745 0.766
3245 10 8 0.0300 223.5993 361.0505 -1.578
3246 10 8 0.0300 223.5833 362.04449999999997 -0.044
3247 10 7 0.1400 226.7433 360.3225 0.0
3248 10 6 -0.4000 229.0873 360.3225 0.0
3249 10 7 0.1400 227.9693 360.7845 0.685
3250 10 8 0.0300 225.8773 360.9665 0.01499999999999996
3251 10 8 0.0300 226.8263 359.55649999999997 -0.748
3252 10 8 0.0300 227.9433 361.90049999999997 0.7279999999999999
3253 10 8 0.0300 227.9273 360.3665 1.722
3254 10 7 0.1400 231.0873 360.3225 0.0
3255 10 6 -0.4000 233.4313 360.3225 0.0
3256 10 7 0.1400 232.3133 361.0075 0.462
3257 10 8 0.0300 230.22129999999999 360.3375 0.644
3258 10 8 0.0300 231.1703 359.5745 -0.766
3259 10 8 0.0300 232.2873 361.0505 1.578
3260 10 8 0.0300 232.2713 362.04449999999997 0.044
3261 10 7 0.1400 235.43130000000002 360.3225 0.0
3262 10 6 -0.4000 237.77530000000002 360.3225 0.0
3263 10 7 0.1400 236.65730000000002 359.8605 0.685
3264 10 8 0.0300 234.5653 359.6785 0.01500000000000004
3265 10 8 0.0300 235.51430000000002 361.0885 -0.748
3266 10 8 0.0300 236.6313 358.7445 0.7280000000000001
3267 10 8 0.0300 236.61530000000002 360.2785 1.722
3268 10 7 0.1400 239.77530000000002 360.3225 0.0
3269 10 6 -0.4000 242.1193 360.3225 0.0
3270 10 7 0.1400 241.00130000000001 361.0075 0.462
3271 10 8 0.0300 238.9093 360.3375 0.644
3272 10 8 0.0300 239.8583 359.5745 -0.766
3273 10 8 0.0300 240.9753 361.0505 1.578
3274 10 8 0.0300 240.9593 362.04449999999997 0.044
3275 10 7 0.1400 244.1193 360.3225 0.0
3276 10 6 -0.4000 246.4633 360.3225 0.0
3277 10 7 0.1400 245.3453 360.7845 0.685
3278 10 8 0.0300 243.2533 360.9665 0.01499999999999996
3279 10 8 0.0300 244.2023 359.55649999999997 -0.748
3280 10 8 0.0300 245.3193 361.90049999999997 0.7279999999999999
3281 10 8 0.0300 245.3033 360.3665 1.722
3282 10 7 0.1400 248.46330000000003 360.3225 0.0
3283 10 6 -0.4000 250.80730000000003 360.3225 0.0
3284 10 7 0.1400 249.68930000000003 361.0075 0.462
3285 10 8 0.0300 247.59730000000002 360.3375 0.644
3286 10 8 0.0300 248.54630000000003 359.5745 -0.766
3287 10 8 0.0300 249.66330000000002 361.0505 1.578
3288 10 8 0.0300 249.64730000000003 362.04449999999997 0.044
3289 10 7 0.1400 252.80730000000003 360.3225 0.0
3290 10 6 -0.4000 255.15130000000002 360.3225 0.0
3291 10 7 0.1400 254.03330000000003 359.8605 0.685
3292 10 8 0.0300 251.9413 359.6785 0.01500000000000004
3293 10 8 0.0300 252.89030000000002 361.0885 -0.748
3294 10 8 0.0300 254.00730000000001 358.7445 0.7280000000000001
3295 10 8 0.0300 253.99130000000002 360.2785 1.722
3296 10 7 0.1400 257.1513 360.3225 0.0
3297 10 6 -0.4000 259.49530000000004 360.3225 0.0
3298 10 7 0.1400 258.3773 361.0075 0.462
3299 10 8 0.0300 256.2853 360.3375 0.644
3300 10 8 0.0300 257.2343 359.5745 -0.766
3301 10 8 0.0300 258.35130000000004 361.0505 1.578
3302 10 8 0.0300 258.3353 362.04449999999997 0.044
3303 10 7 0.1400 261.4953 360.3225 0.0
3304 10 6 -0.4000 263.83930000000004 360.3225 0.0
3305 10 7 0.1400 262.7213 359.8605 0.685
3306 10 8 0.0300 260.6293 359.6785 0.01500000000000004
3307 10 8 0.0300 261.5783 361.0885 -0.748
3308 10 8 0.0300 262.69530000000003 358.7445 0.7280000000000001
3309 10 8 0.0300 262.6793 360.2785 1.722
3310 10 7 0.1400 265.8393 360.3225 0.0
3311 10 6 -0.4000 268.18330000000003 360.3225 0.0
3312 10 7 0.1400 267.0653 361.0075 -0.462
3313 10 8 0.0300 264.9733 360.3375 -0.644
3314 10 8 0.0300 265.9223 359.5745 0.766
3315 10 8 0.0300 267.0393 361.0505 -1.578
3316 10 8 0.0300 267.0233 362.04449999999997 -0.044
3317 10 7 0.1400 270.1833 360.3225 0.0
3318 10 6 -0.4000 272.5273 360.3225 0.0
3319 10 7 0.1400 271.4093 360.7845 0.685
3320 10 8 0.0300 269.3173 360.9665 0.01499999999999996
3321 10 8 0.0300 270.2663 359.55649999999997 -0.748
3322 10 8 0.0300 271.3833 361.90049999999997 0.7279999999999999
3323 10 8 0.0300 271.3673 360.3665 1.722
3324 10 7 0.1400 274.52729999999997 360.3225 0.0
3325 10 6 -0.4000 276.8713 360.3225 0.0
3326 10 7 0.1400 275.75329999999997 361.0075 -0.462
3327 10 8 0.0300 273.6613 360.3375 -0.644
3328 10 8 0.0300 274.6103 359.5745 0.766
3329 10 8 0.0300 275.7273 361.0505 -1.578
3330 10 8 0.0300 275.7113 362.04449999999997 -0.044
3331 10 7 0.1400 278.8713 360.3225 0.0
3332 10 6 -0.4000 281.21530000000007 360.3225 0.0
3333 10 7 0.1400 280.0973 360.7845 0.685
3334 10 8 0.0300 278.00530000000003 360.9665 0.01499999999999996
3335 10 8 0.0300 278.95430000000005 359.55649999999997 -0.748
3336 10 8 0.0300 280.07130000000006 361.90049999999997 0.7279999999999999
3337 10 8 0.0300 280.05530000000005 360.3665 1.722
3338 10 7 0.1400 283.21529999999996 360.3225 0.0
3339 10 6 -0.4000 285.5593 360.3225 0.0
3340 10 7 0.1400 284.44129999999996 361.0075 0.462
3341 10 8 0.0300 282.34929999999997 360.3375 0.644
3342 10 8 0.0300 283.2983 359.5745 -0.766
3343 10 8 0.0300 284.4153 361.0505 1.578
3344 10 8 0.0300 284.3993 362.04449999999997 0.044
3345 10 7 0.1400 287.5593 360.3225 0.0
3346 10 6 -0.4000 289.90330000000006 360.3225 0.0
3347 10 7 0.1400 288.7853 360.7845 0.685
3348 10 8 0.0300 286.6933 360.9665 0.01499999999999996
3349 10 8 0.0300 287.64230000000003 359.55649999999997 -0.748
3350 10 8 0.0300 288.75930000000005 361.90049999999997 0.7279999999999999
3351 10 8 0.0300 288.74330000000003 360.3665 1.722
3352 10 7 0.1400 291.9033 360.3225 0.0
3353 10 6 -0.4000 294.24730000000005 360.3225 0.0
3354 10 7 0.1400 293.1293 361.0075 0.462
3355 10 8 0.0300 291.0373 360.3375 0.644
3356 10 8 0.0300 291.9863 359.5745 -0.766
3357 10 8 0.0300 293.10330000000005 361.0505 1.578
3358 10 8 0.0300 293.0873 362.04449999999997 0.044
3359 10 7 0.1400 296.2473 360.3225 0.0
3360 10 6 -0.4000 298.59130000000005 360.3225 0.0
3361 10 7 0.1400 297.4733 360.7845 0.685
3362 10 8 0.0300 295.3813 360.9665 0.01499999999999996
3363 10 8 0.0300 296.3303 359.55649999999997 -0.748
3364 10 8 0.0300 297.44730000000004 361.90049999999997 0.7279999999999999
3365 10 8 0.0300 297.4313 360.3665 1.722
3366 10 7 0.1400 300.5913 360.3225 0.0
3367 10 6 -0.4000 302.93530000000004 360.3225 0.0
3368 10 7 0.1400 301.8173 361.0075 -0.462
3369 10 8 0.0300 299.7253 360.3375 -0.644
3370 10 8 0.0300 300.6743 359.5745 0.766
3371 10 8 0.0300 301.79130000000004 361.0505 -1.578
3372 10 8 0.0300 301.7753 362.04449999999997 -0.044
3373 10 7 0.1400 304.9353 360.3225 0.0
3374 10 6 -0.4000 307.27930000000003 360.3225 0.0
3375 10 7 0.1400 306.1613 359.8605 0.685
3376 10 8 0.0300 304.0693 359.6785 0.01500000000000004
3377 10 8 0.0300 305.0183 361.0885 -0.748
3378 10 8 0.0300 306.13530000000003 358.7445 0.7280000000000001
3379 10 8 0.0300 306.1193 360.2785 1.722
3380 10 7 0.1400 309.2793 360.3225 0.0
3381 10 6 -0.4000 311.62330000000003 360.3225 0.0
3382 10 7 0.1400 310.5053 361.0075 0.462
3383 10 8 0.0300 308.4133 360.3375 0.644
3384 10 8 0.0300 309.3623 359.5745 -0.766
3385 10 8 0.0300 310.4793 361.0505 1.578
3386 10 8 0.0300 310.4633 362.04449999999997 0.044
3387 10 7 0.1400 313.6233 360.3225 0.0
3388 10 6 -0.4000 315.9673 360.3225 0.0
3389 10 7 0.1400 314.84929999999997 360.7845 0.685
3390 10 8 0.0300 312.7573 360.9665 0.01499999999999996
3391 10 8 0.0300 313.7063 359.55649999999997 -0.748
3392 10 8 0.0300 314.8233 361.90049999999997 0.7279999999999999
3393 10 8 0.0300 314.8073 360.3665 1.722
3394 10 7 0.1400 317.9673 360.3225 0.0
3395 10 6 -0.4000 320.3113000000001 360.3225 0.0
3396 10 7 0.1400 319.1933 361.0075 -0.462
3397 10 8 0.0300 317.10130000000004 360.3375 -0.644
3398 10 8 0.0300 318.05030000000005 359.5745 0.766
3399 10 8 0.0300 319.16730000000007 361.0505 -1.578
3400 10 8 0.0300 319.15130000000005 362.04449999999997 -0.044
3401 10 7 0.1400 322.31129999999996 360.3225 0.0
3402 10 6 -0.4000 324.6553 360.3225 0.0
3403 10 7 0.1400 323.53729999999996 360.7845 0.685
3404 10 8 0.0300 321.4453 360.9665 0.01499999999999996
3405 10 8 0.0300 322.3943 359.55649999999997 -0.748
3406 10 8 0.0300 323.5113 361.90049999999997 0.7279999999999999
3407 10 8 0.0300 323.4953 360.3665 1.722
3408 10 7 0.1400 326.6553 360.3225 0.0
3409 10 6 -0.4000 328.99930000000006 360.3225 0.0
3410 10 7 0.1400 327.8813 361.0075 -0.462
3411 10 8 0.0300 325.7893 360.3375 -0.644
3412 10 8 0.0300 326.73830000000004 359.5745 0.766
3413 10 8 0.0300 327.85530000000006 361.0505 -1.578
3414 10 8 0.0300 327.83930000000004 362.04449999999997 -0.044
3415 10 7 0.1400 330.99929999999995 360.3225 0.0
3416 10 6 -0.4000 333.3433 360.3225 0.0
3417 10 7 0.1400 332.22529999999995 360.7845 0.685
3418 10 8 0.0300 330.13329999999996 360.9665 0.01499999999999996
3419 10 8 0.0300 331.0823 359.55649999999997 -0.748
3420 10 8 0.0300 332.1993 361.90049999999997 0.7279999999999999
3421 10 8 0.0300 332.1833 360.3665 1.722
3422 10 7 0.1400 335.3433 360.3225 0.0
3423 10 6 -0.4000 337.68730000000005 360.3225 0.0
3424 10 7 0.1400 336.5693 361.0075 -0.462
3425 10 8 0.0300 334.4773 360.3375 -0.644
3426 10 8 0.0300 335.4263 359.5745 0.766
3427 10 8 0.0300 336.54330000000004 361.0505 -1.578
3428 10 8 0.0300 336.5273 362.04449999999997 -0.044
3429 10 7 0.1400 339.6873 360.3225 0.0
3430 10 6 -0.4000 342.03130000000004 360.3225 0.0
3431 10 7 0.1400 340.9133 359.8605 0.685
3432 10 8 0.0300 338.8213 359.6785 0.01500000000000004
3433 10 8 0.0300 339.7703 361.0885 -0.748
3434 10 8 0.0300 340.88730000000004 358.7445 0.7280000000000001
3435 10 8 0.0300 340.8713 360.2785 1.722
3436 10 7 0.1400 344.0313 360.3225 0.0
3437 10 6 -0.4000 346.37530000000004 360.3225 0.0
3438 10 7 0.1400 345.2573 361.0075 -0.462
3439 10 8 0.0300 343.1653 360.3375 -0.644
3440 10 8 0.0300 344.1143 359.5745 0.766
3441 10 8 0.0300 345.23130000000003 361.0505 -1.578
3442 10 8 0.0300 345.2153 362.04449999999997 -0.044
3443 10 7 0.1400 348.3753 360.3225 0.0
3444 10 6 -0.4000 350.71930000000003 360.3225 0.0
3445 10 7 0.1400 349.6013 359.8605 0.685
3446 10 8 0.0300 347.5093 359.6785 0.01500000000000004
3447 10 8 0.0300 348.4583 361.0885 -0.748
3448 10 8 0.0300 349.5753 358.7445 0.7280000000000001
3449 10 8 0.0300 349.5593 360.2785 1.722
3450 10 7 0.1400 352.7193 360.3225 0.0
3451 10 6 -0.4000 355.0633 360.3225 0.0
3452 10 7 0.1400 353.9453 361.0075 0.462
3453 10 8 0.0300 351.8533 360.3375 0.644
3454 10 8 0.0300 352.8023 359.5745 -0.766
3455 10 8 0.0300 353.9193 361.0505 1.578
3456 10 8 0.0300 353.9033 362.04449999999997 0.044
3457 10 7 0.1400 357.0633 360.3225 0.0
3458 10 6 -0.4000 359.4073000000001 360.3225 0.0
3459 10 7 0.1400 358.2893 359.8605 0.685
3460 10 8 0.0300 356.19730000000004 359.6785 0.01500000000000004
3461 10 8 0.0300 357.14630000000005 361.0885 -0.748
3462 10 8 0.0300 358.2633000000001 358.7445 0.7280000000000001
3463 10 8 0.0300 358.24730000000005 360.2785 1.722
3464 10 7 0.1400 361.40729999999996 360.3225 0.0
3465 10 6 -0.4000 363.7513 360.3225 0.0
3466 10 7 0.1400 362.63329999999996 361.0075 -0.462
3467 10 8 0.0300 360.5413 360.3375 -0.644
3468 10 8 0.0300 361.4903 359.5745 0.766
3469 10 8 0.0300 362.6073 361.0505 -1.578
3470 10 8 0.0300 362.5913 362.04449999999997 -0.044
3471 10 7 0.1400 365.7513 360.3225 0.0
3472 10 6 -0.4000 368.09530000000007 360.3225 0.0
3473 10 7 0.1400 366.9773 360.7845 0.685
3474 10 8 0.0300 364.88530000000003 360.9665 0.01499999999999996
3475 10 8 0.0300 365.83430000000004 359.55649999999997 -0.748
3476 10 8 0.0300 366.95130000000006 361.90049999999997 0.7279999999999999
3477 10 8 0.0300 366.93530000000004 360.3665 1.722
3478 10 7 0.1400 370.09529999999995 360.3225 0.0
3479 10 6 -0.4000 372.4393 360.3225 0.0
3480 10 7 0.1400 371.32129999999995 361.0075 0.462
3481 10 8 0.0300 369.22929999999997 360.3375 0.644
3482 10 8 0.0300 370.1783 359.5745 -0.766
3483 10 8 0.0300 371.2953 361.0505 1.578
3484 10 8 0.0300 371.2793 362.04449999999997 0.044
3485 10 7 0.1400 374.4393 360.3225 0.0
3486 10 6 -0.4000 376.78330000000005 360.3225 0.0
3487 10 7 0.1400 375.6653 360.7845 0.685
3488 10 8 0.0300 373.5733 360.9665 0.01499999999999996
3489 10 8 0.0300 374.52230000000003 359.55649999999997 -0.748
3490 10 8 0.0300 375.63930000000005 361.90049999999997 0.7279999999999999
3491 10 8 0.0300 375.62330000000003 360.3665 1.722
3492 10 7 0.1400 378.7833 360.3225 0.0
3493 10 6 -0.4000 381.12730000000005 360.3225 0.0
3494 10 7 0.1400 380.0093 361.0075 -0.462
3495 10 8 0.0300 377.9173 360.3375 -0.644
3496 10 8 0.0300 378.8663 359.5745 0.766
3497 10 8 0.0300 379.98330000000004 361.0505 -1.578
3498 10 8 0.0300 379.9673 362.04449999999997 -0.044
3499 10 7 0.1400 383.1273 360.3225 0.0
3500 10 6 -0.4000 385.47130000000004 360.3225 0.0
3501 10 7 0.1400 384.3533 359.8605 0.685
3502 10 8 0.0300 382.2613 359.6785 0.01500000000000004
3503 10 8 0.0300 383.2103 361.0885 -0.748
3504 10 8 0.0300 384.32730000000004 358.7445 0.7280000000000001
3505 10 8 0.0300 384.3113 360.2785 1.722
3506 10 7 0.1400 387.4713 360.3225 0.0
3507 10 6 -0.4000 389.81530000000004 360.3225 0.0
3508 10 7 0.1400 388.6973 361.0075 0.462
3509 10 8 0.0300 386.6053 360.3375 0.644
3510 10 8 0.0300 387.5543 359.5745 -0.766
3511 10 8 0.0300 388.67130000000003 361.0505 1.578
3512 10 8 0.0300 388.6553 362.04449999999997 0.044
3513 10 7 0.1400 391.5573 360.3225 0.0
3514 10 5 0.1450 392.6653 360.8385 0.807
3515 10 3 -0.6830 393.7583 359.9735 0.654
3516 10 2 0.0600 390.5433 360.5655 0.263
3517 10 2 0.0600 391.7563 359.6675 -0.83
3518 10 2 0.0600 392.34430000000003 360.9025 1.875
3519 10 2 0.0600 392.9463 361.8535 0.4259999999999999
3520 10 4 0.4180 394.4173 360.3225 0.0

Bonds

1 11 1 3
2 16 2 3
3 17 1 4
4 17 1 5
5 17 1 6
6 22 3 7
7 22 3 8
8 13 9 11
9 16 10 11
10 22 9 12
11 22 9 13
12 22 11 14
13 22 11 15
14 13 16 18
15 16 17 18
16 22 16 19
17 22 16 20
18 22 18 21
19 22 18 22
20 13 23 25
21 16 24 25
22 22 23 26
23 22 23 27
24 22 25 28
25 22 25 29
26 13 30 32
27 16 31 32
28 22 30 33
29 22 30 34
30 22 32 35
31 22 32 36
32 13 37 39
33 16 38 39
34 22 37 40
35 22 37 41
36 22 39 42
37 22 39 43
38 13 44 46
39 16 45 46
40 22 44 47
41 22 44 48
42 22 46 49
43 22 46 50
44 13 51 53
45 16 52 53
46 22 51 54
47 22 51 55
48 22 53 56
49 22 53 57
50 13 58 60
51 16 59 60
52 22 58 61
53 22 58 62
54 22 60 63
55 22 60 64
56 13 65 67
57 16 66 67
58 22 65 68
59 22 65 69
60 22 67 70
61 22 67 71
62 13 72 74
63 16 73 74
64 22 72 75
65 22 72 76
66 22 74 77
67 22 74 78
68 13 79 81
69 16 80 81
70 22 79 82
71 22 79 83
72 22 81 84
73 22 81 85
74 13 86 88
75 16 87 88
76 22 86 89
77 22 86 90
78 22 88 91
79 22 88 92
80 13 93 95
81 16 94 95
82 22 93 96
83 22 93 97
84 22 95 98
85 22 95 99
86 13 100 102
87 16 101 102
88 22 100 103
89 22 100 104
90 22 102 105
91 22 102 106
92 13 107 109
93 16 108 109
94 22 107 110
95 22 107 111
96 22 109 112
97 22 109 113
98 13 114 116
99 16 115 116
100 22 114 117
101 22 114 118
102 22 116 119
103 22 116 120
104 13 121 123
105 16 122 123
106 22 121 124
107 22 121 125
108 22 123 126
109 22 123 127
110 13 128 130
111 16 129 130
112 22 128 131
113 22 128 132
114 22 130 133
115 22 130 134
116 13 135 137
117 16 136 137
118 22 135 138
119 22 135 139
120 22 137 140
121 22 137 141
122 13 142 144
123 16 143 144
124 22 142 145
125 22 142 146
126 22 144 147
127 22 144 148
128 13 149 151
129 16 150 151
130 22 149 152
131 22 149 153
132 22 151 154
133 22 151 155
134 13 156 158
135 16 157 158
136 22 156 159
137 22 156 160
138 22 158 161
139 22 158 162
140 13 163 165
141 16 164 165
142 22 163 166
143 22 163 167
144 22 165 168
145 22 165 169
146 13 170 172
147 16 171 172
148 22 170 173
149 22 170 174
150 22 172 175
151 22 172 176
152 13 177 179
153 16 178 179
154 22 177 180
155 22 177 181
156 22 179 182
157 22 179 183
158 13 184 186
159 16 185 186
160 22 184 187
161 22 184 188
162 22 186 189
163 22 186 190
164 13 191 193
165 16 192 193
166 22 191 194
167 22 191 195
168 22 193 196
169 22 193 197
170 13 198 200
171 16 199 200
172 22 198 201
173 22 198 202
174 22 200 203
175 22 200 204
176 13 205 207
177 16 206 207
178 22 205 208
179 22 205 209
180 22 207 210
181 22 207 211
182 13 212 214
183 16 213 214
184 22 212 215
185 22 212 216
186 22 214 217
187 22 214 218
188 13 219 221
189 16 220 221
190 22 219 222
191 22 219 223
192 22 221 224
193 22 221 225
194 13 226 228
195 16 227 228
196 22 226 229
197 22 226 230
198 22 228 231
199 22 228 232
200 13 233 235
201 16 234 235
202 22 233 236
203 22 233 237
204 22 235 238
205 22 235 239
206 13 240 242
207 16 241 242
208 22 240 243
209 22 240 244
210 22 242 245
211 22 242 246
212 13 247 249
213 16 248 249
214 22 247 250
215 22 247 251
216 22 249 252
217 22 249 253
218 13 254 256
219 16 255 256
220 22 254 257
221 22 254 258
222 22 256 259
223 22 256 260
224 13 261 263
225 16 262 263
226 22 261 264
227 22 261 265
228 22 263 266
229 22 263 267
230 13 268 270
231 16 269 270
232 22 268 271
233 22 268 272
234 22 270 273
235 22 270 274
236 13 275 277
237 16 276 277
238 22 275 278
239 22 275 279
240 22 277 280
241 22 277 281
242 13 282 284
243 16 283 284
244 22 282 285
245 22 282 286
246 22 284 287
247 22 284 288
248 13 289 291
249 16 290 291
250 22 289 292
251 22 289 293
252 22 291 294
253 22 291 295
254 13 296 298
255 16 297 298
256 22 296 299
257 22 296 300
258 22 298 301
259 22 298 302
260 13 303 305
261 16 304 305
262 22 303 306
263 22 303 307
264 22 305 308
265 22 305 309
266 13 310 312
267 16 311 312
268 22 310 313
269 22 310 314
270 22 312 315
271 22 312 316
272 13 317 319
273 16 318 319
274 22 317 320
275 22 317 321
276 22 319 322
277 22 319 323
278 13 324 326
279 16 325 326
280 22 324 327
281 22 324 328
282 22 326 329
283 22 326 330
284 13 331 333
285 16 332 333
286 22 331 334
287 22 331 335
288 22 333 336
289 22 333 337
290 13 338 340
291 16 339 340
292 22 338 341
293 22 338 342
294 22 340 343
295 22 340 344
296 12 345 346
297 3 346 347
298 21 345 348
299 21 345 349
300 19 346 350
301 19 346 351
302 1 347 352
303 16 2 9
304 16 10 16
305 16 17 23
306 16 24 30
307 16 31 37
308 16 38 44
309 16 45 51
310 16 52 58
311 16 59 65
312 16 66 72
313 16 73 79
314 16 80 86
315 16 87 93
316 16 94 100
317 16 101 107
318 16 108 114
319 16 115 121
320 16 122 128
321 16 129 135
322 16 136 142
323 16 143 149
324 16 150 156
325 16 157 163
326 16 164 170
327 16 171 177
328 16 178 184
329 16 185 191
330 16 192 198
331 16 199 205
332 16 206 212
333 16 213 219
334 16 220 226
335 16 227 233
336 16 234 240
337 16 241 247
338 16 248 254
339 16 255 261
340 16 262 268
341 16 269 275
342 16 276 282
343 16 283 289
344 16 290 296
345 16 297 303
346 16 304 310
347 16 311 317
348 16 318 324
349 16 325 331
350 16 332 338
351 16 339 345
352 11 353 355
353 16 354 355
354 17 353 356
355 17 353 357
356 17 353 358
357 22 355 359
358 22 355 360
359 13 361 363
360 16 362 363
361 22 361 364
362 22 361 365
363 22 363 366
364 22 363 367
365 13 368 370
366 16 369 370
367 22 368 371
368 22 368 372
369 22 370 373
370 22 370 374
371 13 375 377
372 16 376 377
373 22 375 378
374 22 375 379
375 22 377 380
376 22 377 381
377 13 382 384
378 16 383 384
379 22 382 385
380 22 382 386
381 22 384 387
382 22 384 388
383 13 389 391
384 16 390 391
385 22 389 392
386 22 389 393
387 22 391 394
388 22 391 395
389 13 396 398
390 16 397 398
391 22 396 399
392 22 396 400
393 22 398 401
394 22 398 402
395 13 403 405
396 16 404 405
397 22 403 406
398 22 403 407
399 22 405 408
400 22 405 409
401 13 410 412
402 16 411 412
403 22 410 413
404 22 410 414
405 22 412 415
406 22 412 416
407 13 417 419
408 16 418 419
409 22 417 420
410 22 417 421
411 22 419 422
412 22 419 423
413 13 424 426
414 16 425 426
415 22 424 427
416 22 424 428
417 22 426 429
418 22 426 430
419 13 431 433
420 16 432 433
421 22 431 434
422 22 431 435
423 22 433 436
424 22 433 437
425 13 438 440
426 16 439 440
427 22 438 441
428 22 438 442
429 22 440 443
430 22 440 444
431 13 445 447
432 16 446 447
433 22 445 448
434 22 445 449
435 22 447 450
436 22 447 451
437 13 452 454
438 16 453 454
439 22 452 455
440 22 452 456
441 22 454 457
442 22 454 458
443 13 459 461
444 16 460 461
445 22 459 462
446 22 459 463
447 22 461 464
448 22 461 465
449 13 466 468
450 16 467 468
451 22 466 469
452 22 466 470
453 22 468 471
454 22 468 472
455 13 473 475
456 16 474 475
457 22 473 476
458 22 473 477
459 22 475 478
460 22 475 479
461 13 480 482
462 16 481 482
463 22 480 483
464 22 480 484
465 22 482 485
466 22 482 486
467 13 487 489
468 16 488 489
469 22 487 490
470 22 487 491
471 22 489 492
472 22 489 493
473 13 494 496
474 16 495 496
475 22 494 497
476 22 494 498
477 22 496 499
478 22 496 500
479 13 501 503
480 16 502 503
481 22 501 504
482 22 501 505
483 22 503 506
484 22 503 507
485 13 508 510
486 16 509 510
487 22 508 511
488 22 508 512
489 22 510 513
490 22 510 514
491 13 515 517
492 16 516 517
493 22 515 518
494 22 515 519
495 22 517 520
496 22 517 521
497 13 522 524
498 16 523 524
499 22 522 525
500 22 522 526
501 22 524 527
502 22 524 528
503 13 529 531
504 16 530 531
505 22 529 532
506 22 529 533
507 22 531 534
508 22 531 535
509 13 536 538
510 16 537 538
511 22 536 539
512 22 536 540
513 22 538 541
514 22 538 542
515 13 543 545
516 16 544 545
517 22 543 546
518 22 543 547
519 22 545 548
520 22 545 549
521 13 550 552
522 16 551 552
523 22 550 553
524 22 550 554
525 22 552 555
526 22 552 556
527 13 557 559
528 16 558 559
529 22 557 560
530 22 557 561
531 22 559 562
532 22 559 563
533 13 564 566
534 16 565 566
535 22 564 567
536 22 564 568
537 22 566 569
538 22 566 570
539 13 571 573
540 16 572 573
541 22 571 574
542 22 571 575
543 22 573 576
544 22 573 577
545 13 578 580
546 16 579 580
547 22 578 581
548 22 578 582
549 22 580 583
550 22 580 584
551 13 585 587
552 16 586 587
553 22 585 588
554 22 585 589
555 22 587 590
556 22 587 591
557 13 592 594
558 16 593 594
559 22 592 595
560 22 592 596
561 22 594 597
562 22 594 598
563 13 599 601
564 16 600 601
565 22 599 602
566 22 599 603
567 22 601 604
568 22 601 605
569 13 606 608
570 16 607 608
571 22 606 609
572 22 606 610
573 22 608 611
574 22 608 612
575 13 613 615
576 16 614 615
577 22 613 616
578 22 613 617
579 22 615 618
580 22 615 619
581 13 620 622
582 16 621 622
583 22 620 623
584 22 620 624
585 22 622 625
586 22 622 626
587 13 627 629
588 16 628 629
589 22 627 630
590 22 627 631
591 22 629 632
592 22 629 633
593 13 634 636
594 16 635 636
595 22 634 637
596 22 634 638
597 22 636 639
598 22 636 640
599 13 641 643
600 16 642 643
601 22 641 644
602 22 641 645
603 22 643 646
604 22 643 647
605 13 648 650
606 16 649 650
607 22 648 651
608 22 648 652
609 22 650 653
610 22 650 654
611 13 655 657
612 16 656 657
613 22 655 658
614 22 655 659
615 22 657 660
616 22 657 661
617 13 662 664
618 16 663 664
619 22 662 665
620 22 662 666
621 22 664 667
622 22 664 668
623 13 669 671
624 16 670 671
625 22 669 672
626 22 669 673
627 22 671 674
628 22 671 675
629 13 676 678
630 16 677 678
631 22 676 679
632 22 676 680
633 22 678 681
634 22 678 682
635 13 683 685
636 16 684 685
637 22 683 686
638 22 683 687
639 22 685 688
640 22 685 689
641 13 690 692
642 16 691 692
643 22 690 693
644 22 690 694
645 22 692 695
646 22 692 696
647 12 697 698
648 3 698 699
649 21 697 700
650 21 697 701
651 19 698 702
652 19 698 703
653 1 699 704
654 16 354 361
655 16 362 368
656 16 369 375
657 16 376 382
658 16 383 389
659 16 390 396
660 16 397 403
661 16 404 410
662 16 411 417
663 16 418 424
664 16 425 431
665 16 432 438
666 16 439 445
667 16 446 452
668 16 453 459
669 16 460 466
670 16 467 473
671 16 474 480
672 16 481 487
673 16 488 494
674 16 495 501
675 16 502 508
676 16 509 515
677 16 516 522
678 16 523 529
679 16 530 536
680 16 537 543
681 16 544 550
682 16 551 557
683 16 558 564
684 16 565 571
685 16 572 578
686 16 579 585
687 16 586 592
688 16 593 599
689 16 600 606
690 16 607 613
691 16 614 620
692 16 621 627
693 16 628 634
694 16 635 641
695 16 642 648
696 16 649 655
697 16 656 662
698 16 663 669
699 16 670 676
700 16 677 683
701 16 684 690
702 16 691 697
703 11 705 707
704 16 706 707
705 17 705 708
706 17 705 709
707 17 705 710
708 22 707 711
709 22 707 712
710 13 713 715
711 16 714 715
712 22 713 716
713 22 713 717
714 22 715 718
715 22 715 719
716 13 720 722
717 16 721 722
718 22 720 723
719 22 720 724
720 22 722 725
721 22 722 726
722 13 727 729
723 16 728 729
724 22 727 730
725 22 727 731
726 22 729 732
727 22 729 733
728 13 734 736
729 16 735 736
730 22 734 737
731 22 734 738
732 22 736 739
733 22 736 740
734 13 741 743
735 16 742 743
736 22 741 744
737 22 741 745
738 22 743 746
739 22 743 747
740 13 748 750
741 16 749 750
742 22 748 751
743 22 748 752
744 22 750 753
745 22 750 754
746 13 755 757
747 16 756 757
748 22 755 758
749 22 755 759
750 22 757 760
751 22 757 761
752 13 762 764
753 16 763 764
754 22 762 765
755 22 762 766
756 22 764 767
757 22 764 768
758 13 769 771
759 16 770 771
760 22 769 772
761 22 769 773
762 22 771 774
763 22 771 775
764 13 776 778
765 16 777 778
766 22 776 779
767 22 776 780
768 22 778 781
769 22 778 782
770 13 783 785
771 16 784 785
772 22 783 786
773 22 783 787
774 22 785 788
775 22 785 789
776 13 790 792
777 16 791 792
778 22 790 793
779 22 790 794
780 22 792 795
781 22 792 796
782 13 797 799
783 16 798 799
784 22 797 800
785 22 797 801
786 22 799 802
787 22 799 803
788 13 804 806
789 16 805 806
790 22 804 807
791 22 804 808
792 22 806 809
793 22 806 810
794 13 811 813
795 16 812 813
796 22 811 814
797 22 811 815
798 22 813 816
799 22 813 817
800 13 818 820
801 16 819 820
802 22 818 821
803 22 818 822
804 22 820 823
805 22 820 824
806 13 825 827
807 16 826 827
808 22 825 828
809 22 825 829
810 22 827 830
811 22 827 831
812 13 832 834
813 16 833 834
814 22 832 835
815 22 832 836
816 22 834 837
817 22 834 838
818 13 839 841
819 16 840 841
820 22 839 842
821 22 839 843
822 22 841 844
823 22 841 845
824 13 846 848
825 16 847 848
826 22 846 849
827 22 846 850
828 22 848 851
829 22 848 852
830 13 853 855
831 16 854 855
832 22 853 856
833 22 853 857
834 22 855 858
835 22 855 859
836 13 860 862
837 16 861 862
838 22 860 863
839 22 860 864
840 22 862 865
841 22 862 866
842 13 867 869
843 16 868 869
844 22 867 870
845 22 867 871
846 22 869 872
847 22 869 873
848 13 874 876
849 16 875 876
850 22 874 877
851 22 874 878
852 22 876 879
853 22 876 880
854 13 881 883
855 16 882 883
856 22 881 884
857 22 881 885
858 22 883 886
859 22 883 887
860 13 888 890
861 16 889 890
862 22 888 891
863 22 888 892
864 22 890 893
865 22 890 894
866 13 895 897
867 16 896 897
868 22 895 898
869 22 895 899
870 22 897 900
871 22 897 901
872 13 902 904
873 16 903 904
874 22 902 905
875 22 902 906
876 22 904 907
877 22 904 908
878 13 909 911
879 16 910 911
880 22 909 912
881 22 909 913
882 22 911 914
883 22 911 915
884 13 916 918
885 16 917 918
886 22 916 919
887 22 916 920
888 22 918 921
889 22 918 922
890 13 923 925
891 16 924 925
892 22 923 926
893 22 923 927
894 22 925 928
895 22 925 929
896 13 930 932
897 16 931 932
898 22 930 933
899 22 930 934
900 22 932 935
901 22 932 936
902 13 937 939
903 16 938 939
904 22 937 940
905 22 937 941
906 22 939 942
907 22 939 943
908 13 944 946
909 16 945 946
910 22 944 947
911 22 944 948
912 22 946 949
913 22 946 950
914 13 951 953
915 16 952 953
916 22 951 954
917 22 951 955
918 22 953 956
919 22 953 957
920 13 958 960
921 16 959 960
922 22 958 961
923 22 958 962
924 22 960 963
925 22 960 964
926 13 965 967
927 16 966 967
928 22 965 968
929 22 965 969
930 22 967 970
931 22 967 971
932 13 972 974
933 16 973 974
934 22 972 975
935 22 972 976
936 22 974 977
937 22 974 978
938 13 979 981
939 16 980 981
940 22 979 982
941 22 979 983
942 22 981 984
943 22 981 985
944 13 986 988
945 16 987 988
946 22 986 989
947 22 986 990
948 22 988 991
949 22 988 992
950 13 993 995
951 16 994 995
952 22 993 996
953 22 993 997
954 22 995 998
955 22 995 999
956 13 1000 1002
957 16 1001 1002
958 22 1000 1003
959 22 1000 1004
960 22 1002 1005
961 22 1002 1006
962 13 1007 1009
963 16 1008 1009
964 22 1007 1010
965 22 1007 1011
966 22 1009 1012
967 22 1009 1013
968 13 1014 1016
969 16 1015 1016
970 22 1014 1017
971 22 1014 1018
972 22 1016 1019
973 22 1016 1020
974 13 1021 1023
975 16 1022 1023
976 22 1021 1024
977 22 1021 1025
978 22 1023 1026
979 22 1023 1027
980 13 1028 1030
981 16 1029 1030
982 22 1028 1031
983 22 1028 1032
984 22 1030 1033
985 22 1030 1034
986 13 1035 1037
987 16 1036 1037
988 22 1035 1038
989 22 1035 1039
990 22 1037 1040
991 22 1037 1041
992 13 1042 1044
993 16 1043 1044
994 22 1042 1045
995 22 1042 1046
996 22 1044 1047
997 22 1044 1048
998 12 1049 1050
999 3 1050 1051
1000 21 1049 1052
1001 21 1049 1053
1002 19 1050 1054
1003 19 1050 1055
1004 1 1051 1056
1005 16 706 713
1006 16 714 720
1007 16 721 727
1008 16 728 734
1009 16 735 741
1010 16 742 748
1011 16 749 755
1012 16 756 762
1013 16 763 769
1014 16 770 776
1015 16 777 783
1016 16 784 790
1017 16 791 797
1018 16 798 804
1019 16 805 811
1020 16 812 818
1021 16 819 825
1022 16 826 832
1023 16 833 839
1024 16 840 846
1025 16 847 853
1026 16 854 860
1027 16 861 867
1028 16 868 874
1029 16 875 881
1030 16 882 888
1031 16 889 895
1032 16 896 902
1033 16 903 909
1034 16 910 916
1035 16 917 923
1036 16 924 930
1037 16 931 937
1038 16 938 944
1039 16 945 951
1040 16 952 958
1041 16 959 965
1042 16 966 972
1043 16 973 979
1044 16 980 986
1045 16 987 993
1046 16 994 1000
1047 16 1001 1007
1048 16 1008 1014
1049 16 1015 1021
1050 16 1022 1028
1051 16 1029 1035
1052 16 1036 1042
1053 16 1043 1049
1054 11 1057 1059
1055 16 1058 1059
1056 17 1057 1060
1057 17 1057 1061
1058 17 1057 1062
1059 22 1059 1063
1060 22 1059 1064
1061 13 1065 1067
1062 16 1066 1067
1063 22 1065 1068
1064 22 1065 1069
1065 22 1067 1070
1066 22 1067 1071
1067 13 1072 1074
1068 16 1073 1074
1069 22 1072 1075
1070 22 1072 1076
1071 22 1074 1077
1072 22 1074 1078
1073 13 1079 1081
1074 16 1080 1081
1075 22 1079 1082
1076 22 1079 1083
1077 22 1081 1084
1078 22 1081 1085
1079 13 1086 1088
1080 16 1087 1088
1081 22 1086 1089
1082 22 1086 1090
1083 22 1088 1091
1084 22 1088 1092
1085 13 1093 1095
1086 16 1094 1095
1087 22 1093 1096
1088 22 1093 1097
1089 22 1095 1098
1090 22 1095 1099
1091 13 1100 1102
1092 16 1101 1102
1093 22 1100 1103
1094 22 1100 1104
1095 22 1102 1105
1096 22 1102 1106
1097 13 1107 1109
1098 16 1108 1109
1099 22 1107 1110
1100 22 1107 1111
1101 22 1109 1112
1102 22 1109 1113
1103 13 1114 1116
1104 16 1115 1116
1105 22 1114 1117
1106 22 1114 1118
1107 22 1116 1119
1108 22 1116 1120
1109 13 1121 1123
1110 16 1122 1123
1111 22 1121 1124
1112 22 1121 1125
1113 22 1123 1126
1114 22 1123 1127
1115 13 1128 1130
1116 16 1129 1130
1117 22 1128 1131
1118 22 1128 1132
1119 22 1130 1133
1120 22 1130 1134
1121 13 1135 1137
1122 16 1136 1137
1123 22 1135 1138
1124 22 1135 1139
1125 22 1137 1140
1126 22 1137 1141
1127 13 1142 1144
1128 16 1143 1144
1129 22 1142 1145
1130 22 1142 1146
1131 22 1144 1147
1132 22 1144 1148
1133 13 1149 1151
1134 16 1150 1151
1135 22 1149 1152
1136 22 1149 1153
1137 22 1151 1154
1138 22 1151 1155
1139 13 1156 1158
1140 16 1157 1158
1141 22 1156 1159
1142 22 1156 1160
1143 22 1158 1161
1144 22 1158 1162
1145 13 1163 1165
1146 16 1164 1165
1147 22 1163 1166
1148 22 1163 1167
1149 22 1165 1168
1150 22 1165 1169
1151 13 1170 1172
1152 16 1171 1172
1153 22 1170 1173
1154 22 1170 1174
1155 22 1172 1175
1156 22 1172 1176
1157 13 1177 1179
1158 16 1178 1179
1159 22 1177 1180
1160 22 1177 1181
1161 22 1179 1182
1162 22 1179 1183
1163 13 1184 1186
1164 16 1185 1186
1165 22 1184 1187
1166 22 1184 1188
1167 22 1186 1189
1168 22 1186 1190
1169 13 1191 1193
1170 16 1192 1193
1171 22 1191 1194
1172 22 1191 1195
1173 22 1193 1196
1174 22 1193 1197
1175 13 1198 1200
1176 16 1199 1200
1177 22 1198 1201
1178 22 1198 1202
1179 22 1200 1203
1180 22 1200 1204
1181 13 1205 1207
1182 16 1206 1207
1183 22 1205 1208
1184 22 1205 1209
1185 22 1207 1210
1186 22 1207 1211
1187 13 1212 1214
1188 16 1213 1214
1189 22 1212 1215
1190 22 1212 1216
1191 22 1214 1217
1192 22 1214 1218
1193 13 1219 1221
1194 16 1220 1221
1195 22 1219 1222
1196 22 1219 1223
1197 22 1221 1224
1198 22 1221 1225
1199 13 1226 1228
1200 16 1227 1228
1201 22 1226 1229
1202 22 1226 1230
1203 22 1228 1231
1204 22 1228 1232
1205 13 1233 1235
1206 16 1234 1235
1207 22 1233 1236
1208 22 1233 1237
1209 22 1235 1238
1210 22 1235 1239
1211 13 1240 1242
1212 16 1241 1242
1213 22 1240 1243
1214 22 1240 1244
1215 22 1242 1245
1216 22 1242 1246
1217 13 1247 1249
1218 16 1248 1249
1219 22 1247 1250
1220 22 1247 1251
1221 22 1249 1252
1222 22 1249 1253
1223 13 1254 1256
1224 16 1255 1256
1225 22 1254 1257
1226 22 1254 1258
1227 22 1256 1259
1228 22 1256 1260
1229 13 1261 1263
1230 16 1262 1263
1231 22 1261 1264
1232 22 1261 1265
1233 22 1263 1266
1234 22 1263 1267
1235 13 1268 1270
1236 16 1269 1270
1237 22 1268 1271
1238 22 1268 1272
1239 22 1270 1273
1240 22 1270 1274
1241 13 1275 1277
1242 16 1276 1277
1243 22 1275 1278
1244 22 1275 1279
1245 22 1277 1280
1246 22 1277 1281
1247 13 1282 1284
1248 16 1283 1284
1249 22 1282 1285
1250 22 1282 1286
1251 22 1284 1287
1252 22 1284 1288
1253 13 1289 1291
1254 16 1290 1291
1255 22 1289 1292
1256 22 1289 1293
1257 22 1291 1294
1258 22 1291 1295
1259 13 1296 1298
1260 16 1297 1298
1261 22 1296 1299
1262 22 1296 1300
1263 22 1298 1301
1264 22 1298 1302
1265 13 1303 1305
1266 16 1304 1305
1267 22 1303 1306
1268 22 1303 1307
1269 22 1305 1308
1270 22 1305 1309
1271 13 1310 1312
1272 16 1311 1312
1273 22 1310 1313
1274 22 1310 1314
1275 22 1312 1315
1276 22 1312 1316
1277 13 1317 1319
1278 16 1318 1319
1279 22 1317 1320
1280 22 1317 1321
1281 22 1319 1322
1282 22 1319 1323
1283 13 1324 1326
1284 16 1325 1326
1285 22 1324 1327
1286 22 1324 1328
1287 22 1326 1329
1288 22 1326 1330
1289 13 1331 1333
1290 16 1332 1333
1291 22 1331 1334
1292 22 1331 1335
1293 22 1333 1336
1294 22 1333 1337
1295 13 1338 1340
1296 16 1339 1340
1297 22 1338 1341
1298 22 1338 1342
1299 22 1340 1343
1300 22 1340 1344
1301 13 1345 1347
1302 16 1346 1347
1303 22 1345 1348
1304 22 1345 1349
1305 22 1347 1350
1306 22 1347 1351
1307 13 1352 1354
1308 16 1353 1354
1309 22 1352 1355
1310 22 1352 1356
1311 22 1354 1357
1312 22 1354 1358
1313 13 1359 1361
1314 16 1360 1361
1315 22 1359 1362
1316 22 1359 1363
1317 22 1361 1364
1318 22 1361 1365
1319 13 1366 1368
1320 16 1367 1368
1321 22 1366 1369
1322 22 1366 1370
1323 22 1368 1371
1324 22 1368 1372
1325 13 1373 1375
1326 16 1374 1375
1327 22 1373 1376
1328 22 1373 1377
1329 22 1375 1378
1330 22 1375 1379
1331 13 1380 1382
1332 16 1381 1382
1333 22 1380 1383
1334 22 1380 1384
1335 22 1382 1385
1336 22 1382 1386
1337 13 1387 1389
1338 16 1388 1389
1339 22 1387 1390
1340 22 1387 1391
1341 22 1389 1392
1342 22 1389 1393
1343 13 1394 1396
1344 16 1395 1396
1345 22 1394 1397
1346 22 1394 1398
1347 22 1396 1399
1348 22 1396 1400
1349 12 1401 1402
1350 3 1402 1403
1351 21 1401 1404
1352 21 1401 1405
1353 19 1402 1406
1354 19 1402 1407
1355 1 1403 1408
1356 16 1058 1065
1357 16 1066 1072
1358 16 1073 1079
1359 16 1080 1086
1360 16 1087 1093
1361 16 1094 1100
1362 16 1101 1107
1363 16 1108 1114
1364 16 1115 1121
1365 16 1122 1128
1366 16 1129 1135
1367 16 1136 1142
1368 16 1143 1149
1369 16 1150 1156
1370 16 1157 1163
1371 16 1164 1170
1372 16 1171 1177
1373 16 1178 1184
1374 16 1185 1191
1375 16 1192 1198
1376 16 1199 1205
1377 16 1206 1212
1378 16 1213 1219
1379 16 1220 1226
1380 16 1227 1233
1381 16 1234 1240
1382 16 1241 1247
1383 16 1248 1254
1384 16 1255 1261
1385 16 1262 1268
1386 16 1269 1275
1387 16 1276 1282
1388 16 1283 1289
1389 16 1290 1296
1390 16 1297 1303
1391 16 1304 1310
1392 16 1311 1317
1393 16 1318 1324
1394 16 1325 1331
1395 16 1332 1338
1396 16 1339 1345
1397 16 1346 1352
1398 16 1353 1359
1399 16 1360 1366
1400 16 1367 1373
1401 16 1374 1380
1402 16 1381 1387
1403 16 1388 1394
1404 16 1395 1401
1405 11 1409 1411
1406 16 1410 1411
1407 17 1409 1412
1408 17 1409 1413
1409 17 1409 1414
1410 22 1411 1415
1411 22 1411 1416
1412 13 1417 1419
1413 16 1418 1419
1414 22 1417 1420
1415 22 1417 1421
1416 22 1419 1422
1417 22 1419 1423
1418 13 1424 1426
1419 16 1425 1426
1420 22 1424 1427
1421 22 1424 1428
1422 22 1426 1429
1423 22 1426 1430
1424 13 1431 1433
1425 16 1432 1433
1426 22 1431 1434
1427 22 1431 1435
1428 22 1433 1436
1429 22 1433 1437
1430 13 1438 1440
1431 16 1439 1440
1432 22 1438 1441
1433 22 1438 1442
1434 22 1440 1443
1435 22 1440 1444
1436 13 1445 1447
1437 16 1446 1447
1438 22 1445 1448
1439 22 1445 1449
1440 22 1447 1450
1441 22 1447 1451
1442 13 1452 1454
1443 16 1453 1454
1444 22 1452 1455
1445 22 1452 1456
1446 22 1454 1457
1447 22 1454 1458
1448 13 1459 1461
1449 16 1460 1461
1450 22 1459 1462
1451 22 1459 1463
1452 22 1461 1464
1453 22 1461 1465
1454 13 1466 1468
1455 16 1467 1468
1456 22 1466 1469
1457 22 1466 1470
1458 22 1468 1471
1459 22 1468 1472
1460 13 1473 1475
1461 16 1474 1475
1462 22 1473 1476
1463 22 1473 1477
1464 22 1475 1478
1465 22 1475 1479
1466 13 1480 1482
1467 16 1481 1482
1468 22 1480 1483
1469 22 1480 1484
1470 22 1482 1485
1471 22 1482 1486
1472 13 1487 1489
1473 16 1488 1489
1474 22 1487 1490
1475 22 1487 1491
1476 22 1489 1492
1477 22 1489 1493
1478 13 1494 1496
1479 16 1495 1496
1480 22 1494 1497
1481 22 1494 1498
1482 22 1496 1499
1483 22 1496 1500
1484 13 1501 1503
1485 16 1502 1503
1486 22 1501 1504
1487 22 1501 1505
1488 22 1503 1506
1489 22 1503 1507
1490 13 1508 1510
1491 16 1509 1510
1492 22 1508 1511
1493 22 1508 1512
1494 22 1510 1513
1495 22 1510 1514
1496 13 1515 1517
1497 16 1516 1517
1498 22 1515 1518
1499 22 1515 1519
1500 22 1517 1520
1501 22 1517 1521
1502 13 1522 1524
1503 16 1523 1524
1504 22 1522 1525
1505 22 1522 1526
1506 22 1524 1527
1507 22 1524 1528
1508 13 1529 1531
1509 16 1530 1531
1510 22 1529 1532
1511 22 1529 1533
1512 22 1531 1534
1513 22 1531 1535
1514 13 1536 1538
1515 16 1537 1538
1516 22 1536 1539
1517 22 1536 1540
1518 22 1538 1541
1519 22 1538 1542
1520 13 1543 1545
1521 16 1544 1545
1522 22 1543 1546
1523 22 1543 1547
1524 22 1545 1548
1525 22 1545 1549
1526 13 1550 1552
1527 16 1551 1552
1528 22 1550 1553
1529 22 1550 1554
1530 22 1552 1555
1531 22 1552 1556
1532 13 1557 1559
1533 16 1558 1559
1534 22 1557 1560
1535 22 1557 1561
1536 22 1559 1562
1537 22 1559 1563
1538 13 1564 1566
1539 16 1565 1566
1540 22 1564 1567
1541 22 1564 1568
1542 22 1566 1569
1543 22 1566 1570
1544 13 1571 1573
1545 16 1572 1573
1546 22 1571 1574
1547 22 1571 1575
1548 22 1573 1576
1549 22 1573 1577
1550 13 1578 1580
1551 16 1579 1580
1552 22 1578 1581
1553 22 1578 1582
1554 22 1580 1583
1555 22 1580 1584
1556 13 1585 1587
1557 16 1586 1587
1558 22 1585 1588
1559 22 1585 1589
1560 22 1587 1590
1561 22 1587 1591
1562 13 1592 1594
1563 16 1593 1594
1564 22 1592 1595
1565 22 1592 1596
1566 22 1594 1597
1567 22 1594 1598
1568 13 1599 1601
1569 16 1600 1601
1570 22 1599 1602
1571 22 1599 1603
1572 22 1601 1604
1573 22 1601 1605
1574 13 1606 1608
1575 16 1607 1608
1576 22 1606 1609
1577 22 1606 1610
1578 22 1608 1611
1579 22 1608 1612
1580 13 1613 1615
1581 16 1614 1615
1582 22 1613 1616
1583 22 1613 1617
1584 22 1615 1618
1585 22 1615 1619
1586 13 1620 1622
1587 16 1621 1622
1588 22 1620 1623
1589 22 1620 1624
1590 22 1622 1625
1591 22 1622 1626
1592 13 1627 1629
1593 16 1628 1629
1594 22 1627 1630
1595 22 1627 1631
1596 22 1629 1632
1597 22 1629 1633
1598 13 1634 1636
1599 16 1635 1636
1600 22 1634 1637
1601 22 1634 1638
1602 22 1636 1639
1603 22 1636 1640
1604 13 1641 1643
1605 16 1642 1643
1606 22 1641 1644
1607 22 1641 1645
1608 22 1643 1646
1609 22 1643 1647
1610 13 1648 1650
1611 16 1649 1650
1612 22 1648 1651
1613 22 1648 1652
1614 22 1650 1653
1615 22 1650 1654
1616 13 1655 1657
1617 16 1656 1657
1618 22 1655 1658
1619 22 1655 1659
1620 22 1657 1660
1621 22 1657 1661
1622 13 1662 1664
1623 16 1663 1664
1624 22 1662 1665
1625 22 1662 1666
1626 22 1664 1667
1627 22 1664 1668
1628 13 1669 1671
1629 16 1670 1671
1630 22 1669 1672
1631 22 1669 1673
1632 22 1671 1674
1633 22 1671 1675
1634 13 1676 1678
1635 16 1677 1678
1636 22 1676 1679
1637 22 1676 1680
1638 22 1678 1681
1639 22 1678 1682
1640 13 1683 1685
1641 16 1684 1685
1642 22 1683 1686
1643 22 1683 1687
1644 22 1685 1688
1645 22 1685 1689
1646 13 1690 1692
1647 16 1691 1692
1648 22 1690 1693
1649 22 1690 1694
1650 22 1692 1695
1651 22 1692 1696
1652 13 1697 1699
1653 16 1698 1699
1654 22 1697 1700
1655 22 1697 1701
1656 22 1699 1702
1657 22 1699 1703
1658 13 1704 1706
1659 16 1705 1706
1660 22 1704 1707
1661 22 1704 1708
1662 22 1706 1709
1663 22 1706 1710
1664 13 1711 1713
1665 16 1712 1713
1666 22 1711 1714
1667 22 1711 1715
1668 22 1713 1716
1669 22 1713 1717
1670 13 1718 1720
1671 16 1719 1720
1672 22 1718 1721
1673 22 1718 1722
1674 22 1720 1723
1675 22 1720 1724
1676 13 1725 1727
1677 16 1726 1727
1678 22 1725 1728
1679 22 1725 1729
1680 22 1727 1730
1681 22 1727 1731
1682 13 1732 1734
1683 16 1733 1734
1684 22 1732 1735
1685 22 1732 1736
1686 22 1734 1737
1687 22 1734 1738
1688 13 1739 1741
1689 16 1740 1741
1690 22 1739 1742
1691 22 1739 1743
1692 22 1741 1744
1693 22 1741 1745
1694 13 1746 1748
1695 16 1747 1748
1696 22 1746 1749
1697 22 1746 1750
1698 22 1748 1751
1699 22 1748 1752
1700 12 1753 1754
1701 3 1754 1755
1702 21 1753 1756
1703 21 1753 1757
1704 19 1754 1758
1705 19 1754 1759
1706 1 1755 1760
1707 16 1410 1417
1708 16 1418 1424
1709 16 1425 1431
1710 16 1432 1438
1711 16 1439 1445
1712 16 1446 1452
1713 16 1453 1459
1714 16 1460 1466
1715 16 1467 1473
1716 16 1474 1480
1717 16 1481 1487
1718 16 1488 1494
1719 16 1495 1501
1720 16 1502 1508
1721 16 1509 1515
1722 16 1516 1522
1723 16 1523 1529
1724 16 1530 1536
1725 16 1537 1543
1726 16 1544 1550
1727 16 1551 1557
1728 16 1558 1564
1729 16 1565 1571
1730 16 1572 1578
1731 16 1579 1585
1732 16 1586 1592
1733 16 1593 1599
1734 16 1600 1606
1735 16 1607 1613
1736 16 1614 1620
1737 16 1621 1627
1738 16 1628 1634
1739 16 1635 1641
1740 16 1642 1648
1741 16 1649 1655
1742 16 1656 1662
1743 16 1663 1669
1744 16 1670 1676
1745 16 1677 1683
1746 16 1684 1690
1747 16 1691 1697
1748 16 1698 1704
1749 16 1705 1711
1750 16 1712 1718
1751 16 1719 1725
1752 16 1726 1732
1753 16 1733 1739
1754 16 1740 1746
1755 16 1747 1753
1756 11 1761 1763
1757 16 1762 1763
1758 17 1761 1764
1759 17 1761 1765
1760 17 1761 1766
1761 22 1763 1767
1762 22 1763 1768
1763 13 1769 1771
1764 16 1770 1771
1765 22 1769 1772
1766 22 1769 1773
1767 22 1771 1774
1768 22 1771 1775
1769 13 1776 1778
1770 16 1777 1778
1771 22 1776 1779
1772 22 1776 1780
1773 22 1778 1781
1774 22 1778 1782
1775 13 1783 1785
1776 16 1784 1785
1777 22 1783 1786
1778 22 1783 1787
1779 22 1785 1788
1780 22 1785 1789
1781 13 1790 1792
1782 16 1791 1792
1783 22 1790 1793
1784 22 1790 1794
1785 22 1792 1795
1786 22 1792 1796
1787 13 1797 1799
1788 16 1798 1799
1789 22 1797 1800
1790 22 1797 1801
1791 22 1799 1802
1792 22 1799 1803
1793 13 1804 1806
1794 16 1805 1806
1795 22 1804 1807
1796 22 1804 1808
1797 22 1806 1809
1798 22 1806 1810
1799 13 1811 1813
1800 16 1812 1813
1801 22 1811 1814
1802 22 1811 1815
1803 22 1813 1816
1804 22 1813 1817
1805 13 1818 1820
1806 16 1819 1820
1807 22 1818 1821
1808 22 1818 1822
1809 22 1820 1823
1810 22 1820 1824
1811 13 1825 1827
1812 16 1826 1827
1813 22 1825 1828
1814 22 1825 1829
1815 22 1827 1830
1816 22 1827 1831
1817 13 1832 1834
1818 16 1833 1834
1819 22 1832 1835
1820 22 1832 1836
1821 22 1834 1837
1822 22 1834 1838
1823 13 1839 1841
1824 16 1840 1841
1825 22 1839 1842
1826 22 1839 1843
1827 22 1841 1844
1828 22 1841 1845
1829 13 1846 1848
1830 16 1847 1848
1831 22 1846 1849
1832 22 1846 1850
1833 22 1848 1851
1834 22 1848 1852
1835 13 1853 1855
1836 16 1854 1855
1837 22 1853 1856
1838 22 1853 1857
1839 22 1855 1858
1840 22 1855 1859
1841 13 1860 1862
1842 16 1861 1862
1843 22 1860 1863
1844 22 1860 1864
1845 22 1862 1865
1846 22 1862 1866
1847 13 1867 1869
1848 16 1868 1869
1849 22 1867 1870
1850 22 1867 1871
1851 22 1869 1872
1852 22 1869 1873
1853 13 1874 1876
1854 16 1875 1876
1855 22 1874 1877
1856 22 1874 1878
1857 22 1876 1879
1858 22 1876 1880
1859 13 1881 1883
1860 16 1882 1883
1861 22 1881 1884
1862 22 1881 1885
1863 22 1883 1886
1864 22 1883 1887
1865 13 1888 1890
1866 16 1889 1890
1867 22 1888 1891
1868 22 1888 1892
1869 22 1890 1893
1870 22 1890 1894
1871 13 1895 1897
1872 16 1896 1897
1873 22 1895 1898
1874 22 1895 1899
1875 22 1897 1900
1876 22 1897 1901
1877 13 1902 1904
1878 16 1903 1904
1879 22 1902 1905
1880 22 1902 1906
1881 22 1904 1907
1882 22 1904 1908
1883 13 1909 1911
1884 16 1910 1911
1885 22 1909 1912
1886 22 1909 1913
1887 22 1911 1914
1888 22 1911 1915
1889 13 1916 1918
1890 16 1917 1918
1891 22 1916 1919
1892 22 1916 1920
1893 22 1918 1921
1894 22 1918 1922
1895 13 1923 1925
1896 16 1924 1925
1897 22 1923 1926
1898 22 1923 1927
1899 22 1925 1928
1900 22 1925 1929
1901 13 1930 1932
1902 16 1931 1932
1903 22 1930 1933
1904 22 1930 1934
1905 22 1932 1935
1906 22 1932 1936
1907 13 1937 1939
1908 16 1938 1939
1909 22 1937 1940
1910 22 1937 1941
1911 22 1939 1942
1912 22 1939 1943
1913 13 1944 1946
1914 16 1945 1946
1915 22 1944 1947
1916 22 1944 1948
1917 22 1946 1949
1918 22 1946 1950
1919 13 1951 1953
1920 16 1952 1953
1921 22 1951 1954
1922 22 1951 1955
1923 22 1953 1956
1924 22 1953 1957
1925 13 1958 1960
1926 16 1959 1960
1927 22 1958 1961
1928 22 1958 1962
1929 22 1960 1963
1930 22 1960 1964
1931 13 1965 1967
1932 16 1966 1967
1933 22 1965 1968
1934 22 1965 1969
1935 22 1967 1970
1936 22 1967 1971
1937 13 1972 1974
1938 16 1973 1974
1939 22 1972 1975
1940 22 1972 1976
1941 22 1974 1977
1942 22 1974 1978
1943 13 1979 1981
1944 16 1980 1981
1945 22 1979 1982
1946 22 1979 1983
1947 22 1981 1984
1948 22 1981 1985
1949 13 1986 1988
1950 16 1987 1988
1951 22 1986 1989
1952 22 1986 1990
1953 22 1988 1991
1954 22 1988 1992
1955 13 1993 1995
1956 16 1994 1995
1957 22 1993 1996
1958 22 1993 1997
1959 22 1995 1998
1960 22 1995 1999
1961 13 2000 2002
1962 16 2001 2002
1963 22 2000 2003
1964 22 2000 2004
1965 22 2002 2005
1966 22 2002 2006
1967 13 2007 2009
1968 16 2008 2009
1969 22 2007 2010
1970 22 2007 2011
1971 22 2009 2012
1972 22 2009 2013
1973 13 2014 2016
1974 16 2015 2016
1975 22 2014 2017
1976 22 2014 2018
1977 22 2016 2019
1978 22 2016 2020
1979 13 2021 2023
1980 16 2022 2023
1981 22 2021 2024
1982 22 2021 2025
1983 22 2023 2026
1984 22 2023 2027
1985 13 2028 2030
1986 16 2029 2030
1987 22 2028 2031
1988 22 2028 2032
1989 22 2030 2033
1990 22 2030 2034
1991 13 2035 2037
1992 16 2036 2037
1993 22 2035 2038
1994 22 2035 2039
1995 22 2037 2040
1996 22 2037 2041
1997 13 2042 2044
1998 16 2043 2044
1999 22 2042 2045
2000 22 2042 2046
2001 22 2044 2047
2002 22 2044 2048
2003 13 2049 2051
2004 16 2050 2051
2005 22 2049 2052
2006 22 2049 2053
2007 22 2051 2054
2008 22 2051 2055
2009 13 2056 2058
2010 16 2057 2058
2011 22 2056 2059
2012 22 2056 2060
2013 22 2058 2061
2014 22 2058 2062
2015 13 2063 2065
2016 16 2064 2065
2017 22 2063 2066
2018 22 2063 2067
2019 22 2065 2068
2020 22 2065 2069
2021 13 2070 2072
2022 16 2071 2072
2023 22 2070 2073
2024 22 2070 2074
2025 22 2072 2075
2026 22 2072 2076
2027 13 2077 2079
2028 16 2078 2079
2029 22 2077 2080
2030 22 2077 2081
2031 22 2079 2082
2032 22 2079 2083
2033 13 2084 2086
2034 16 2085 2086
2035 22 2084 2087
2036 22 2084 2088
2037 22 2086 2089
2038 22 2086 2090
2039 13 2091 2093
2040 16 2092 2093
2041 22 2091 2094
2042 22 2091 2095
2043 22 2093 2096
2044 22 2093 2097
2045 13 2098 2100
2046 16 2099 2100
2047 22 2098 2101
2048 22 2098 2102
2049 22 2100 2103
2050 22 2100 2104
2051 12 2105 2106
2052 3 2106 2107
2053 21 2105 2108
2054 21 2105 2109
2055 19 2106 2110
2056 19 2106 2111
2057 1 2107 2112
2058 16 1762 1769
2059 16 1770 1776
2060 16 1777 1783
2061 16 1784 1790
2062 16 1791 1797
2063 16 1798 1804
2064 16 1805 1811
2065 16 1812 1818
2066 16 1819 1825
2067 16 1826 1832
2068 16 1833 1839
2069 16 1840 1846
2070 16 1847 1853
2071 16 1854 1860
2072 16 1861 1867
2073 16 1868 1874
2074 16 1875 1881
2075 16 1882 1888
2076 16 1889 1895
2077 16 1896 1902
2078 16 1903 1909
2079 16 1910 1916
2080 16 1917 1923
2081 16 1924 1930
2082 16 1931 1937
2083 16 1938 1944
2084 16 1945 1951
2085 16 1952 1958
2086 16 1959 1965
2087 16 1966 1972
2088 16 1973 1979
2089 16 1980 1986
2090 16 1987 1993
2091 16 1994 2000
2092 16 2001 2007
2093 16 2008 2014
2094 16 2015 2021
2095 16 2022 2028
2096 16 2029 2035
2097 16 2036 2042
2098 16 2043 2049
2099 16 2050 2056
2100 16 2057 2063
2101 16 2064 2070
2102 16 2071 2077
2103 16 2078 2084
2104 16 2085 2091
2105 16 2092 2098
2106 16 2099 2105
2107 11 2113 2115
2108 16 2114 2115
2109 17 2113 2116
2110 17 2113 2117
2111 17 2113 2118
2112 22 2115 2119
2113 22 2115 2120
2114 13 2121 2123
2115 16 2122 2123
2116 22 2121 2124
2117 22 2121 2125
2118 22 2123 2126
2119 22 2123 2127
2120 13 2128 2130
2121 16 2129 2130
2122 22 2128 2131
2123 22 2128 2132
2124 22 2130 2133
2125 22 2130 2134
2126 13 2135 2137
2127 16 2136 2137
2128 22 2135 2138
2129 22 2135 2139
2130 22 2137 2140
2131 22 2137 2141
2132 13 2142 2144
2133 16 2143 2144
2134 22 2142 2145
2135 22 2142 2146
2136 22 2144 2147
2137 22 2144 2148
2138 13 2149 2151
2139 16 2150 2151
2140 22 2149 2152
2141 22 2149 2153
2142 22 2151 2154
2143 22 2151 2155
2144 13 2156 2158
2145 16 2157 2158
2146 22 2156 2159
2147 22 2156 2160
2148 22 2158 2161
2149 22 2158 2162
2150 13 2163 2165
2151 16 2164 2165
2152 22 2163 2166
2153 22 2163 2167
2154 22 2165 2168
2155 22 2165 2169
2156 13 2170 2172
2157 16 2171 2172
2158 22 2170 2173
2159 22 2170 2174
2160 22 2172 2175
2161 22 2172 2176
2162 13 2177 2179
2163 16 2178 2179
2164 22 2177 2180
2165 22 2177 2181
2166 22 2179 2182
2167 22 2179 2183
2168 13 2184 2186
2169 16 2185 2186
2170 22 2184 2187
2171 22 2184 2188
2172 22 2186 2189
2173 22 2186 2190
2174 13 2191 2193
2175 16 2192 2193
2176 22 2191 2194
2177 22 2191 2195
2178 22 2193 2196
2179 22 2193 2197
2180 13 2198 2200
2181 16 2199 2200
2182 22 2198 2201
2183 22 2198 2202
2184 22 2200 2203
2185 22 2200 2204
2186 13 2205 2207
2187 16 2206 2207
2188 22 2205 2208
2189 22 2205 2209
2190 22 2207 2210
2191 22 2207 2211
2192 13 2212 2214
2193 16 2213 2214
2194 22 2212 2215
2195 22 2212 2216
2196 22 2214 2217
2197 22 2214 2218
2198 13 2219 2221
2199 16 2220 2221
2200 22 2219 2222
2201 22 2219 2223
2202 22 2221 2224
2203 22 2221 2225
2204 13 2226 2228
2205 16 2227 2228
2206 22 2226 2229
2207 22 2226 2230
2208 22 2228 2231
2209 22 2228 2232
2210 13 2233 2235
2211 16 2234 2235
2212 22 2233 2236
2213 22 2233 2237
2214 22 2235 2238
2215 22 2235 2239
2216 13 2240 2242
2217 16 2241 2242
2218 22 2240 2243
2219 22 2240 2244
2220 22 2242 2245
2221 22 2242 2246
2222 13 2247 2249
2223 16 2248 2249
2224 22 2247 2250
2225 22 2247 2251
2226 22 2249 2252
2227 22 2249 2253
2228 13 2254 2256
2229 16 2255 2256
2230 22 2254 2257
2231 22 2254 2258
2232 22 2256 2259
2233 22 2256 2260
2234 13 2261 2263
2235 16 2262 2263
2236 22 2261 2264
2237 22 2261 2265
2238 22 2263 2266
2239 22 2263 2267
2240 13 2268 2270
2241 16 2269 2270
2242 22 2268 2271
2243 22 2268 2272
2244 22 2270 2273
2245 22 2270 2274
2246 13 2275 2277
2247 16 2276 2277
2248 22 2275 2278
2249 22 2275 2279
2250 22 2277 2280
2251 22 2277 2281
2252 13 2282 2284
2253 16 2283 2284
2254 22 2282 2285
2255 22 2282 2286
2256 22 2284 2287
2257 22 2284 2288
2258 13 2289 2291
2259 16 2290 2291
2260 22 2289 2292
2261 22 2289 2293
2262 22 2291 2294
2263 22 2291 2295
2264 13 2296 2298
2265 16 2297 2298
2266 22 2296 2299
2267 22 2296 2300
2268 22 2298 2301
2269 22 2298 2302
2270 13 2303 2305
2271 16 2304 2305
2272 22 2303 2306
2273 22 2303 2307
2274 22 2305 2308
2275 22 2305 2309
2276 13 2310 2312
2277 16 2311 2312
2278 22 2310 2313
2279 22 2310 2314
2280 22 2312 2315
2281 22 2312 2316
2282 13 2317 2319
2283 16 2318 2319
2284 22 2317 2320
2285 22 2317 2321
2286 22 2319 2322
2287 22 2319 2323
2288 13 2324 2326
2289 16 2325 2326
2290 22 2324 2327
2291 22 2324 2328
2292 22 2326 2329
2293 22 2326 2330
2294 13 2331 2333
2295 16 2332 2333
2296 22 2331 2334
2297 22 2331 2335
2298 22 2333 2336
2299 22 2333 2337
2300 13 2338 2340
2301 16 2339 2340
2302 22 2338 2341
2303 22 2338 2342
2304 22 2340 2343
2305 22 2340 2344
2306 13 2345 2347
2307 16 2346 2347
2308 22 2345 2348
2309 22 2345 2349
2310 22 2347 2350
2311 22 2347 2351
2312 13 2352 2354
2313 16 2353 2354
2314 22 2352 2355
2315 22 2352 2356
2316 22 2354 2357
2317 22 2354 2358
2318 13 2359 2361
2319 16 2360 2361
2320 22 2359 2362
2321 22 2359 2363
2322 22 2361 2364
2323 22 2361 2365
2324 13 2366 2368
2325 16 2367 2368
2326 22 2366 2369
2327 22 2366 2370
2328 22 2368 2371
2329 22 2368 2372
2330 13 2373 2375
2331 16 2374 2375
2332 22 2373 2376
2333 22 2373 2377
2334 22 2375 2378
2335 22 2375 2379
2336 13 2380 2382
2337 16 2381 2382
2338 22 2380 2383
2339 22 2380 2384
2340 22 2382 2385
2341 22 2382 2386
2342 13 2387 2389
2343 16 2388 2389
2344 22 2387 2390
2345 22 2387 2391
2346 22 2389 2392
2347 22 2389 2393
2348 13 2394 2396
2349 16 2395 2396
2350 22 2394 2397
2351 22 2394 2398
2352 22 2396 2399
2353 22 2396 2400
2354 13 2401 2403
2355 16 2402 2403
2356 22 2401 2404
2357 22 2401 2405
2358 22 2403 2406
2359 22 2403 2407
2360 13 2408 2410
2361 16 2409 2410
2362 22 2408 2411
2363 22 2408 2412
2364 22 2410 2413
2365 22 2410 2414
2366 13 2415 2417
2367 16 2416 2417
2368 22 2415 2418
2369 22 2415 2419
2370 22 2417 2420
2371 22 2417 2421
2372 13 2422 2424
2373 16 2423 2424
2374 22 2422 2425
2375 22 2422 2426
2376 22 2424 2427
2377 22 2424 2428
2378 13 2429 2431
2379 16 2430 2431
2380 22 2429 2432
2381 22 2429 2433
2382 22 2431 2434
2383 22 2431 2435
2384 13 2436 2438
2385 16 2437 2438
2386 22 2436 2439
2387 22 2436 2440
2388 22 2438 2441
2389 22 2438 2442
2390 13 2443 2445
2391 16 2444 2445
2392 22 2443 2446
2393 22 2443 2447
2394 22 2445 2448
2395 22 2445 2449
2396 13 2450 2452
2397 16 2451 2452
2398 22 2450 2453
2399 22 2450 2454
2400 22 2452 2455
2401 22 2452 2456
2402 12 2457 2458
2403 3 2458 2459
2404 21 2457 2460
2405 21 2457 2461
2406 19 2458 2462
2407 19 2458 2463
2408 1 2459 2464
2409 16 2114 2121
2410 16 2122 2128
2411 16 2129 2135
2412 16 2136 2142
2413 16 2143 2149
2414 16 2150 2156
2415 16 2157 2163
2416 16 2164 2170
2417 16 2171 2177
2418 16 2178 2184
2419 16 2185 2191
2420 16 2192 2198
2421 16 2199 2205
2422 16 2206 2212
2423 16 2213 2219
2424 16 2220 2226
2425 16 2227 2233
2426 16 2234 2240
2427 16 2241 2247
2428 16 2248 2254
2429 16 2255 2261
2430 16 2262 2268
2431 16 2269 2275
2432 16 2276 2282
2433 16 2283 2289
2434 16 2290 2296
2435 16 2297 2303
2436 16 2304 2310
2437 16 2311 2317
2438 16 2318 2324
2439 16 2325 2331
2440 16 2332 2338
2441 16 2339 2345
2442 16 2346 2352
2443 16 2353 2359
2444 16 2360 2366
2445 16 2367 2373
2446 16 2374 2380
2447 16 2381 2387
2448 16 2388 2394
2449 16 2395 2401
2450 16 2402 2408
2451 16 2409 2415
2452 16 2416 2422
2453 16 2423 2429
2454 16 2430 2436
2455 16 2437 2443
2456 16 2444 2450
2457 16 2451 2457
2458 11 2465 2467
2459 16 2466 2467
2460 17 2465 2468
2461 17 2465 2469
2462 17 2465 2470
2463 22 2467 2471
2464 22 2467 2472
2465 13 2473 2475
2466 16 2474 2475
2467 22 2473 2476
2468 22 2473 2477
2469 22 2475 2478
2470 22 2475 2479
2471 13 2480 2482
2472 16 2481 2482
2473 22 2480 2483
2474 22 2480 2484
2475 22 2482 2485
2476 22 2482 2486
2477 13 2487 2489
2478 16 2488 2489
2479 22 2487 2490
2480 22 2487 2491
2481 22 2489 2492
2482 22 2489 2493
2483 13 2494 2496
2484 16 2495 2496
2485 22 2494 2497
2486 22 2494 2498
2487 22 2496 2499
2488 22 2496 2500
2489 13 2501 2503
2490 16 2502 2503
2491 22 2501 2504
2492 22 2501 2505
2493 22 2503 2506
2494 22 2503 2507
2495 13 2508 2510
2496 16 2509 2510
2497 22 2508 2511
2498 22 2508 2512
2499 22 2510 2513
2500 22 2510 2514
2501 13 2515 2517
2502 16 2516 2517
2503 22 2515 2518
2504 22 2515 2519
2505 22 2517 2520
2506 22 2517 2521
2507 13 2522 2524
2508 16 2523 2524
2509 22 2522 2525
2510 22 2522 2526
2511 22 2524 2527
2512 22 2524 2528
2513 13 2529 2531
2514 16 2530 2531
2515 22 2529 2532
2516 22 2529 2533
2517 22 2531 2534
2518 22 2531 2535
2519 13 2536 2538
2520 16 2537 2538
2521 22 2536 2539
2522 22 2536 2540
2523 22 2538 2541
2524 22 2538 2542
2525 13 2543 2545
2526 16 2544 2545
2527 22 2543 2546
2528 22 2543 2547
2529 22 2545 2548
2530 22 2545 2549
2531 13 2550 2552
2532 16 2551 2552
2533 22 2550 2553
2534 22 2550 2554
2535 22 2552 2555
2536 22 2552 2556
2537 13 2557 2559
2538 16 2558 2559
2539 22 2557 2560
2540 22 2557 2561
2541 22 2559 2562
2542 22 2559 2563
2543 13 2564 2566
2544 16 2565 2566
2545 22 2564 2567
2546 22 2564 2568
2547 22 2566 2569
2548 22 2566 2570
2549 13 2571 2573
2550 16 2572 2573
2551 22 2571 2574
2552 22 2571 2575
2553 22 2573 2576
2554 22 2573 2577
2555 13 2578 2580
2556 16 2579 2580
2557 22 2578 2581
2558 22 2578 2582
2559 22 2580 2583
2560 22 2580 2584
2561 13 2585 2587
2562 16 2586 2587
2563 22 2585 2588
2564 22 2585 2589
2565 22 2587 2590
2566 22 2587 2591
2567 13 2592 2594
2568 16 2593 2594
2569 22 2592 2595
2570 22 2592 2596
2571 22 2594 2597
2572 22 2594 2598
2573 13 2599 2601
2574 16 2600 2601
2575 22 2599 2602
2576 22 2599 2603
2577 22 2601 2604
2578 22 2601 2605
2579 13 2606 2608
2580 16 2607 2608
2581 22 2606 2609
2582 22 2606 2610
2583 22 2608 2611
2584 22 2608 2612
2585 13 2613 2615
2586 16 2614 2615
2587 22 2613 2616
2588 22 2613 2617
2589 22 2615 2618
2590 22 2615 2619
2591 13 2620 2622
2592 16 2621 2622
2593 22 2620 2623
2594 22 2620 2624
2595 22 2622 2625
2596 22 2622 2626
2597 13 2627 2629
2598 16 2628 2629
2599 22 2627 2630
2600 22 2627 2631
2601 22 2629 2632
2602 22 2629 2633
2603 13 2634 2636
2604 16 2635 2636
2605 22 2634 2637
2606 22 2634 2638
2607 22 2636 2639
2608 22 2636 2640
2609 13 2641 2643
2610 16 2642 2643
2611 22 2641 2644
2612 22 2641 2645
2613 22 2643 2646
2614 22 2643 2647
2615 13 2648 2650
2616 16 2649 2650
2617 22 2648 2651
2618 22 2648 2652
2619 22 2650 2653
2620 22 2650 2654
2621 13 2655 2657
2622 16 2656 2657
2623 22 2655 2658
2624 22 2655 2659
2625 22 2657 2660
2626 22 2657 2661
2627 13 2662 2664
2628 16 2663 2664
2629 22 2662 2665
2630 22 2662 2666
2631 22 2664 2667
2632 22 2664 2668
2633 13 2669 2671
2634 16 2670 2671
2635 22 2669 2672
2636 22 2669 2673
2637 22 2671 2674
2638 22 2671 2675
2639 13 2676 2678
2640 16 2677 2678
2641 22 2676 2679
2642 22 2676 2680
2643 22 2678 2681
2644 22 2678 2682
2645 13 2683 2685
2646 16 2684 2685
2647 22 2683 2686
2648 22 2683 2687
2649 22 2685 2688
2650 22 2685 2689
2651 13 2690 2692
2652 16 2691 2692
2653 22 2690 2693
2654 22 2690 2694
2655 22 2692 2695
2656 22 2692 2696
2657 13 2697 2699
2658 16 2698 2699
2659 22 2697 2700
2660 22 2697 2701
2661 22 2699 2702
2662 22 2699 2703
2663 13 2704 2706
2664 16 2705 2706
2665 22 2704 2707
2666 22 2704 2708
2667 22 2706 2709
2668 22 2706 2710
2669 13 2711 2713
2670 16 2712 2713
2671 22 2711 2714
2672 22 2711 2715
2673 22 2713 2716
2674 22 2713 2717
2675 13 2718 2720
2676 16 2719 2720
2677 22 2718 2721
2678 22 2718 2722
2679 22 2720 2723
2680 22 2720 2724
2681 13 2725 2727
2682 16 2726 2727
2683 22 2725 2728
2684 22 2725 2729
2685 22 2727 2730
2686 22 2727 2731
2687 13 2732 2734
2688 16 2733 2734
2689 22 2732 2735
2690 22 2732 2736
2691 22 2734 2737
2692 22 2734 2738
2693 13 2739 2741
2694 16 2740 2741
2695 22 2739 2742
2696 22 2739 2743
2697 22 2741 2744
2698 22 2741 2745
2699 13 2746 2748
2700 16 2747 2748
2701 22 2746 2749
2702 22 2746 2750
2703 22 2748 2751
2704 22 2748 2752
2705 13 2753 2755
2706 16 2754 2755
2707 22 2753 2756
2708 22 2753 2757
2709 22 2755 2758
2710 22 2755 2759
2711 13 2760 2762
2712 16 2761 2762
2713 22 2760 2763
2714 22 2760 2764
2715 22 2762 2765
2716 22 2762 2766
2717 13 2767 2769
2718 16 2768 2769
2719 22 2767 2770
2720 22 2767 2771
2721 22 2769 2772
2722 22 2769 2773
2723 13 2774 2776
2724 16 2775 2776
2725 22 2774 2777
2726 22 2774 2778
2727 22 2776 2779
2728 22 2776 2780
2729 13 2781 2783
2730 16 2782 2783
2731 22 2781 2784
2732 22 2781 2785
2733 22 2783 2786
2734 22 2783 2787
2735 13 2788 2790
2736 16 2789 2790
2737 22 2788 2791
2738 22 2788 2792
2739 22 2790 2793
2740 22 2790 2794
2741 13 2795 2797
2742 16 2796 2797
2743 22 2795 2798
2744 22 2795 2799
2745 22 2797 2800
2746 22 2797 2801
2747 13 2802 2804
2748 16 2803 2804
2749 22 2802 2805
2750 22 2802 2806
2751 22 2804 2807
2752 22 2804 2808
2753 12 2809 2810
2754 3 2810 2811
2755 21 2809 2812
2756 21 2809 2813
2757 19 2810 2814
2758 19 2810 2815
2759 1 2811 2816
2760 16 2466 2473
2761 16 2474 2480
2762 16 2481 2487
2763 16 2488 2494
2764 16 2495 2501
2765 16 2502 2508
2766 16 2509 2515
2767 16 2516 2522
2768 16 2523 2529
2769 16 2530 2536
2770 16 2537 2543
2771 16 2544 2550
2772 16 2551 2557
2773 16 2558 2564
2774 16 2565 2571
2775 16 2572 2578
2776 16 2579 2585
2777 16 2586 2592
2778 16 2593 2599
2779 16 2600 2606
2780 16 2607 2613
2781 16 2614 2620
2782 16 2621 2627
2783 16 2628 2634
2784 16 2635 2641
2785 16 2642 2648
2786 16 2649 2655
2787 16 2656 2662
2788 16 2663 2669
2789 16 2670 2676
2790 16 2677 2683
2791 16 2684 2690
2792 16 2691 2697
2793 16 2698 2704
2794 16 2705 2711
2795 16 2712 2718
2796 16 2719 2725
2797 16 2726 2732
2798 16 2733 2739
2799 16 2740 2746
2800 16 2747 2753
2801 16 2754 2760
2802 16 2761 2767
2803 16 2768 2774
2804 16 2775 2781
2805 16 2782 2788
2806 16 2789 2795
2807 16 2796 2802
2808 16 2803 2809
2809 11 2817 2819
2810 16 2818 2819
2811 17 2817 2820
2812 17 2817 2821
2813 17 2817 2822
2814 22 2819 2823
2815 22 2819 2824
2816 13 2825 2827
2817 16 2826 2827
2818 22 2825 2828
2819 22 2825 2829
2820 22 2827 2830
2821 22 2827 2831
2822 13 2832 2834
2823 16 2833 2834
2824 22 2832 2835
2825 22 2832 2836
2826 22 2834 2837
2827 22 2834 2838
2828 13 2839 2841
2829 16 2840 2841
2830 22 2839 2842
2831 22 2839 2843
2832 22 2841 2844
2833 22 2841 2845
2834 13 2846 2848
2835 16 2847 2848
2836 22 2846 2849
2837 22 2846 2850
2838 22 2848 2851
2839 22 2848 2852
2840 13 2853 2855
2841 16 2854 2855
2842 22 2853 2856
2843 22 2853 2857
2844 22 2855 2858
2845 22 2855 2859
2846 13 2860 2862
2847 16 2861 2862
2848 22 2860 2863
2849 22 2860 2864
2850 22 2862 2865
2851 22 2862 2866
2852 13 2867 2869
2853 16 2868 2869
2854 22 2867 2870
2855 22 2867 2871
2856 22 2869 2872
2857 22 2869 2873
2858 13 2874 2876
2859 16 2875 2876
2860 22 2874 2877
2861 22 2874 2878
2862 22 2876 2879
2863 22 2876 2880
2864 13 2881 2883
2865 16 2882 2883
2866 22 2881 2884
2867 22 2881 2885
2868 22 2883 2886
2869 22 2883 2887
2870 13 2888 2890
2871 16 2889 2890
2872 22 2888 2891
2873 22 2888 2892
2874 22 2890 2893
2875 22 2890 2894
2876 13 2895 2897
2877 16 2896 2897
2878 22 2895 2898
2879 22 2895 2899
2880 22 2897 2900
2881 22 2897 2901
2882 13 2902 2904
2883 16 2903 2904
2884 22 2902 2905
2885 22 2902 2906
2886 22 2904 2907
2887 22 2904 2908
2888 13 2909 2911
2889 16 2910 2911
2890 22 2909 2912
2891 22 2909 2913
2892 22 2911 2914
2893 22 2911 2915
2894 13 2916 2918
2895 16 2917 2918
2896 22 2916 2919
2897 22 2916 2920
2898 22 2918 2921
2899 22 2918 2922
2900 13 2923 2925
2901 16 2924 2925
2902 22 2923 2926
2903 22 2923 2927
2904 22 2925 2928
2905 22 2925 2929
2906 13 2930 2932
2907 16 2931 2932
2908 22 2930 2933
2909 22 2930 2934
2910 22 2932 2935
2911 22 2932 2936
2912 13 2937 2939
2913 16 2938 2939
2914 22 2937 2940
2915 22 2937 2941
2916 22 2939 2942
2917 22 2939 2943
2918 13 2944 2946
2919 16 2945 2946
2920 22 2944 2947
2921 22 2944 2948
2922 22 2946 2949
2923 22 2946 2950
2924 13 2951 2953
2925 16 2952 2953
2926 22 2951 2954
2927 22 2951 2955
2928 22 2953 2956
2929 22 2953 2957
2930 13 2958 2960
2931 16 2959 2960
2932 22 2958 2961
2933 22 2958 2962
2934 22 2960 2963
2935 22 2960 2964
2936 13 2965 2967
2937 16 2966 2967
2938 22 2965 2968
2939 22 2965 2969
2940 22 2967 2970
2941 22 2967 2971
2942 13 2972 2974
2943 16 2973 2974
2944 22 2972 2975
2945 22 2972 2976
2946 22 2974 2977
2947 22 2974 2978
2948 13 2979 2981
2949 16 2980 2981
2950 22 2979 2982
2951 22 2979 2983
2952 22 2981 2984
2953 22 2981 2985
2954 13 2986 2988
2955 16 2987 2988
2956 22 2986 2989
2957 22 2986 2990
2958 22 2988 2991
2959 22 2988 2992
2960 13 2993 2995
2961 16 2994 2995
2962 22 2993 2996
2963 22 2993 2997
2964 22 2995 2998
2965 22 2995 2999
2966 13 3000 3002
2967 16 3001 3002
2968 22 3000 3003
2969 22 3000 3004
2970 22 3002 3005
2971 22 3002 3006
2972 13 3007 3009
2973 16 3008 3009
2974 22 3007 3010
2975 22 3007 3011
2976 22 3009 3012
2977 22 3009 3013
2978 13 3014 3016
2979 16 3015 3016
2980 22 3014 3017
2981 22 3014 3018
2982 22 3016 3019
2983 22 3016 3020
2984 13 3021 3023
2985 16 3022 3023
2986 22 3021 3024
2987 22 3021 3025
2988 22 3023 3026
2989 22 3023 3027
2990 13 3028 3030
2991 16 3029 3030
2992 22 3028 3031
2993 22 3028 3032
2994 22 3030 3033
2995 22 3030 3034
2996 13 3035 3037
2997 16 3036 3037
2998 22 3035 3038
2999 22 3035 3039
3000 22 3037 3040
3001 22 3037 3041
3002 13 3042 3044
3003 16 3043 3044
3004 22 3042 3045
3005 22 3042 3046
3006 22 3044 3047
3007 22 3044 3048
3008 13 3049 3051
3009 16 3050 3051
3010 22 3049 3052
3011 22 3049 3053
3012 22 3051 3054
3013 22 3051 3055
3014 13 3056 3058
3015 16 3057 3058
3016 22 3056 3059
3017 22 3056 3060
3018 22 3058 3061
3019 22 3058 3062
3020 13 3063 3065
3021 16 3064 3065
3022 22 3063 3066
3023 22 3063 3067
3024 22 3065 3068
3025 22 3065 3069
3026 13 3070 3072
3027 16 3071 3072
3028 22 3070 3073
3029 22 3070 3074
3030 22 3072 3075
3031 22 3072 3076
3032 13 3077 3079
3033 16 3078 3079
3034 22 3077 3080
3035 22 3077 3081
3036 22 3079 3082
3037 22 3079 3083
3038 13 3084 3086
3039 16 3085 3086
3040 22 3084 3087
3041 22 3084 3088
3042 22 3086 3089
3043 22 3086 3090
3044 13 3091 3093
3045 16 3092 3093
3046 22 3091 3094
3047 22 3091 3095
3048 22 3093 3096
3049 22 3093 3097
3050 13 3098 3100
3051 16 3099 3100
3052 22 3098 3101
3053 22 3098 3102
3054 22 3100 3103
3055 22 3100 3104
3056 13 3105 3107
3057 16 3106 3107
3058 22 3105 3108
3059 22 3105 3109
3060 22 3107 3110
3061 22 3107 3111
3062 13 3112 3114
3063 16 3113 3114
3064 22 3112 3115
3065 22 3112 3116
3066 22 3114 3117
3067 22 3114 3118
3068 13 3119 3121
3069 16 3120 3121
3070 22 3119 3122
3071 22 3119 3123
3072 22 3121 3124
3073 22 3121 3125
3074 13 3126 3128
3075 16 3127 3128
3076 22 3126 3129
3077 22 3126 3130
3078 22 3128 3131
3079 22 3128 3132
3080 13 3133 3135
3081 16 3134 3135
3082 22 3133 3136
3083 22 3133 3137
3084 22 3135 3138
3085 22 3135 3139
3086 13 3140 3142
3087 16 3141 3142
3088 22 3140 3143
3089 22 3140 3144
3090 22 3142 3145
3091 22 3142 3146
3092 13 3147 3149
3093 16 3148 3149
3094 22 3147 3150
3095 22 3147 3151
3096 22 3149 3152
3097 22 3149 3153
3098 13 3154 3156
3099 16 3155 3156
3100 22 3154 3157
3101 22 3154 3158
3102 22 3156 3159
3103 22 3156 3160
3104 12 3161 3162
3105 3 3162 3163
3106 21 3161 3164
3107 21 3161 3165
3108 19 3162 3166
3109 19 3162 3167
3110 1 3163 3168
3111 16 2818 2825
3112 16 2826 2832
3113 16 2833 2839
3114 16 2840 2846
3115 16 2847 2853
3116 16 2854 2860
3117 16 2861 2867
3118 16 2868 2874
3119 16 2875 2881
3120 16 2882 2888
3121 16 2889 2895
3122 16 2896 2902
3123 16 2903 2909
3124 16 2910 2916
3125 16 2917 2923
3126 16 2924 2930
3127 16 2931 2937
3128 16 2938 2944
3129 16 2945 2951
3130 16 2952 2958
3131 16 2959 2965
3132 16 2966 2972
3133 16 2973 2979
3134 16 2980 2986
3135 16 2987 2993
3136 16 2994 3000
3137 16 3001 3007
3138 16 3008 3014
3139 16 3015 3021
3140 16 3022 3028
3141 16 3029 3035
3142 16 3036 3042
3143 16 3043 3049
3144 16 3050 3056
3145 16 3057 3063
3146 16 3064 3070
3147 16 3071 3077
3148 16 3078 3084
3149 16 3085 3091
3150 16 3092 3098
3151 16 3099 3105
3152 16 3106 3112
3153 16 3113 3119
3154 16 3120 3126
3155 16 3127 3133
3156 16 3134 3140
3157 16 3141 3147
3158 16 3148 3154
3159 16 3155 3161
3160 11 3169 3171
3161 16 3170 3171
3162 17 3169 3172
3163 17 3169 3173
3164 17 3169 3174
3165 22 3171 3175
3166 22 3171 3176
3167 13 3177 3179
3168 16 3178 3179
3169 22 3177 3180
3170 22 3177 3181
3171 22 3179 3182
3172 22 3179 3183
3173 13 3184 3186
3174 16 3185 3186
3175 22 3184 3187
3176 22 3184 3188
3177 22 3186 3189
3178 22 3186 3190
3179 13 3191 3193
3180 16 3192 3193
3181 22 3191 3194
3182 22 3191 3195
3183 22 3193 3196
3184 22 3193 3197
3185 13 3198 3200
3186 16 3199 3200
3187 22 3198 3201
3188 22 3198 3202
3189 22 3200 3203
3190 22 3200 3204
3191 13 3205 3207
3192 16 3206 3207
3193 22 3205 3208
3194 22 3205 3209
3195 22 3207 3210
3196 22 3207 3211
3197 13 3212 3214
3198 16 3213 3214
3199 22 3212 3215
3200 22 3212 3216
3201 22 3214 3217
3202 22 3214 3218
3203 13 3219 3221
3204 16 3220 3221
3205 22 3219 3222
3206 22 3219 3223
3207 22 3221 3224
3208 22 3221 3225
3209 13 3226 3228
3210 16 3227 3228
3211 22 3226 3229
3212 22 3226 3230
3213 22 3228 3231
3214 22 3228 3232
3215 13 3233 3235
3216 16 3234 3235
3217 22 3233 3236
3218 22 3233 3237
3219 22 3235 3238
3220 22 3235 3239
3221 13 3240 3242
3222 16 3241 3242
3223 22 3240 3243
3224 22 3240 3244
3225 22 3242 3245
3226 22 3242 3246
3227 13 3247 3249
3228 16 3248 3249
3229 22 3247 3250
3230 22 3247 3251
3231 22 3249 3252
3232 22 3249 3253
3233 13 3254 3256
3234 16 3255 3256
3235 22 3254 3257
3236 22 3254 3258
3237 22 3256 3259
3238 22 3256 3260
3239 13 3261 3263
3240 16 3262 3263
3241 22 3261 3264
3242 22 3261 3265
3243 22 3263 3266
3244 22 3263 3267
3245 13 3268 3270
3246 16 3269 3270
3247 22 3268 3271
3248 22 3268 3272
3249 22 3270 3273
3250 22 3270 3274
3251 13 3275 3277
3252 16 3276 3277
3253 22 3275 3278
3254 22 3275 3279
3255 22 3277 3280
3256 22 3277 3281
3257 13 3282 3284
3258 16 3283 3284
3259 22 3282 3285
3260 22 3282 3286
3261 22 3284 3287
3262 22 3284 3288
3263 13 3289 3291
3264 16 3290 3291
3265 22 3289 3292
3266 22 3289 3293
3267 22 3291 3294
3268 22 3291 3295
3269 13 3296 3298
3270 16 3297 3298
3271 22 3296 3299
3272 22 3296 3300
3273 22 3298 3301
3274 22 3298 3302
3275 13 3303 3305
3276 16 3304 3305
3277 22 3303 3306
3278 22 3303 3307
3279 22 3305 3308
3280 22 3305 3309
3281 13 3310 3312
3282 16 3311 3312
3283 22 3310 3313
3284 22 3310 3314
3285 22 3312 3315
3286 22 3312 3316
3287 13 3317 3319
3288 16 3318 3319
3289 22 3317 3320
3290 22 3317 3321
3291 22 3319 3322
3292 22 3319 3323
3293 13 3324 3326
3294 16 3325 3326
3295 22 3324 3327
3296 22 3324 3328
3297 22 3326 3329
3298 22 3326 3330
3299 13 3331 3333
3300 16 3332 3333
3301 22 3331 3334
3302 22 3331 3335
3303 22 3333 3336
3304 22 3333 3337
3305 13 3338 3340
3306 16 3339 3340
3307 22 3338 3341
3308 22 3338 3342
3309 22 3340 3343
3310 22 3340 3344
3311 13 3345 3347
3312 16 3346 3347
3313 22 3345 3348
3314 22 3345 3349
3315 22 3347 3350
3316 22 3347 3351
3317 13 3352 3354
3318 16 3353 3354
3319 22 3352 3355
3320 22 3352 3356
3321 22 3354 3357
3322 22 3354 3358
3323 13 3359 3361
3324 16 3360 3361
3325 22 3359 3362
3326 22 3359 3363
3327 22 3361 3364
3328 22 3361 3365
3329 13 3366 3368
3330 16 3367 3368
3331 22 3366 3369
3332 22 3366 3370
3333 22 3368 3371
3334 22 3368 3372
3335 13 3373 3375
3336 16 3374 3375
3337 22 3373 3376
3338 22 3373 3377
3339 22 3375 3378
3340 22 3375 3379
3341 13 3380 3382
3342 16 3381 3382
3343 22 3380 3383
3344 22 3380 3384
3345 22 3382 3385
3346 22 3382 3386
3347 13 3387 3389
3348 16 3388 3389
3349 22 3387 3390
3350 22 3387 3391
3351 22 3389 3392
3352 22 3389 3393
3353 13 3394 3396
3354 16 3395 3396
3355 22 3394 3397
3356 22 3394 3398
3357 22 3396 3399
3358 22 3396 3400
3359 13 3401 3403
3360 16 3402 3403
3361 22 3401 3404
3362 22 3401 3405
3363 22 3403 3406
3364 22 3403 3407
3365 13 3408 3410
3366 16 3409 3410
3367 22 3408 3411
3368 22 3408 3412
3369 22 3410 3413
3370 22 3410 3414
3371 13 3415 3417
3372 16 3416 3417
3373 22 3415 3418
3374 22 3415 3419
3375 22 3417 3420
3376 22 3417 3421
3377 13 3422 3424
3378 16 3423 3424
3379 22 3422 3425
3380 22 3422 3426
3381 22 3424 3427
3382 22 3424 3428
3383 13 3429 3431
3384 16 3430 3431
3385 22 3429 3432
3386 22 3429 3433
3387 22 3431 3434
3388 22 3431 3435
3389 13 3436 3438
3390 16 3437 3438
3391 22 3436 3439
3392 22 3436 3440
3393 22 3438 3441
3394 22 3438 3442
3395 13 3443 3445
3396 16 3444 3445
3397 22 3443 3446
3398 22 3443 3447
3399 22 3445 3448
3400 22 3445 3449
3401 13 3450 3452
3402 16 3451 3452
3403 22 3450 3453
3404 22 3450 3454
3405 22 3452 3455
3406 22 3452 3456
3407 13 3457 3459
3408 16 3458 3459
3409 22 3457 3460
3410 22 3457 3461
3411 22 3459 3462
3412 22 3459 3463
3413 13 3464 3466
3414 16 3465 3466
3415 22 3464 3467
3416 22 3464 3468
3417 22 3466 3469
3418 22 3466 3470
3419 13 3471 3473
3420 16 3472 3473
3421 22 3471 3474
3422 22 3471 3475
3423 22 3473 3476
3424 22 3473 3477
3425 13 3478 3480
3426 16 3479 3480
3427 22 3478 3481
3428 22 3478 3482
3429 22 3480 3483
3430 22 3480 3484
3431 13 3485 3487
3432 16 3486 3487
3433 22 3485 3488
3434 22 3485 3489
3435 22 3487 3490
3436 22 3487 3491
3437 13 3492 3494
3438 16 3493 3494
3439 22 3492 3495
3440 22 3492 3496
3441 22 3494 3497
3442 22 3494 3498
3443 13 3499 3501
3444 16 3500 3501
3445 22 3499 3502
3446 22 3499 3503
3447 22 3501 3504
3448 22 3501 3505
3449 13 3506 3508
3450 16 3507 3508
3451 22 3506 3509
3452 22 3506 3510
3453 22 3508 3511
3454 22 3508 3512
3455 12 3513 3514
3456 3 3514 3515
3457 21 3513 3516
3458 21 3513 3517
3459 19 3514 3518
3460 19 3514 3519
3461 1 3515 3520
3462 16 3170 3177
3463 16 3178 3184
3464 16 3185 3191
3465 16 3192 3198
3466 16 3199 3205
3467 16 3206 3212
3468 16 3213 3219
3469 16 3220 3226
3470 16 3227 3233
3471 16 3234 3240
3472 16 3241 3247
3473 16 3248 3254
3474 16 3255 3261
3475 16 3262 3268
3476 16 3269 3275
3477 16 3276 3282
3478 16 3283 3289
3479 16 3290 3296
3480 16 3297 3303
3481 16 3304 3310
3482 16 3311 3317
3483 16 3318 3324
3484 16 3325 3331
3485 16 3332 3338
3486 16 3339 3345
3487 16 3346 3352
3488 16 3353 3359
3489 16 3360 3366
3490 16 3367 3373
3491 16 3374 3380
3492 16 3381 3387
3493 16 3388 3394
3494 16 3395 3401
3495 16 3402 3408
3496 16 3409 3415
3497 16 3416 3422
3498 16 3423 3429
3499 16 3430 3436
3500 16 3437 3443
3501 16 3444 3450
3502 16 3451 3457
3503 16 3458 3464
3504 16 3465 3471
3505 16 3472 3478
3506 16 3479 3485
3507 16 3486 3492
3508 16 3493 3499
3509 16 3500 3506
3510 16 3507 3513

Angles

1 2 346 347 352
2 2 698 699 704
3 2 1050 1051 1056
4 2 1402 1403 1408
5 2 1754 1755 1760
6 2 2106 2107 2112
7 2 2458 2459 2464
8 2 2810 2811 2816
9 2 3162 3163 3168
10 2 3514 3515 3520
11 9 345 346 347
12 9 697 698 699
13 9 1049 1050 1051
14 9 1401 1402 1403
15 9 1753 1754 1755
16 9 2105 2106 2107
17 9 2457 2458 2459
18 9 2809 2810 2811
19 9 3161 3162 3163
20 9 3513 3514 3515
21 15 1 3 2
22 15 353 355 354
23 15 705 707 706
24 15 1057 1059 1058
25 15 1409 1411 1410
26 15 1761 1763 1762
27 15 2113 2115 2114
28 15 2465 2467 2466
29 15 2817 2819 2818
30 15 3169 3171 3170
31 18 339 345 346
32 18 691 697 698
33 18 1043 1049 1050
34 18 1395 1401 1402
35 18 1747 1753 1754
36 18 2099 2105 2106
37 18 2451 2457 2458
38 18 2803 2809 2810
39 18 3155 3161 3162
40 18 3507 3513 3514
41 21 9 11 10
42 21 2 9 11
43 21 16 18 17
44 21 10 16 18
45 21 23 25 24
46 21 17 23 25
47 21 30 32 31
48 21 24 30 32
49 21 37 39 38
50 21 31 37 39
51 21 44 46 45
52 21 38 44 46
53 21 51 53 52
54 21 45 51 53
55 21 58 60 59
56 21 52 58 60
57 21 65 67 66
58 21 59 65 67
59 21 72 74 73
60 21 66 72 74
61 21 79 81 80
62 21 73 79 81
63 21 86 88 87
64 21 80 86 88
65 21 93 95 94
66 21 87 93 95
67 21 100 102 101
68 21 94 100 102
69 21 107 109 108
70 21 101 107 109
71 21 114 116 115
72 21 108 114 116
73 21 121 123 122
74 21 115 121 123
75 21 128 130 129
76 21 122 128 130
77 21 135 137 136
78 21 129 135 137
79 21 142 144 143
80 21 136 142 144
81 21 149 151 150
82 21 143 149 151
83 21 156 158 157
84 21 150 156 158
85 21 163 165 164
86 21 157 163 165
87 21 170 172 171
88 21 164 170 172
89 21 177 179 178
90 21 171 177 179
91 21 184 186 185
92 21 178 184 186
93 21 191 193 192
94 21 185 191 193
95 21 198 200 199
96 21 192 198 200
97 21 205 207 206
98 21 199 205 207
99 21 212 214 213
100 21 206 212 214
101 21 219 221 220
102 21 213 219 221
103 21 226 228 227
104 21 220 226 228
105 21 233 235 234
106 21 227 233 235
107 21 240 242 241
108 21 234 240 242
109 21 247 249 248
110 21 241 247 249
111 21 254 256 255
112 21 248 254 256
113 21 261 263 262
114 21 255 261 263
115 21 268 270 269
116 21 262 268 270
117 21 275 277 276
118 21 269 275 277
119 21 282 284 283
120 21 276 282 284
121 21 289 291 290
122 21 283 289 291
123 21 296 298 297
124 21 290 296 298
125 21 303 305 304
126 21 297 303 305
127 21 310 312 311
128 21 304 310 312
129 21 317 319 318
130 21 311 317 319
131 21 324 326 325
132 21 318 324 326
133 21 331 333 332
134 21 325 331 333
135 21 338 340 339
136 21 332 338 340
137 21 361 363 362
138 21 354 361 363
139 21 368 370 369
140 21 362 368 370
141 21 375 377 376
142 21 369 375 377
143 21 382 384 383
144 21 376 382 384
145 21 389 391 390
146 21 383 389 391
147 21 396 398 397
148 21 390 396 398
149 21 403 405 404
150 21 397 403 405
151 21 410 412 411
152 21 404 410 412
153 21 417 419 418
154 21 411 417 419
155 21 424 426 425
156 21 418 424 426
157 21 431 433 432
158 21 425 431 433
159 21 438 440 439
160 21 432 438 440
161 21 445 447 446
162 21 439 445 447
163 21 452 454 453
164 21 446 452 454
165 21 459 461 460
166 21 453 459 461
167 21 466 468 467
168 21 460 466 468
169 21 473 475 474
170 21 467 473 475
171 21 480 482 481
172 21 474 480 482
173 21 487 489 488
174 21 481 487 489
175 21 494 496 495
176 21 488 494 496
177 21 501 503 502
178 21 495 501 503
179 21 508 510 509
180 21 502 508 510
181 21 515 517 516
182 21 509 515 517
183 21 522 524 523
184 21 516 522 524
185 21 529 531 530
186 21 523 529 531
187 21 536 538 537
188 21 530 536 538
189 21 543 545 544
190 21 537 543 545
191 21 550 552 551
192 21 544 550 552
193 21 557 559 558
194 21 551 557 559
195 21 564 566 565
196 21 558 564 566
197 21 571 573 572
198 21 565 571 573
199 21 578 580 579
200 21 572 578 580
201 21 585 587 586
202 21 579 585 587
203 21 592 594 593
204 21 586 592 594
205 21 599 601 600
206 21 593 599 601
207 21 606 608 607
208 21 600 606 608
209 21 613 615 614
210 21 607 613 615
211 21 620 622 621
212 21 614 620 622
213 21 627 629 628
214 21 621 627 629
215 21 634 636 635
216 21 628 634 636
217 21 641 643 642
218 21 635 641 643
219 21 648 650 649
220 21 642 648 650
221 21 655 657 656
222 21 649 655 657
223 21 662 664 663
224 21 656 662 664
225 21 669 671 670
226 21 663 669 671
227 21 676 678 677
228 21 670 676 678
229 21 683 685 684
230 21 677 683 685
231 21 690 692 691
232 21 684 690 692
233 21 713 715 714
234 21 706 713 715
235 21 720 722 721
236 21 714 720 722
237 21 727 729 728
238 21 721 727 729
239 21 734 736 735
240 21 728 734 736
241 21 741 743 742
242 21 735 741 743
243 21 748 750 749
244 21 742 748 750
245 21 755 757 756
246 21 749 755 757
247 21 762 764 763
248 21 756 762 764
249 21 769 771 770
250 21 763 769 771
251 21 776 778 777
252 21 770 776 778
253 21 783 785 784
254 21 777 783 785
255 21 790 792 791
256 21 784 790 792
257 21 797 799 798
258 21 791 797 799
259 21 804 806 805
260 21 798 804 806
261 21 811 813 812
262 21 805 811 813
263 21 818 820 819
264 21 812 818 820
265 21 825 827 826
266 21 819 825 827
267 21 832 834 833
268 21 826 832 834
269 21 839 841 840
270 21 833 839 841
271 21 846 848 847
272 21 840 846 848
273 21 853 855 854
274 21 847 853 855
275 21 860 862 861
276 21 854 860 862
277 21 867 869 868
278 21 861 867 869
279 21 874 876 875
280 21 868 874 876
281 21 881 883 882
282 21 875 881 883
283 21 888 890 889
284 21 882 888 890
285 21 895 897 896
286 21 889 895 897
287 21 902 904 903
288 21 896 902 904
289 21 909 911 910
290 21 903 909 911
291 21 916 918 917
292 21 910 916 918
293 21 923 925 924
294 21 917 923 925
295 21 930 932 931
296 21 924 930 932
297 21 937 939 938
298 21 931 937 939
299 21 944 946 945
300 21 938 944 946
301 21 951 953 952
302 21 945 951 953
303 21 958 960 959
304 21 952 958 960
305 21 965 967 966
306 21 959 965 967
307 21 972 974 973
308 21 966 972 974
309 21 979 981 980
310 21 973 979 981
311 21 986 988 987
312 21 980 986 988
313 21 993 995 994
314 21 987 993 995
315 21 1000 1002 1001
316 21 994 1000 1002
317 21 1007 1009 1008
318 21 1001 1007 1009
319 21 1014 1016 1015
320 21 1008 1014 1016
321 21 1021 1023 1022
322 21 1015 1021 1023
323 21 1028 1030 1029
324 21 1022 1028 1030
325 21 1035 1037 1036
326 21 1029 1035 1037
327 21 1042 1044 1043
328 21 1036 1042 1044
329 21 1065 1067 1066
330 21 1058 1065 1067
331 21 1072 1074 1073
332 21 1066 1072 1074
333 21 1079 1081 1080
334 21 1073 1079 1081
335 21 1086 1088 1087
336 21 1080 1086 1088
337 21 1093 1095 1094
338 21 1087 1093 1095
339 21 1100 1102 1101
340 21 1094 1100 1102
341 21 1107 1109 1108
342 21 1101 1107 1109
343 21 1114 1116 1115
344 21 1108 1114 1116
345 21 1121 1123 1122
346 21 1115 1121 1123
347 21 1128 1130 1129
348 21 1122 1128 1130
349 21 1135 1137 1136
350 21 1129 1135 1137
351 21 1142 1144 1143
352 21 1136 1142 1144
353 21 1149 1151 1150
354 21 1143 1149 1151
355 21 1156 1158 1157
356 21 1150 1156 1158
357 21 1163 1165 1164
358 21 1157 1163 1165
359 21 1170 1172 1171
360 21 1164 1170 1172
361 21 1177 1179 1178
362 21 1171 1177 1179
363 21 1184 1186 1185
364 21 1178 1184 1186
365 21 1191 1193 1192
366 21 1185 1191 1193
367 21 1198 1200 1199
368 21 1192 1198 1200
369 21 1205 1207 1206
370 21 1199 1205 1207
371 21 1212 1214 1213
372 21 1206 1212 1214
373 21 1219 1221 1220
374 21 1213 1219 1221
375 21 1226 1228 1227
376 21 1220 1226 1228
377 21 1233 1235 1234
378 21 1227 1233 1235
379 21 1240 1242 1241
380 21 1234 1240 1242
381 21 1247 1249 1248
382 21 1241 1247 1249
383 21 1254 1256 1255
384 21 1248 1254 1256
385 21 1261 1263 1262
386 21 1255 1261 1263
387 21 1268 1270 1269
388 21 1262 1268 1270
389 21 1275 1277 1276
390 21 1269 1275 1277
391 21 1282 1284 1283
392 21 1276 1282 1284
393 21 1289 1291 1290
394 21 1283 1289 1291
395 21 1296 1298 1297
396 21 1290 1296 1298
397 21 1303 1305 1304
398 21 1297 1303 1305
399 21 1310 1312 1311
400 21 1304 1310 1312
401 21 1317 1319 1318
402 21 1311 1317 1319
403 21 1324 1326 1325
404 21 1318 1324 1326
405 21 1331 1333 1332
406 21 1325 1331 1333
407 21 1338 1340 1339
408 21 1332 1338 1340
409 21 1345 1347 1346
410 21 1339 1345 1347
411 21 1352 1354 1353
412 21 1346 1352 1354
413 21 1359 1361 1360
414 21 1353 1359 1361
415 21 1366 1368 1367
416 21 1360 1366 1368
417 21 1373 1375 1374
418 21 1367 1373 1375
419 21 1380 1382 1381
420 21 1374 1380 1382
421 21 1387 1389 1388
422 21 1381 1387 1389
423 21 1394 1396 1395
424 21 1388 1394 1396
425 21 1417 1419 1418
426 21 1410 1417 1419
427 21 1424 1426 1425
428 21 1418 1424 1426
429 21 1431 1433 1432
430 21 1425 1431 1433
431 21 1438 1440 1439
432 21 1432 1438 1440
433 21 1445 1447 1446
434 21 1439 1445 1447
435 21 1452 1454 1453
436 21 1446 1452 1454
437 21 1459 1461 1460
438 21 1453 1459 1461
439 21 1466 1468 1467
440 21 1460 1466 1468
441 21 1473 1475 1474
442 21 1467 1473 1475
443 21 1480 1482 1481
444 21 1474 1480 1482
445 21 1487 1489 1488
446 21 1481 1487 1489
447 21 1494 1496 1495
448 21 1488 1494 1496
449 21 1501 1503 1502
450 21 1495 1501 1503
451 21 1508 1510 1509
452 21 1502 1508 1510
453 21 1515 1517 1516
454 21 1509 1515 1517
455 21 1522 1524 1523
456 21 1516 1522 1524
457 21 1529 1531 1530
458 21 1523 1529 1531
459 21 1536 1538 1537
460 21 1530 1536 1538
461 21 1543 1545 1544
462 21 1537 1543 1545
463 21 1550 1552 1551
464 21 1544 1550 1552
465 21 1557 1559 1558
466 21 1551 1557 1559
467 21 1564 1566 1565
468 21 1558 1564 1566
469 21 1571 1573 1572
470 21 1565 1571 1573
471 21 1578 1580 1579
472 21 1572 1578 1580
473 21 1585 1587 1586
474 21 1579 1585 1587
475 21 1592 1594 1593
476 21 1586 1592 1594
477 21 1599 1601 1600
478 21 1593 1599 1601
479 21 1606 1608 1607
480 21 1600 1606 1608
481 21 1613 1615 1614
482 21 1607 1613 1615
483 21 1620 1622 1621
484 21 1614 1620 1622
485 21 1627 1629 1628
486 21 1621 1627 1629
487 21 1634 1636 1635
488 21 1628 1634 1636
489 21 1641 1643 1642
490 21 1635 1641 1643
491 21 1648 1650 1649
492 21 1642 1648 1650
493 21 1655 1657 1656
494 21 1649 1655 1657
495 21 1662 1664 1663
496 21 1656 1662 1664
497 21 1669 1671 1670
498 21 1663 1669 1671
499 21 1676 1678 1677
500 21 1670 1676 1678
501 21 1683 1685 1684
502 21 1677 1683 1685
503 21 1690 1692 1691
504 21 1684 1690 1692
505 21 1697 1699 1698
506 21 1691 1697 1699
507 21 1704 1706 1705
508 21 1698 1704 1706
509 21 1711 1713 1712
510 21 1705 1711 1713
511 21 1718 1720 1719
512 21 1712 1718 1720
513 21 1725 1727 1726
514 21 1719 1725 1727
515 21 1732 1734 1733
516 21 1726 1732 1734
517 21 1739 1741 1740
518 21 1733 1739 1741
519 21 1746 1748 1747
520 21 1740 1746 1748
521 21 1769 1771 1770
522 21 1762 1769 1771
523 21 1776 1778 1777
524 21 1770 1776 1778
525 21 1783 1785 1784
526 21 1777 1783 1785
527 21 1790 1792 1791
528 21 1784 1790 1792
529 21 1797 1799 1798
530 21 1791 1797 1799
531 21 1804 1806 1805
532 21 1798 1804 1806
533 21 1811 1813 1812
534 21 1805 1811 1813
535 21 1818 1820 1819
536 21 1812 1818 1820
537 21 1825 1827 1826
538 21 1819 1825 1827
539 21 1832 1834 1833
540 21 1826 1832 1834
541 21 1839 1841 1840
542 21 1833 1839 1841
543 21 1846 1848 1847
544 21 1840 1846 1848
545 21 1853 1855 1854
546 21 1847 1853 1855
547 21 1860 1862 1861
548 21 1854 1860 1862
549 21 1867 1869 1868
550 21 1861 1867 1869
551 21 1874 1876 1875
552 21 1868 1874 1876
553 21 1881 1883 1882
554 21 1875 1881 1883
555 21 1888 1890 1889
556 21 1882 1888 1890
557 21 1895 1897 1896
558 21 1889 1895 1897
559 21 1902 1904 1903
560 21 1896 1902 1904
561 21 1909 1911 1910
562 21 1903 1909 1911
563 21 1916 1918 1917
564 21 1910 1916 1918
565 21 1923 1925 1924
566 21 1917 1923 1925
567 21 1930 1932 1931
568 21 1924 1930 1932
569 21 1937 1939 1938
570 21 1931 1937 1939
571 21 1944 1946 1945
572 21 1938 1944 1946
573 21 1951 1953 1952
574 21 1945 1951 1953
575 21 1958 1960 1959
576 21 1952 1958 1960
577 21 1965 1967 1966
578 21 1959 1965 1967
579 21 1972 1974 1973
580 21 1966 1972 1974
581 21 1979 1981 1980
582 21 1973 1979 1981
583 21 1986 1988 1987
584 21 1980 1986 1988
585 21 1993 1995 1994
586 21 1987 1993 1995
587 21 2000 2002 2001
588 21 1994 2000 2002
589 21 2007 2009 2008
590 21 2001 2007 2009
591 21 2014 2016 2015
592 21 2008 2014 2016
593 21 2021 2023 2022
594 21 2015 2021 2023
595 21 2028 2030 2029
596 21 2022 2028 2030
597 21 2035 2037 2036
598 21 2029 2035 2037
599 21 2042 2044 2043
600 21 2036 2042 2044
601 21 2049 2051 2050
602 21 2043 2049 2051
603 21 2056 2058 2057
604 21 2050 2056 2058
605 21 2063 2065 2064
606 21 2057 2063 2065
607 21 2070 2072 2071
608 21 2064 2070 2072
609 21 2077 2079 2078
610 21 2071 2077 2079
611 21 2084 2086 2085
612 21 2078 2084 2086
613 21 2091 2093 2092
614 21 2085 2091 2093
615 21 2098 2100 2099
616 21 2092 2098 2100
617 21 2121 2123 2122
618 21 2114 2121 2123
619 21 2128 2130 2129
620 21 2122 2128 2130
621 21 2135 2137 2136
622 21 2129 2135 2137
623 21 2142 2144 2143
624 21 2136 2142 2144
625 21 2149 2151 2150
626 21 2143 2149 2151
627 21 2156 2158 2157
628 21 2150 2156 2158
629 21 2163 2165 2164
630 21 2157 2163 2165
631 21 2170 2172 2171
632 21 2164 2170 2172
633 21 2177 2179 2178
634 21 2171 2177 2179
635 21 2184 2186 2185
636 21 2178 2184 2186
637 21 2191 2193 2192
638 21 2185 2191 2193
639 21 2198 2200 2199
640 21 2192 2198 2200
641 21 2205 2207 2206
642 21 2199 2205 2207
643 21 2212 2214 2213
644 21 2206 2212 2214
645 21 2219 2221 2220
646 21 2213 2219 2221
647 21 2226 2228 2227
648 21 2220 2226 2228
649 21 2233 2235 2234
650 21 2227 2233 2235
651 21 2240 2242 2241
652 21 2234 2240 2242
653 21 2247 2249 2248
654 21 2241 2247 2249
655 21 2254 2256 2255
656 21 2248 2254 2256
657 21 2261 2263 2262
658 21 2255 2261 2263
659 21 2268 2270 2269
660 21 2262 2268 2270
661 21 2275 2277 2276
662 21 2269 2275 2277
663 21 2282 2284 2283
664 21 2276 2282 2284
665 21 2289 2291 2290
666 21 2283 2289 2291
667 21 2296 2298 2297
668 21 2290 2296 2298
669 21 2303 2305 2304
670 21 2297 2303 2305
671 21 2310 2312 2311
672 21 2304 2310 2312
673 21 2317 2319 2318
674 21 2311 2317 2319
675 21 2324 2326 2325
676 21 2318 2324 2326
677 21 2331 2333 2332
678 21 2325 2331 2333
679 21 2338 2340 2339
680 21 2332 2338 2340
681 21 2345 2347 2346
682 21 2339 2345 2347
683 21 2352 2354 2353
684 21 2346 2352 2354
685 21 2359 2361 2360
686 21 2353 2359 2361
687 21 2366 2368 2367
688 21 2360 2366 2368
689 21 2373 2375 2374
690 21 2367 2373 2375
691 21 2380 2382 2381
692 21 2374 2380 2382
693 21 2387 2389 2388
694 21 2381 2387 2389
695 21 2394 2396 2395
696 21 2388 2394 2396
697 21 2401 2403 2402
698 21 2395 2401 2403
699 21 2408 2410 2409
700 21 2402 2408 2410
701 21 2415 2417 2416
702 21 2409 2415 2417
703 21 2422 2424 2423
704 21 2416 2422 2424
705 21 2429 2431 2430
706 21 2423 2429 2431
707 21 2436 2438 2437
708 21 2430 2436 2438
709 21 2443 2445 2444
710 21 2437 2443 2445
711 21 2450 2452 2451
712 21 2444 2450 2452
713 21 2473 2475 2474
714 21 2466 2473 2475
715 21 2480 2482 2481
716 21 2474 2480 2482
717 21 2487 2489 2488
718 21 2481 2487 2489
719 21 2494 2496 2495
720 21 2488 2494 2496
721 21 2501 2503 2502
722 21 2495 2501 2503
723 21 2508 2510 2509
724 21 2502 2508 2510
725 21 2515 2517 2516
726 21 2509 2515 2517
727 21 2522 2524 2523
728 21 2516 2522 2524
729 21 2529 2531 2530
730 21 2523 2529 2531
731 21 2536 2538 2537
732 21 2530 2536 2538
733 21 2543 2545 2544
734 21 2537 2543 2545
735 21 2550 2552 2551
736 21 2544 2550 2552
737 21 2557 2559 2558
738 21 2551 2557 2559
739 21 2564 2566 2565
740 21 2558 2564 2566
741 21 2571 2573 2572
742 21 2565 2571 2573
743 21 2578 2580 2579
744 21 2572 2578 2580
745 21 2585 2587 2586
746 21 2579 2585 2587
747 21 2592 2594 2593
748 21 2586 2592 2594
749 21 2599 2601 2600
750 21 2593 2599 2601
751 21 2606 2608 2607
752 21 2600 2606 2608
753 21 2613 2615 2614
754 21 2607 2613 2615
755 21 2620 2622 2621
756 21 2614 2620 2622
757 21 2627 2629 2628
758 21 2621 2627 2629
759 21 2634 2636 2635
760 21 2628 2634 2636
761 21 2641 2643 2642
762 21 2635 2641 2643
763 21 2648 2650 2649
764 21 2642 2648 2650
765 21 2655 2657 2656
766 21 2649 2655 2657
767 21 2662 2664 2663
768 21 2656 2662 2664
769 21 2669 2671 2670
770 21 2663 2669 2671
771 21 2676 2678 2677
772 21 2670 2676 2678
773 21 2683 2685 2684
774 21 2677 2683 2685
775 21 2690 2692 2691
776 21 2684 2690 2692
777 21 2697 2699 2698
778 21 2691 2697 2699
779 21 2704 2706 2705
780 21 2698 2704 2706
781 21 2711 2713 2712
782 21 2705 2711 2713
783 21 2718 2720 2719
784 21 2712 2718 2720
785 21 2725 2727 2726
786 21 2719 2725 2727
787 21 2732 2734 2733
788 21 2726 2732 2734
789 21 2739 2741 2740
790 21 2733 2739 2741
791 21 2746 2748 2747
792 21 2740 2746 2748
793 21 2753 2755 2754
794 21 2747 2753 2755
795 21 2760 2762 2761
796 21 2754 2760 2762
797 21 2767 2769 2768
798 21 2761 2767 2769
799 21 2774 2776 2775
800 21 2768 2774 2776
801 21 2781 2783 2782
802 21 2775 2781 2783
803 21 2788 2790 2789
804 21 2782 2788 2790
805 21 2795 2797 2796
806 21 2789 2795 2797
807 21 2802 2804 2803
808 21 2796 2802 2804
809 21 2825 2827 2826
810 21 2818 2825 2827
811 21 2832 2834 2833
812 21 2826 2832 2834
813 21 2839 2841 2840
814 21 2833 2839 2841
815 21 2846 2848 2847
816 21 2840 2846 2848
817 21 2853 2855 2854
818 21 2847 2853 2855
819 21 2860 2862 2861
820 21 2854 2860 2862
821 21 2867 2869 2868
822 21 2861 2867 2869
823 21 2874 2876 2875
824 21 2868 2874 2876
825 21 2881 2883 2882
826 21 2875 2881 2883
827 21 2888 2890 2889
828 21 2882 2888 2890
829 21 2895 2897 2896
830 21 2889 2895 2897
831 21 2902 2904 2903
832 21 2896 2902 2904
833 21 2909 2911 2910
834 21 2903 2909 2911
835 21 2916 2918 2917
836 21 2910 2916 2918
837 21 2923 2925 2924
838 21 2917 2923 2925
839 21 2930 2932 2931
840 21 2924 2930 2932
841 21 2937 2939 2938
842 21 2931 2937 2939
843 21 2944 2946 2945
844 21 2938 2944 2946
845 21 2951 2953 2952
846 21 2945 2951 2953
847 21 2958 2960 2959
848 21 2952 2958 2960
849 21 2965 2967 2966
850 21 2959 2965 2967
851 21 2972 2974 2973
852 21 2966 2972 2974
853 21 2979 2981 2980
854 21 2973 2979 2981
855 21 2986 2988 2987
856 21 2980 2986 2988
857 21 2993 2995 2994
858 21 2987 2993 2995
859 21 3000 3002 3001
860 21 2994 3000 3002
861 21 3007 3009 3008
862 21 3001 3007 3009
863 21 3014 3016 3015
864 21 3008 3014 3016
865 21 3021 3023 3022
866 21 3015 3021 3023
867 21 3028 3030 3029
868 21 3022 3028 3030
869 21 3035 3037 3036
870 21 3029 3035 3037
871 21 3042 3044 3043
872 21 3036 3042 3044
873 21 3049 3051 3050
874 21 3043 3049 3051
875 21 3056 3058 3057
876 21 3050 3056 3058
877 21 3063 3065 3064
878 21 3057 3063 3065
879 21 3070 3072 3071
880 21 3064 3070 3072
881 21 3077 3079 3078
882 21 3071 3077 3079
883 21 3084 3086 3085
884 21 3078 3084 3086
885 21 3091 3093 3092
886 21 3085 3091 3093
887 21 3098 3100 3099
888 21 3092 3098 3100
889 21 3105 3107 3106
890 21 3099 3105 3107
891 21 3112 3114 3113
892 21 3106 3112 3114
893 21 3119 3121 3120
894 21 3113 3119 3121
895 21 3126 3128 3127
896 21 3120 3126 3128
897 21 3133 3135 3134
898 21 3127 3133 3135
899 21 3140 3142 3141
900 21 3134 3140 3142
901 21 3147 3149 3148
902 21 3141 3147 3149
903 21 3154 3156 3155
904 21 3148 3154 3156
905 21 3177 3179 3178
906 21 3170 3177 3179
907 21 3184 3186 3185
908 21 3178 3184 3186
909 21 3191 3193 3192
910 21 3185 3191 3193
911 21 3198 3200 3199
912 21 3192 3198 3200
913 21 3205 3207 3206
914 21 3199 3205 3207
915 21 3212 3214 3213
916 21 3206 3212 3214
917 21 3219 3221 3220
918 21 3213 3219 3221
919 21 3226 3228 3227
920 21 3220 3226 3228
921 21 3233 3235 3234
922 21 3227 3233 3235
923 21 3240 3242 3241
924 21 3234 3240 3242
925 21 3247 3249 3248
926 21 3241 3247 3249
927 21 3254 3256 3255
928 21 3248 3254 3256
929 21 3261 3263 3262
930 21 3255 3261 3263
931 21 3268 3270 3269
932 21 3262 3268 3270
933 21 3275 3277 3276
934 21 3269 3275 3277
935 21 3282 3284 3283
936 21 3276 3282 3284
937 21 3289 3291 3290
938 21 3283 3289 3291
939 21 3296 3298 3297
940 21 3290 3296 3298
941 21 3303 3305 3304
942 21 3297 3303 3305
943 21 3310 3312 3311
944 21 3304 3310 3312
945 21 3317 3319 3318
946 21 3311 3317 3319
947 21 3324 3326 3325
948 21 3318 3324 3326
949 21 3331 3333 3332
950 21 3325 3331 3333
951 21 3338 3340 3339
952 21 3332 3338 3340
953 21 3345 3347 3346
954 21 3339 3345 3347
955 21 3352 3354 3353
956 21 3346 3352 3354
957 21 3359 3361 3360
958 21 3353 3359 3361
959 21 3366 3368 3367
960 21 3360 3366 3368
961 21 3373 3375 3374
962 21 3367 3373 3375
963 21 3380 3382 3381
964 21 3374 3380 3382
965 21 3387 3389 3388
966 21 3381 3387 3389
967 21 3394 3396 3395
968 21 3388 3394 3396
969 21 3401 3403 3402
970 21 3395 3401 3403
971 21 3408 3410 3409
972 21 3402 3408 3410
973 21 3415 3417 3416
974 21 3409 3415 3417
975 21 3422 3424 3423
976 21 3416 3422 3424
977 21 3429 3431 3430
978 21 3423 3429 3431
979 21 3436 3438 3437
980 21 3430 3436 3438
981 21 3443 3445 3444
982 21 3437 3443 3445
983 21 3450 3452 3451
984 21 3444 3450 3452
985 21 3457 3459 3458
986 21 3451 3457 3459
987 21 3464 3466 3465
988 21 3458 3464 3466
989 21 3471 3473 3472
990 21 3465 3471 3473
991 21 3478 3480 3479
992 21 3472 3478 3480
993 21 3485 3487 3486
994 21 3479 3485 3487
995 21 3492 3494 3493
996 21 3486 3492 3494
997 21 3499 3501 3500
998 21 3493 3499 3501
999 21 3506 3508 3507
1000 21 3500 3506 3508
1001 22 4 1 5
1002 22 4 1 6
1003 22 5 1 6
1004 22 356 353 357
1005 22 356 353 358
1006 22 357 353 358
1007 22 708 705 709
1008 22 708 705 710
1009 22 709 705 710
1010 22 1060 1057 1061
1011 22 1060 1057 1062
1012 22 1061 1057 1062
1013 22 1412 1409 1413
1014 22 1412 1409 1414
1015 22 1413 1409 1414
1016 22 1764 1761 1765
1017 22 1764 1761 1766
1018 22 1765 1761 1766
1019 22 2116 2113 2117
1020 22 2116 2113 2118
1021 22 2117 2113 2118
1022 22 2468 2465 2469
1023 22 2468 2465 2470
1024 22 2469 2465 2470
1025 22 2820 2817 2821
1026 22 2820 2817 2822
1027 22 2821 2817 2822
1028 22 3172 3169 3173
1029 22 3172 3169 3174
1030 22 3173 3169 3174
1031 24 350 346 351
1032 24 702 698 703
1033 24 1054 1050 1055
1034 24 1406 1402 1407
1035 24 1758 1754 1759
1036 24 2110 2106 2111
1037 24 2462 2458 2463
1038 24 2814 2810 2815
1039 24 3166 3162 3167
1040 24 3518 3514 3519
1041 26 348 345 349
1042 26 700 697 701
1043 26 1052 1049 1053
1044 26 1404 1401 1405
1045 26 1756 1753 1757
1046 26 2108 2105 2109
1047 26 2460 2457 2461
1048 26 2812 2809 2813
1049 26 3164 3161 3165
1050 26 3516 3513 3517
1051 33 7 3 8
1052 33 12 9 13
1053 33 14 11 15
1054 33 19 16 20
1055 33 21 18 22
1056 33 26 23 27
1057 33 28 25 29
1058 33 33 30 34
1059 33 35 32 36
1060 33 40 37 41
1061 33 42 39 43
1062 33 47 44 48
1063 33 49 46 50
1064 33 54 51 55
1065 33 56 53 57
1066 33 61 58 62
1067 33 63 60 64
1068 33 68 65 69
1069 33 70 67 71
1070 33 75 72 76
1071 33 77 74 78
1072 33 82 79 83
1073 33 84 81 85
1074 33 89 86 90
1075 33 91 88 92
1076 33 96 93 97
1077 33 98 95 99
1078 33 103 100 104
1079 33 105 102 106
1080 33 110 107 111
1081 33 112 109 113
1082 33 117 114 118
1083 33 119 116 120
1084 33 124 121 125
1085 33 126 123 127
1086 33 131 128 132
1087 33 133 130 134
1088 33 138 135 139
1089 33 140 137 141
1090 33 145 142 146
1091 33 147 144 148
1092 33 152 149 153
1093 33 154 151 155
1094 33 159 156 160
1095 33 161 158 162
1096 33 166 163 167
1097 33 168 165 169
1098 33 173 170 174
1099 33 175 172 176
1100 33 180 177 181
1101 33 182 179 183
1102 33 187 184 188
1103 33 189 186 190
1104 33 194 191 195
1105 33 196 193 197
1106 33 201 198 202
1107 33 203 200 204
1108 33 208 205 209
1109 33 210 207 211
1110 33 215 212 216
1111 33 217 214 218
1112 33 222 219 223
1113 33 224 221 225
1114 33 229 226 230
1115 33 231 228 232
1116 33 236 233 237
1117 33 238 235 239
1118 33 243 240 244
1119 33 245 242 246
1120 33 250 247 251
1121 33 252 249 253
1122 33 257 254 258
1123 33 259 256 260
1124 33 264 261 265
1125 33 266 263 267
1126 33 271 268 272
1127 33 273 270 274
1128 33 278 275 279
1129 33 280 277 281
1130 33 285 282 286
1131 33 287 284 288
1132 33 292 289 293
1133 33 294 291 295
1134 33 299 296 300
1135 33 301 298 302
1136 33 306 303 307
1137 33 308 305 309
1138 33 313 310 314
1139 33 315 312 316
1140 33 320 317 321
1141 33 322 319 323
1142 33 327 324 328
1143 33 329 326 330
1144 33 334 331 335
1145 33 336 333 337
1146 33 341 338 342
1147 33 343 340 344
1148 33 359 355 360
1149 33 364 361 365
1150 33 366 363 367
1151 33 371 368 372
1152 33 373 370 374
1153 33 378 375 379
1154 33 380 377 381
1155 33 385 382 386
1156 33 387 384 388
1157 33 392 389 393
1158 33 394 391 395
1159 33 399 396 400
1160 33 401 398 402
1161 33 406 403 407
1162 33 408 405 409
1163 33 413 410 414
1164 33 415 412 416
1165 33 420 417 421
1166 33 422 419 423
1167 33 427 424 428
1168 33 429 426 430
1169 33 434 431 435
1170 33 436 433 437
1171 33 441 438 442
1172 33 443 440 444
1173 33 448 445 449
1174 33 450 447 451
1175 33 455 452 456
1176 33 457 454 458
1177 33 462 459 463
1178 33 464 461 465
1179 33 469 466 470
1180 33 471 468 472
1181 33 476 473 477
1182 33 478 475 479
1183 33 483 480 484
1184 33 485 482 486
1185 33 490 487 491
1186 33 492 489 493
1187 33 497 494 498
1188 33 499 496 500
1189 33 504 501 505
1190 33 506 503 507
1191 33 511 508 512
1192 33 513 510 514
1193 33 518 515 519
1194 33 520 517 521
1195 33 525 522 526
1196 33 527 524 528
1197 33 532 529 533
1198 33 534 531 535
1199 33 539 536 540
1200 33 541 538 542
1201 33 546 543 547
1202 33 548 545 549
1203 33 553 550 554
1204 33 555 552 556
1205 33 560 557 561
1206 33 562 559 563
1207 33 567 564 568
1208 33 569 566 570
1209 33 574 571 575
1210 33 576 573 577
1211 33 581 578 582
1212 33 583 580 584
1213 33 588 585 589
1214 33 590 587 591
1215 33 595 592 596
1216 33 597 594 598
1217 33 602 599 603
1218 33 604 601 605
1219 33 609 606 610
1220 33 611 608 612
1221 33 616 613 617
1222 33 618 615 619
1223 33 623 620 624
1224 33 625 622 626
1225 33 630 627 631
1226 33 632 629 633
1227 33 637 634 638
1228 33 639 636 640
1229 33 644 641 645
1230 33 646 643 647
1231 33 651 648 652
1232 33 653 650 654
1233 33 658 655 659
1234 33 660 657 661
1235 33 665 662 666
1236 33 667 664 668
1237 33 672 669 673
1238 33 674 671 675
1239 33 679 676 680
1240 33 681 678 682
1241 33 686 683 687
1242 33 688 685 689
1243 33 693 690 694
1244 33 695 692 696
1245 33 711 707 712
1246 33 716 713 717
1247 33 718 715 719
1248 33 723 720 724
1249 33 725 722 726
1250 33 730 727 731
1251 33 732 729 733
1252 33 737 734 738
1253 33 739 736 740
1254 33 744 741 745
1255 33 746 743 747
1256 33 751 748 752
1257 33 753 750 754
1258 33 758 755 759
1259 33 760 757 761
1260 33 765 762 766
1261 33 767 764 768
1262 33 772 769 773
1263 33 774 771 775
1264 33 779 776 780
1265 33 781 778 782
1266 33 786 783 787
1267 33 788 785 789
1268 33 793 790 794
1269 33 795 792 796
1270 33 800 797 801
1271 33 802 799 803
1272 33 807 804 808
1273 33 809 806 810
1274 33 814 811 815
1275 33 816 813 817
1276 33 821 818 822
1277 33 823 820 824
1278 33 828 825 829
1279 33 830 827 831
1280 33 835 832 836
1281 33 837 834 838
1282 33 842 839 843
1283 33 844 841 845
1284 33 849 846 850
1285 33 851 848 852
1286 33 856 853 857
1287 33 858 855 859
1288 33 863 860 864
1289 33 865 862 866
1290 33 870 867 871
1291 33 872 869 873
1292 33 877 874 878
1293 33 879 876 880
1294 33 884 881 885
1295 33 886 883 887
1296 33 891 888 892
1297 33 893 890 894
1298 33 898 895 899
1299 33 900 897 901
1300 33 905 902 906
1301 33 907 904 908
1302 33 912 909 913
1303 33 914 911 915
1304 33 919 916 920
1305 33 921 918 922
1306 33 926 923 927
1307 33 928 925 929
1308 33 933 930 934
1309 33 935 932 936
1310 33 940 937 941
1311 33 942 939 943
1312 33 947 944 948
1313 33 949 946 950
1314 33 954 951 955
1315 33 956 953 957
1316 33 961 958 962
1317 33 963 960 964
1318 33 968 965 969
1319 33 970 967 971
1320 33 975 972 976
1321 33 977 974 978
1322 33 982 979 983
1323 33 984 981 985
1324 33 989 986 990
1325 33 991 988 992
1326 33 996 993 997
1327 33 998 995 999
1328 33 1003 1000 1004
1329 33 1005 1002 1006
1330 33 1010 1007 1011
1331 33 1012 1009 1013
1332 33 1017 1014 1018
1333 33 1019 1016 1020
1334 33 1024 1021 1025
1335 33 1026 1023 1027
1336 33 1031 1028 1032
1337 33 1033 1030 1034
1338 33 1038 1035 1039
1339 33 1040 1037 1041
1340 33 1045 1042 1046
1341 33 1047 1044 1048
1342 33 1063 1059 1064
1343 33 1068 1065 1069
1344 33 1070 1067 1071
1345 33 1075 1072 1076
1346 33 1077 1074 1078
1347 33 1082 1079 1083
1348 33 1084 1081 1085
1349 33 1089 1086 1090
1350 33 1091 1088 1092
1351 33 1096 1093 1097
1352 33 1098 1095 1099
1353 33 1103 1100 1104
1354 33 1105 1102 1106
1355 33 1110 1107 1111
1356 33 1112 1109 1113
1357 33 1117 1114 1118
1358 33 1119 1116 1120
1359 33 1124 1121 1125
1360 33 1126 1123 1127
1361 33 1131 1128 1132
1362 33 1133 1130 1134
1363 33 1138 1135 1139
1364 33 1140 1137 1141
1365 33 1145 1142 1146
1366 33 1147 1144 1148
1367 33 1152 1149 1153
1368 33 1154 1151 1155
1369 33 1159 1156 1160
1370 33 1161 1158 1162
1371 33 1166 1163 1167
1372 33 1168 1165 1169
1373 33 1173 1170 1174
1374 33 1175 1172 1176
1375 33 1180 1177 1181
1376 33 1182 1179 1183
1377 33 1187 1184 1188
1378 33 1189 1186 1190
1379 33 1194 1191 1195
1380 33 1196 1193 1197
1381 33 1201 1198 1202
1382 33 1203 1200 1204
1383 33 1208 1205 1209
1384 33 1210 1207 1211
1385 33 1215 1212 1216
1386 33 1217 1214 1218
1387 33 1222 1219 1223
1388 33 1224 1221 1225
1389 33 1229 1226 1230
1390 33 1231 1228 1232
1391 33 1236 1233 1237
1392 33 1238 1235 1239
1393 33 1243 1240 1244
1394 33 1245 1242 1246
1395 33 1250 1247 1251
1396 33 1252 1249 1253
1397 33 1257 1254 1258
1398 33 1259 1256 1260
1399 33 1264 1261 1265
1400 33 1266 1263 1267
1401 33 1271 1268 1272
1402 33 1273 1270 1274
1403 33 1278 1275 1279
1404 33 1280 1277 1281
1405 33 1285 1282 1286
1406 33 1287 1284 1288
1407 33 1292 1289 1293
1408 33 1294 1291 1295
1409 33 1299 1296 1300
1410 33 1301 1298 1302
1411 33 1306 1303 1307
1412 33 1308 1305 1309
1413 33 1313 1310 1314
1414 33 1315 1312 1316
1415 33 1320 1317 1321
1416 33 1322 1319 1323
1417 33 1327 1324 1328
1418 33 1329 1326 1330
1419 33 1334 1331 1335
1420 33 1336 1333 1337
1421 33 1341 1338 1342
1422 33 1343 1340 1344
1423 33 1348 1345 1349
1424 33 1350 1347 1351
1425 33 1355 1352 1356
1426 33 1357 1354 1358
1427 33 1362 1359 1363
1428 33 1364 1361 1365
1429 33 1369 1366 1370
1430 33 1371 1368 1372
1431 33 1376 1373 1377
1432 33 1378 1375 1379
1433 33 1383 1380 1384
1434 33 1385 1382 1386
1435 33 1390 1387 1391
1436 33 1392 1389 1393
1437 33 1397 1394 1398
1438 33 1399 1396 1400
1439 33 1415 1411 1416
1440 33 1420 1417 1421
1441 33 1422 1419 1423
1442 33 1427 1424 1428
1443 33 1429 1426 1430
1444 33 1434 1431 1435
1445 33 1436 1433 1437
1446 33 1441 1438 1442
1447 33 1443 1440 1444
1448 33 1448 1445 1449
1449 33 1450 1447 1451
1450 33 1455 1452 1456
1451 33 1457 1454 1458
1452 33 1462 1459 1463
1453 33 1464 1461 1465
1454 33 1469 1466 1470
1455 33 1471 1468 1472
1456 33 1476 1473 1477
1457 33 1478 1475 1479
1458 33 1483 1480 1484
1459 33 1485 1482 1486
1460 33 1490 1487 1491
1461 33 1492 1489 1493
1462 33 1497 1494 1498
1463 33 1499 1496 1500
1464 33 1504 1501 1505
1465 33 1506 1503 1507
1466 33 1511 1508 1512
1467 33 1513 1510 1514
1468 33 1518 1515 1519
1469 33 1520 1517 1521
1470 33 1525 1522 1526
1471 33 1527 1524 1528
1472 33 1532 1529 1533
1473 33 1534 1531 1535
1474 33 1539 1536 1540
1475 33 1541 1538 1542
1476 33 1546 1543 1547
1477 33 1548 1545 1549
1478 33 1553 1550 1554
1479 33 1555 1552 1556
1480 33 1560 1557 1561
1481 33 1562 1559 1563
1482 33 1567 1564 1568
1483 33 1569 1566 1570
1484 33 1574 1571 1575
1485 33 1576 1573 1577
1486 33 1581 1578 1582
1487 33 1583 1580 1584
1488 33 1588 1585 1589
1489 33 1590 1587 1591
1490 33 1595 1592 1596
1491 33 1597 1594 1598
1492 33 1602 1599 1603
1493 33 1604 1601 1605
1494 33 1609 1606 1610
1495 33 1611 1608 1612
1496 33 1616 1613 1617
1497 33 1618 1615 1619
1498 33 1623 1620 1624
1499 33 1625 1622 1626
1500 33 1630 1627 1631
1501 33 1632 1629 1633
1502 33 1637 1634 1638
1503 33 1639 1636 1640
1504 33 1644 1641 1645
1505 33 1646 1643 1647
1506 33 1651 1648 1652
1507 33 1653 1650 1654
1508 33 1658 1655 1659
1509 33 1660 1657 1661
1510 33 1665 1662 1666
1511 33 1667 1664 1668
1512 33 1672 1669 1673
1513 33 1674 1671 1675
1514 33 1679 1676 1680
1515 33 1681 1678 1682
1516 33 1686 1683 1687
1517 33 1688 1685 1689
1518 33 1693 1690 1694
1519 33 1695 1692 1696
1520 33 1700 1697 1701
1521 33 1702 1699 1703
1522 33 1707 1704 1708
1523 33 1709 1706 1710
1524 33 1714 1711 1715
1525 33 1716 1713 1717
1526 33 1721 1718 1722
1527 33 1723 1720 1724
1528 33 1728 1725 1729
1529 33 1730 1727 1731
1530 33 1735 1732 1736
1531 33 1737 1734 1738
1532 33 1742 1739 1743
1533 33 1744 1741 1745
1534 33 1749 1746 1750
1535 33 1751 1748 1752
1536 33 1767 1763 1768
1537 33 1772 1769 1773
1538 33 1774 1771 1775
1539 33 1779 1776 1780
1540 33 1781 1778 1782
1541 33 1786 1783 1787
1542 33 1788 1785 1789
1543 33 1793 1790 1794
1544 33 1795 1792 1796
1545 33 1800 1797 1801
1546 33 1802 1799 1803
1547 33 1807 1804 1808
1548 33 1809 1806 1810
1549 33 1814 1811 1815
1550 33 1816 1813 1817
1551 33 1821 1818 1822
1552 33 1823 1820 1824
1553 33 1828 1825 1829
1554 33 1830 1827 1831
1555 33 1835 1832 1836
1556 33 1837 1834 1838
1557 33 1842 1839 1843
1558 33 1844 1841 1845
1559 33 1849 1846 1850
1560 33 1851 1848 1852
1561 33 1856 1853 1857
1562 33 1858 1855 1859
1563 33 1863 1860 1864
1564 33 1865 1862 1866
1565 33 1870 1867 1871
1566 33 1872 1869 1873
1567 33 1877 1874 1878
1568 33 1879 1876 1880
1569 33 1884 1881 1885
1570 33 1886 1883 1887
1571 33 1891 1888 1892
1572 33 1893 1890 1894
1573 33 1898 1895 1899
1574 33 1900 1897 1901
1575 33 1905 1902 1906
1576 33 1907 1904 1908
1577 33 1912 1909 1913
1578 33 1914 1911 1915
1579 33 1919 1916 1920
1580 33 1921 1918 1922
1581 33 1926 1923 1927
1582 33 1928 1925 1929
1583 33 1933 1930 1934
1584 33 1935 1932 1936
1585 33 1940 1937 1941
1586 33 1942 1939 1943
1587 33 1947 1944 1948
1588 33 1949 1946 1950
1589 33 1954 1951 1955
1590 33 1956 1953 1957
1591 33 1961 1958 1962
1592 33 1963 1960 1964
1593 33 1968 1965 1969
1594 33 1970 1967 1971
1595 33 1975 1972 1976
1596 33 1977 1974 1978
1597 33 1982 1979 1983
1598 33 1984 1981 1985
1599 33 1989 1986 1990
1600 33 1991 1988 1992
1601 33 1996 1993 1997
1602 33 1998 1995 1999
1603 33 2003 2000 2004
1604 33 2005 2002 2006
1605 33 2010 2007 2011
1606 33 2012 2009 2013
1607 33 2017 2014 2018
1608 33 2019 2016 2020
1609 33 2024 2021 2025
1610 33 2026 2023 2027
1611 33 2031 2028 2032
1612 33 2033 2030 2034
1613 33 2038 2035 2039
1614 33 2040 2037 2041
1615 33 2045 2042 2046
1616 33 2047 2044 2048
1617 33 2052 2049 2053
1618 33 2054 2051 2055
1619 33 2059 2056 2060
1620 33 2061 2058 2062
1621 33 2066 2063 2067
1622 33 2068 2065 2069
1623 33 2073 2070 2074
1624 33 2075 2072 2076
1625 33 2080 2077 2081
1626 33 2082 2079 2083
1627 33 2087 2084 2088
1628 33 2089 2086 2090
1629 33 2094 2091 2095
1630 33 2096 2093 2097
1631 33 2101 2098 2102
1632 33 2103 2100 2104
1633 33 2119 2115 2120
1634 33 2124 2121 2125
1635 33 2126 2123 2127
1636 33 2131 2128 2132
1637 33 2133 2130 2134
1638 33 2138 2135 2139
1639 33 2140 2137 2141
1640 33 2145 2142 2146
1641 33 2147 2144 2148
1642 33 2152 2149 2153
1643 33 2154 2151 2155
1644 33 2159 2156 2160
1645 33 2161 2158 2162
1646 33 2166 2163 2167
1647 33 2168 2165 2169
1648 33 2173 2170 2174
1649 33 2175 2172 2176
1650 33 2180 2177 2181
1651 33 2182 2179 2183
1652 33 2187 2184 2188
1653 33 2189 2186 2190
1654 33 2194 2191 2195
1655 33 2196 2193 2197
1656 33 2201 2198 2202
1657 33 2203 2200 2204
1658 33 2208 2205 2209
1659 33 2210 2207 2211
1660 33 2215 2212 2216
1661 33 2217 2214 2218
1662 33 2222 2219 2223
1663 33 2224 2221 2225
1664 33 2229 2226 2230
1665 33 2231 2228 2232
1666 33 2236 2233 2237
1667 33 2238 2235 2239
1668 33 2243 2240 2244
1669 33 2245 2242 2246
1670 33 2250 2247 2251
1671 33 2252 2249 2253
1672 33 2257 2254 2258
1673 33 2259 2256 2260
1674 33 2264 2261 2265
1675 33 2266 2263 2267
1676 33 2271 2268 2272
1677 33 2273 2270 2274
1678 33 2278 2275 2279
1679 33 2280 2277 2281
1680 33 2285 2282 2286
1681 33 2287 2284 2288
1682 33 2292 2289 2293
1683 33 2294 2291 2295
1684 33 2299 2296 2300
1685 33 2301 2298 2302
1686 33 2306 2303 2307
1687 33 2308 2305 2309
1688 33 2313 2310 2314
1689 33 2315 2312 2316
1690 33 2320 2317 2321
1691 33 2322 2319 2323
1692 33 2327 2324 2328
1693 33 2329 2326 2330
1694 33 2334 2331 2335
1695 33 2336 2333 2337
1696 33 2341 2338 2342
1697 33 2343 2340 2344
1698 33 2348 2345 2349
1699 33 2350 2347 2351
1700 33 2355 2352 2356
1701 33 2357 2354 2358
1702 33 2362 2359 2363
1703 33 2364 2361 2365
1704 33 2369 2366 2370
1705 33 2371 2368 2372
1706 33 2376 2373 2377
1707 33 2378 2375 2379
1708 33 2383 2380 2384
1709 33 2385 2382 2386
1710 33 2390 2387 2391
1711 33 2392 2389 2393
1712 33 2397 2394 2398
1713 33 2399 2396 2400
1714 33 2404 2401 2405
1715 33 2406 2403 2407
1716 33 2411 2408 2412
1717 33 2413 2410 2414
1718 33 2418 2415 2419
1719 33 2420 2417 2421
1720 33 2425 2422 2426
1721 33 2427 2424 2428
1722 33 2432 2429 2433
1723 33 2434 2431 2435
1724 33 2439 2436 2440
1725 33 2441 2438 2442
1726 33 2446 2443 2447
1727 33 2448 2445 2449
1728 33 2453 2450 2454
1729 33 2455 2452 2456
1730 33 2471 2467 2472
1731 33 2476 2473 2477
1732 33 2478 2475 2479
1733 33 2483 2480 2484
1734 33 2485 2482 2486
1735 33 2490 2487 2491
1736 33 2492 2489 2493
1737 33 2497 2494 2498
1738 33 2499 2496 2500
1739 33 2504 2501 2505
1740 33 2506 2503 2507
1741 33 2511 2508 2512
1742 33 2513 2510 2514
1743 33 2518 2515 2519
1744 33 2520 2517 2521
1745 33 2525 2522 2526
1746 33 2527 2524 2528
1747 33 2532 2529 2533
1748 33 2534 2531 2535
1749 33 2539 2536 2540
1750 33 2541 2538 2542
1751 33 2546 2543 2547
1752 33 2548 2545 2549
1753 33 2553 2550 2554
1754 33 2555 2552 2556
1755 33 2560 2557 2561
1756 33 2562 2559 2563
1757 33 2567 2564 2568
1758 33 2569 2566 2570
1759 33 2574 2571 2575
1760 33 2576 2573 2577
1761 33 2581 2578 2582
1762 33 2583 2580 2584
1763 33 2588 2585 2589
1764 33 2590 2587 2591
1765 33 2595 2592 2596
1766 33 2597 2594 2598
1767 33 2602 2599 2603
1768 33 2604 2601 2605
1769 33 2609 2606 2610
1770 33 2611 2608 2612
1771 33 2616 2613 2617
1772 33 2618 2615 2619
1773 33 2623 2620 2624
1774 33 2625 2622 2626
1775 33 2630 2627 2631
1776 33 2632 2629 2633
1777 33 2637 2634 2638
1778 33 2639 2636 2640
1779 33 2644 2641 2645
1780 33 2646 2643 2647
1781 33 2651 2648 2652
1782 33 2653 2650 2654
1783 33 2658 2655 2659
1784 33 2660 2657 2661
1785 33 2665 2662 2666
1786 33 2667 2664 2668
1787 33 2672 2669 2673
1788 33 2674 2671 2675
1789 33 2679 2676 2680
1790 33 2681 2678 2682
1791 33 2686 2683 2687
1792 33 2688 2685 2689
1793 33 2693 2690 2694
1794 33 2695 2692 2696
1795 33 2700 2697 2701
1796 33 2702 2699 2703
1797 33 2707 2704 2708
1798 33 2709 2706 2710
1799 33 2714 2711 2715
1800 33 2716 2713 2717
1801 33 2721 2718 2722
1802 33 2723 2720 2724
1803 33 2728 2725 2729
1804 33 2730 2727 2731
1805 33 2735 2732 2736
1806 33 2737 2734 2738
1807 33 2742 2739 2743
1808 33 2744 2741 2745
1809 33 2749 2746 2750
1810 33 2751 2748 2752
1811 33 2756 2753 2757
1812 33 2758 2755 2759
1813 33 2763 2760 2764
1814 33 2765 2762 2766
1815 33 2770 2767 2771
1816 33 2772 2769 2773
1817 33 2777 2774 2778
1818 33 2779 2776 2780
1819 33 2784 2781 2785
1820 33 2786 2783 2787
1821 33 2791 2788 2792
1822 33 2793 2790 2794
1823 33 2798 2795 2799
1824 33 2800 2797 2801
1825 33 2805 2802 2806
1826 33 2807 2804 2808
1827 33 2823 2819 2824
1828 33 2828 2825 2829
1829 33 2830 2827 2831
1830 33 2835 2832 2836
1831 33 2837 2834 2838
1832 33 2842 2839 2843
1833 33 2844 2841 2845
1834 33 2849 2846 2850
1835 33 2851 2848 2852
1836 33 2856 2853 2857
1837 33 2858 2855 2859
1838 33 2863 2860 2864
1839 33 2865 2862 2866
1840 33 2870 2867 2871
1841 33 2872 2869 2873
1842 33 2877 2874 2878
1843 33 2879 2876 2880
1844 33 2884 2881 2885
1845 33 2886 2883 2887
1846 33 2891 2888 2892
1847 33 2893 2890 2894
1848 33 2898 2895 2899
1849 33 2900 2897 2901
1850 33 2905 2902 2906
1851 33 2907 2904 2908
1852 33 2912 2909 2913
1853 33 2914 2911 2915
1854 33 2919 2916 2920
1855 33 2921 2918 2922
1856 33 2926 2923 2927
1857 33 2928 2925 2929
1858 33 2933 2930 2934
1859 33 2935 2932 2936
1860 33 2940 2937 2941
1861 33 2942 2939 2943
1862 33 2947 2944 2948
1863 33 2949 2946 2950
1864 33 2954 2951 2955
1865 33 2956 2953 2957
1866 33 2961 2958 2962
1867 33 2963 2960 2964
1868 33 2968 2965 2969
1869 33 2970 2967 2971
1870 33 2975 2972 2976
1871 33 2977 2974 2978
1872 33 2982 2979 2983
1873 33 2984 2981 2985
1874 33 2989 2986 2990
1875 33 2991 2988 2992
1876 33 2996 2993 2997
1877 33 2998 2995 2999
1878 33 3003 3000 3004
1879 33 3005 3002 3006
1880 33 3010 3007 3011
1881 33 3012 3009 3013
1882 33 3017 3014 3018
1883 33 3019 3016 3020
1884 33 3024 3021 3025
1885 33 3026 3023 3027
1886 33 3031 3028 3032
1887 33 3033 3030 3034
1888 33 3038 3035 3039
1889 33 3040 3037 3041
1890 33 3045 3042 3046
1891 33 3047 3044 3048
1892 33 3052 3049 3053
1893 33 3054 3051 3055
1894 33 3059 3056 3060
1895 33 3061 3058 3062
1896 33 3066 3063 3067
1897 33 3068 3065 3069
1898 33 3073 3070 3074
1899 33 3075 3072 3076
1900 33 3080 3077 3081
1901 33 3082 3079 3083
1902 33 3087 3084 3088
1903 33 3089 3086 3090
1904 33 3094 3091 3095
1905 33 3096 3093 3097
1906 33 3101 3098 3102
1907 33 3103 3100 3104
1908 33 3108 3105 3109
1909 33 3110 3107 3111
1910 33 3115 3112 3116
1911 33 3117 3114 3118
1912 33 3122 3119 3123
1913 33 3124 3121 3125
1914 33 3129 3126 3130
1915 33 3131 3128 3132
1916 33 3136 3133 3137
1917 33 3138 3135 3139
1918 33 3143 3140 3144
1919 33 3145 3142 3146
1920 33 3150 3147 3151
1921 33 3152 3149 3153
1922 33 3157 3154 3158
1923 33 3159 3156 3160
1924 33 3175 3171 3176
1925 33 3180 3177 3181
1926 33 3182 3179 3183
1927 33 3187 3184 3188
1928 33 3189 3186 3190
1929 33 3194 3191 3195
1930 33 3196 3193 3197
1931 33 3201 3198 3202
1932 33 3203 3200 3204
1933 33 3208 3205 3209
1934 33 3210 3207 3211
1935 33 3215 3212 3216
1936 33 3217 3214 3218
1937 33 3222 3219 3223
1938 33 3224 3221 3225
1939 33 3229 3226 3230
1940 33 3231 3228 3232
1941 33 3236 3233 3237
1942 33 3238 3235 3239
1943 33 3243 3240 3244
1944 33 3245 3242 3246
1945 33 3250 3247 3251
1946 33 3252 3249 3253
1947 33 3257 3254 3258
1948 33 3259 3256 3260
1949 33 3264 3261 3265
1950 33 3266 3263 3267
1951 33 3271 3268 3272
1952 33 3273 3270 3274
1953 33 3278 3275 3279
1954 33 3280 3277 3281
1955 33 3285 3282 3286
1956 33 3287 3284 3288
1957 33 3292 3289 3293
1958 33 3294 3291 3295
1959 33 3299 3296 3300
1960 33 3301 3298 3302
1961 33 3306 3303 3307
1962 33 3308 3305 3309
1963 33 3313 3310 3314
1964 33 3315 3312 3316
1965 33 3320 3317 3321
1966 33 3322 3319 3323
1967 33 3327 3324 3328
1968 33 3329 3326 3330
1969 33 3334 3331 3335
1970 33 3336 3333 3337
1971 33 3341 3338 3342
1972 33 3343 3340 3344
1973 33 3348 3345 3349
1974 33 3350 3347 3351
1975 33 3355 3352 3356
1976 33 3357 3354 3358
1977 33 3362 3359 3363
1978 33 3364 3361 3365
1979 33 3369 3366 3370
1980 33 3371 3368 3372
1981 33 3376 3373 3377
1982 33 3378 3375 3379
1983 33 3383 3380 3384
1984 33 3385 3382 3386
1985 33 3390 3387 3391
1986 33 3392 3389 3393
1987 33 3397 3394 3398
1988 33 3399 3396 3400
1989 33 3404 3401 3405
1990 33 3406 3403 3407
1991 33 3411 3408 3412
1992 33 3413 3410 3414
1993 33 3418 3415 3419
1994 33 3420 3417 3421
1995 33 3425 3422 3426
1996 33 3427 3424 3428
1997 33 3432 3429 3433
1998 33 3434 3431 3435
1999 33 3439 3436 3440
2000 33 3441 3438 3442
2001 33 3446 3443 3447
2002 33 3448 3445 3449
2003 33 3453 3450 3454
2004 33 3455 3452 3456
2005 33 3460 3457 3461
2006 33 3462 3459 3463
2007 33 3467 3464 3468
2008 33 3469 3466 3470
2009 33 3474 3471 3475
2010 33 3476 3473 3477
2011 33 3481 3478 3482
2012 33 3483 3480 3484
2013 33 3488 3485 3489
2014 33 3490 3487 3491
2015 33 3495 3492 3496
2016 33 3497 3494 3498
2017 33 3502 3499 3503
2018 33 3504 3501 3505
2019 33 3509 3506 3510
2020 33 3511 3508 3512
2021 36 347 346 350
2022 36 347 346 351
2023 36 699 698 702
2024 36 699 698 703
2025 36 1051 1050 1054
2026 36 1051 1050 1055
2027 36 1403 1402 1406
2028 36 1403 1402 1407
2029 36 1755 1754 1758
2030 36 1755 1754 1759
2031 36 2107 2106 2110
2032 36 2107 2106 2111
2033 36 2459 2458 2462
2034 36 2459 2458 2463
2035 36 2811 2810 2814
2036 36 2811 2810 2815
2037 36 3163 3162 3166
2038 36 3163 3162 3167
2039 36 3515 3514 3518
2040 36 3515 3514 3519
2041 44 339 345 348
2042 44 339 345 349
2043 44 691 697 700
2044 44 691 697 701
2045 44 1043 1049 1052
2046 44 1043 1049 1053
2047 44 1395 1401 1404
2048 44 1395 1401 1405
2049 44 1747 1753 1756
2050 44 1747 1753 1757
2051 44 2099 2105 2108
2052 44 2099 2105 2109
2053 44 2451 2457 2460
2054 44 2451 2457 2461
2055 44 2803 2809 2812
2056 44 2803 2809 2813
2057 44 3155 3161 3164
2058 44 3155 3161 3165
2059 44 3507 3513 3516
2060 44 3507 3513 3517
2061 45 2 3 7
2062 45 2 3 8
2063 45 2 9 12
2064 45 2 9 13
2065 45 10 11 14
2066 45 10 11 15
2067 45 10 16 19
2068 45 10 16 20
2069 45 17 18 21
2070 45 17 18 22
2071 45 17 23 26
2072 45 17 23 27
2073 45 24 25 28
2074 45 24 25 29
2075 45 24 30 33
2076 45 24 30 34
2077 45 31 32 35
2078 45 31 32 36
2079 45 31 37 40
2080 45 31 37 41
2081 45 38 39 42
2082 45 38 39 43
2083 45 38 44 47
2084 45 38 44 48
2085 45 45 46 49
2086 45 45 46 50
2087 45 45 51 54
2088 45 45 51 55
2089 45 52 53 56
2090 45 52 53 57
2091 45 52 58 61
2092 45 52 58 62
2093 45 59 60 63
2094 45 59 60 64
2095 45 59 65 68
2096 45 59 65 69
2097 45 66 67 70
2098 45 66 67 71
2099 45 66 72 75
2100 45 66 72 76
2101 45 73 74 77
2102 45 73 74 78
2103 45 73 79 82
2104 45 73 79 83
2105 45 80 81 84
2106 45 80 81 85
2107 45 80 86 89
2108 45 80 86 90
2109 45 87 88 91
2110 45 87 88 92
2111 45 87 93 96
2112 45 87 93 97
2113 45 94 95 98
2114 45 94 95 99
2115 45 94 100 103
2116 45 94 100 104
2117 45 101 102 105
2118 45 101 102 106
2119 45 101 107 110
2120 45 101 107 111
2121 45 108 109 112
2122 45 108 109 113
2123 45 108 114 117
2124 45 108 114 118
2125 45 115 116 119
2126 45 115 116 120
2127 45 115 121 124
2128 45 115 121 125
2129 45 122 123 126
2130 45 122 123 127
2131 45 122 128 131
2132 45 122 128 132
2133 45 129 130 133
2134 45 129 130 134
2135 45 129 135 138
2136 45 129 135 139
2137 45 136 137 140
2138 45 136 137 141
2139 45 136 142 145
2140 45 136 142 146
2141 45 143 144 147
2142 45 143 144 148
2143 45 143 149 152
2144 45 143 149 153
2145 45 150 151 154
2146 45 150 151 155
2147 45 150 156 159
2148 45 150 156 160
2149 45 157 158 161
2150 45 157 158 162
2151 45 157 163 166
2152 45 157 163 167
2153 45 164 165 168
2154 45 164 165 169
2155 45 164 170 173
2156 45 164 170 174
2157 45 171 172 175
2158 45 171 172 176
2159 45 171 177 180
2160 45 171 177 181
2161 45 178 179 182
2162 45 178 179 183
2163 45 178 184 187
2164 45 178 184 188
2165 45 185 186 189
2166 45 185 186 190
2167 45 185 191 194
2168 45 185 191 195
2169 45 192 193 196
2170 45 192 193 197
2171 45 192 198 201
2172 45 192 198 202
2173 45 199 200 203
2174 45 199 200 204
2175 45 199 205 208
2176 45 199 205 209
2177 45 206 207 210
2178 45 206 207 211
2179 45 206 212 215
2180 45 206 212 216
2181 45 213 214 217
2182 45 213 214 218
2183 45 213 219 222
2184 45 213 219 223
2185 45 220 221 224
2186 45 220 221 225
2187 45 220 226 229
2188 45 220 226 230
2189 45 227 228 231
2190 45 227 228 232
2191 45 227 233 236
2192 45 227 233 237
2193 45 234 235 238
2194 45 234 235 239
2195 45 234 240 243
2196 45 234 240 244
2197 45 241 242 245
2198 45 241 242 246
2199 45 241 247 250
2200 45 241 247 251
2201 45 248 249 252
2202 45 248 249 253
2203 45 248 254 257
2204 45 248 254 258
2205 45 255 256 259
2206 45 255 256 260
2207 45 255 261 264
2208 45 255 261 265
2209 45 262 263 266
2210 45 262 263 267
2211 45 262 268 271
2212 45 262 268 272
2213 45 269 270 273
2214 45 269 270 274
2215 45 269 275 278
2216 45 269 275 279
2217 45 276 277 280
2218 45 276 277 281
2219 45 276 282 285
2220 45 276 282 286
2221 45 283 284 287
2222 45 283 284 288
2223 45 283 289 292
2224 45 283 289 293
2225 45 290 291 294
2226 45 290 291 295
2227 45 290 296 299
2228 45 290 296 300
2229 45 297 298 301
2230 45 297 298 302
2231 45 297 303 306
2232 45 297 303 307
2233 45 304 305 308
2234 45 304 305 309
2235 45 304 310 313
2236 45 304 310 314
2237 45 311 312 315
2238 45 311 312 316
2239 45 311 317 320
2240 45 311 317 321
2241 45 318 319 322
2242 45 318 319 323
2243 45 318 324 327
2244 45 318 324 328
2245 45 325 326 329
2246 45 325 326 330
2247 45 325 331 334
2248 45 325 331 335
2249 45 332 333 336
2250 45 332 333 337
2251 45 332 338 341
2252 45 332 338 342
2253 45 339 340 343
2254 45 339 340 344
2255 45 354 355 359
2256 45 354 355 360
2257 45 354 361 364
2258 45 354 361 365
2259 45 362 363 366
2260 45 362 363 367
2261 45 362 368 371
2262 45 362 368 372
2263 45 369 370 373
2264 45 369 370 374
2265 45 369 375 378
2266 45 369 375 379
2267 45 376 377 380
2268 45 376 377 381
2269 45 376 382 385
2270 45 376 382 386
2271 45 383 384 387
2272 45 383 384 388
2273 45 383 389 392
2274 45 383 389 393
2275 45 390 391 394
2276 45 390 391 395
2277 45 390 396 399
2278 45 390 396 400
2279 45 397 398 401
2280 45 397 398 402
2281 45 397 403 406
2282 45 397 403 407
2283 45 404 405 408
2284 45 404 405 409
2285 45 404 410 413
2286 45 404 410 414
2287 45 411 412 415
2288 45 411 412 416
2289 45 411 417 420
2290 45 411 417 421
2291 45 418 419 422
2292 45 418 419 423
2293 45 418 424 427
2294 45 418 424 428
2295 45 425 426 429
2296 45 425 426 430
2297 45 425 431 434
2298 45 425 431 435
2299 45 432 433 436
2300 45 432 433 437
2301 45 432 438 441
2302 45 432 438 442
2303 45 439 440 443
2304 45 439 440 444
2305 45 439 445 448
2306 45 439 445 449
2307 45 446 447 450
2308 45 446 447 451
2309 45 446 452 455
2310 45 446 452 456
2311 45 453 454 457
2312 45 453 454 458
2313 45 453 459 462
2314 45 453 459 463
2315 45 460 461 464
2316 45 460 461 465
2317 45 460 466 469
2318 45 460 466 470
2319 45 467 468 471
2320 45 467 468 472
2321 45 467 473 476
2322 45 467 473 477
2323 45 474 475 478
2324 45 474 475 479
2325 45 474 480 483
2326 45 474 480 484
2327 45 481 482 485
2328 45 481 482 486
2329 45 481 487 490
2330 45 481 487 491
2331 45 488 489 492
2332 45 488 489 493
2333 45 488 494 497
2334 45 488 494 498
2335 45 495 496 499
2336 45 495 496 500
2337 45 495 501 504
2338 45 495 501 505
2339 45 502 503 506
2340 45 502 503 507
2341 45 502 508 511
2342 45 502 508 512
2343 45 509 510 513
2344 45 509 510 514
2345 45 509 515 518
2346 45 509 515 519
2347 45 516 517 520
2348 45 516 517 521
2349 45 516 522 525
2350 45 516 522 526
2351 45 523 524 527
2352 45 523 524 528
2353 45 523 529 532
2354 45 523 529 533
2355 45 530 531 534
2356 45 530 531 535
2357 45 530 536 539
2358 45 530 536 540
2359 45 537 538 541
2360 45 537 538 542
2361 45 537 543 546
2362 45 537 543 547
2363 45 544 545 548
2364 45 544 545 549
2365 45 544 550 553
2366 45 544 550 554
2367 45 551 552 555
2368 45 551 552 556
2369 45 551 557 560
2370 45 551 557 561
2371 45 558 559 562
2372 45 558 559 563
2373 45 558 564 567
2374 45 558 564 568
2375 45 565 566 569
2376 45 565 566 570
2377 45 565 571 574
2378 45 565 571 575
2379 45 572 573 576
2380 45 572 573 577
2381 45 572 578 581
2382 45 572 578 582
2383 45 579 580 583
2384 45 579 580 584
2385 45 579 585 588
2386 45 579 585 589
2387 45 586 587 590
2388 45 586 587 591
2389 45 586 592 595
2390 45 586 592 596
2391 45 593 594 597
2392 45 593 594 598
2393 45 593 599 602
2394 45 593 599 603
2395 45 600 601 604
2396 45 600 601 605
2397 45 600 606 609
2398 45 600 606 610
2399 45 607 608 611
2400 45 607 608 612
2401 45 607 613 616
2402 45 607 613 617
2403 45 614 615 618
2404 45 614 615 619
2405 45 614 620 623
2406 45 614 620 624
2407 45 621 622 625
2408 45 621 622 626
2409 45 621 627 630
2410 45 621 627 631
2411 45 628 629 632
2412 45 628 629 633
2413 45 628 634 637
2414 45 628 634 638
2415 45 635 636 639
2416 45 635 636 640
2417 45 635 641 644
2418 45 635 641 645
2419 45 642 643 646
2420 45 642 643 647
2421 45 642 648 651
2422 45 642 648 652
2423 45 649 650 653
2424 45 649 650 654
2425 45 649 655 658
2426 45 649 655 659
2427 45 656 657 660
2428 45 656 657 661
2429 45 656 662 665
2430 45 656 662 666
2431 45 663 664 667
2432 45 663 664 668
2433 45 663 669 672
2434 45 663 669 673
2435 45 670 671 674
2436 45 670 671 675
2437 45 670 676 679
2438 45 670 676 680
2439 45 677 678 681
2440 45 677 678 682
2441 45 677 683 686
2442 45 677 683 687
2443 45 684 685 688
2444 45 684 685 689
2445 45 684 690 693
2446 45 684 690 694
2447 45 691 692 695
2448 45 691 692 696
2449 45 706 707 711
2450 45 706 707 712
2451 45 706 713 716
2452 45 706 713 717
2453 45 714 715 718
2454 45 714 715 719
2455 45 714 720 723
2456 45 714 720 724
2457 45 721 722 725
2458 45 721 722 726
2459 45 721 727 730
2460 45 721 727 731
2461 45 728 729 732
2462 45 728 729 733
2463 45 728 734 737
2464 45 728 734 738
2465 45 735 736 739
2466 45 735 736 740
2467 45 735 741 744
2468 45 735 741 745
2469 45 742 743 746
2470 45 742 743 747
2471 45 742 748 751
2472 45 742 748 752
2473 45 749 750 753
2474 45 749 750 754
2475 45 749 755 758
2476 45 749 755 759
2477 45 756 757 760
2478 45 756 757 761
2479 45 756 762 765
2480 45 756 762 766
2481 45 763 764 767
2482 45 763 764 768
2483 45 763 769 772
2484 45 763 769 773
2485 45 770 771 774
2486 45 770 771 775
2487 45 770 776 779
2488 45 770 776 780
2489 45 777 778 781
2490 45 777 778 782
2491 45 777 783 786
2492 45 777 783 787
2493 45 784 785 788
2494 45 784 785 789
2495 45 784 790 793
2496 45 784 790 794
2497 45 791 792 795
2498 45 791 792 796
2499 45 791 797 800
2500 45 791 797 801
2501 45 798 799 802
2502 45 798 799 803
2503 45 798 804 807
2504 45 798 804 808
2505 45 805 806 809
2506 45 805 806 810
2507 45 805 811 814
2508 45 805 811 815
2509 45 812 813 816
2510 45 812 813 817
2511 45 812 818 821
2512 45 812 818 822
2513 45 819 820 823
2514 45 819 820 824
2515 45 819 825 828
2516 45 819 825 829
2517 45 826 827 830
2518 45 826 827 831
2519 45 826 832 835
2520 45 826 832 836
2521 45 833 834 837
2522 45 833 834 838
2523 45 833 839 842
2524 45 833 839 843
2525 45 840 841 844
2526 45 840 841 845
2527 45 840 846 849
2528 45 840 846 850
2529 45 847 848 851
2530 45 847 848 852
2531 45 847 853 856
2532 45 847 853 857
2533 45 854 855 858
2534 45 854 855 859
2535 45 854 860 863
2536 45 854 860 864
2537 45 861 862 865
2538 45 861 862 866
2539 45 861 867 870
2540 45 861 867 871
2541 45 868 869 872
2542 45 868 869 873
2543 45 868 874 877
2544 45 868 874 878
2545 45 875 876 879
2546 45 875 876 880
2547 45 875 881 884
2548 45 875 881 885
2549 45 882 883 886
2550 45 882 883 887
2551 45 882 888 891
2552 45 882 888 892
2553 45 889 890 893
2554 45 889 890 894
2555 45 889 895 898
2556 45 889 895 899
2557 45 896 897 900
2558 45 896 897 901
2559 45 896 902 905
2560 45 896 902 906
2561 45 903 904 907
2562 45 903 904 908
2563 45 903 909 912
2564 45 903 909 913
2565 45 910 911 914
2566 45 910 911 915
2567 45 910 916 919
2568 45 910 916 920
2569 45 917 918 921
2570 45 917 918 922
2571 45 917 923 926
2572 45 917 923 927
2573 45 924 925 928
2574 45 924 925 929
2575 45 924 930 933
2576 45 924 930 934
2577 45 931 932 935
2578 45 931 932 936
2579 45 931 937 940
2580 45 931 937 941
2581 45 938 939 942
2582 45 938 939 943
2583 45 938 944 947
2584 45 938 944 948
2585 45 945 946 949
2586 45 945 946 950
2587 45 945 951 954
2588 45 945 951 955
2589 45 952 953 956
2590 45 952 953 957
2591 45 952 958 961
2592 45 952 958 962
2593 45 959 960 963
2594 45 959 960 964
2595 45 959 965 968
2596 45 959 965 969
2597 45 966 967 970
2598 45 966 967 971
2599 45 966 972 975
2600 45 966 972 976
2601 45 973 974 977
2602 45 973 974 978
2603 45 973 979 982
2604 45 973 979 983
2605 45 980 981 984
2606 45 980 981 985
2607 45 980 986 989
2608 45 980 986 990
2609 45 987 988 991
2610 45 987 988 992
2611 45 987 993 996
2612 45 987 993 997
2613 45 994 995 998
2614 45 994 995 999
2615 45 994 1000 1003
2616 45 994 1000 1004
2617 45 1001 1002 1005
2618 45 1001 1002 1006
2619 45 1001 1007 1010
2620 45 1001 1007 1011
2621 45 1008 1009 1012
2622 45 1008 1009 1013
2623 45 1008 1014 1017
2624 45 1008 1014 1018
2625 45 1015 1016 1019
2626 45 1015 1016 1020
2627 45 1015 1021 1024
2628 45 1015 1021 1025
2629 45 1022 1023 1026
2630 45 1022 1023 1027
2631 45 1022 1028 1031
2632 45 1022 1028 1032
2633 45 1029 1030 1033
2634 45 1029 1030 1034
2635 45 1029 1035 1038
2636 45 1029 1035 1039
2637 45 1036 1037 1040
2638 45 1036 1037 1041
2639 45 1036 1042 1045
2640 45 1036 1042 1046
2641 45 1043 1044 1047
2642 45 1043 1044 1048
2643 45 1058 1059 1063
2644 45 1058 1059 1064
2645 45 1058 1065 1068
2646 45 1058 1065 1069
2647 45 1066 1067 1070
2648 45 1066 1067 1071
2649 45 1066 1072 1075
2650 45 1066 1072 1076
2651 45 1073 1074 1077
2652 45 1073 1074 1078
2653 45 1073 1079 1082
2654 45 1073 1079 1083
2655 45 1080 1081 1084
2656 45 1080 1081 1085
2657 45 1080 1086 1089
2658 45 1080 1086 1090
2659 45 1087 1088 1091
2660 45 1087 1088 1092
2661 45 1087 1093 1096
2662 45 1087 1093 1097
2663 45 1094 1095 1098
2664 45 1094 1095 1099
2665 45 1094 1100 1103
2666 45 1094 1100 1104
2667 45 1101 1102 1105
2668 45 1101 1102 1106
2669 45 1101 1107 1110
2670 45 1101 1107 1111
2671 45 1108 1109 1112
2672 45 1108 1109 1113
2673 45 1108 1114 1117
2674 45 1108 1114 1118
2675 45 1115 1116 1119
2676 45 1115 1116 1120
2677 45 1115 1121 1124
2678 45 1115 1121 1125
2679 45 1122 1123 1126
2680 45 1122 1123 1127
2681 45 1122 1128 1131
2682 45 1122 1128 1132
2683 45 1129 1130 1133
2684 45 1129 1130 1134
2685 45 1129 1135 1138
2686 45 1129 1135 1139
2687 45 1136 1137 1140
2688 45 1136 1137 1141
2689 45 1136 1142 1145
2690 45 1136 1142 1146
2691 45 1143 1144 1147
2692 45 1143 1144 1148
2693 45 1143 1149 1152
2694 45 1143 1149 1153
2695 45 1150 1151 1154
2696 45 1150 1151 1155
2697 45 1150 1156 1159
2698 45 1150 1156 1160
2699 45 1157 1158 1161
2700 45 1157 1158 1162
2701 45 1157 1163 1166
2702 45 1157 1163 1167
2703 45 1164 1165 1168
2704 45 1164 1165 1169
2705 45 1164 1170 1173
2706 45 1164 1170 1174
2707 45 1171 1172 1175
2708 45 1171 1172 1176
2709 45 1171 1177 1180
2710 45 1171 1177 1181
2711 45 1178 1179 1182
2712 45 1178 1179 1183
2713 45 1178 1184 1187
2714 45 1178 1184 1188
2715 45 1185 1186 1189
2716 45 1185 1186 1190
2717 45 1185 1191 1194
2718 45 1185 1191 1195
2719 45 1192 1193 1196
2720 45 1192 1193 1197
2721 45 1192 1198 1201
2722 45 1192 1198 1202
2723 45 1199 1200 1203
2724 45 1199 1200 1204
2725 45 1199 1205 1208
2726 45 1199 1205 1209
2727 45 1206 1207 1210
2728 45 1206 1207 1211
2729 45 1206 1212 1215
2730 45 1206 1212 1216
2731 45 1213 1214 1217
2732 45 1213 1214 1218
2733 45 1213 1219 1222
2734 45 1213 1219 1223
2735 45 1220 1221 1224
2736 45 1220 1221 1225
2737 45 1220 1226 1229
2738 45 1220 1226 1230
2739 45 1227 1228 1231
2740 45 1227 1228 1232
2741 45 1227 1233 1236
2742 45 1227 1233 1237
2743 45 1234 1235 1238
2744 45 1234 1235 1239
2745 45 1234 1240 1243
2746 45 1234 1240 1244
2747 45 1241 1242 1245
2748 45 1241 1242 1246
2749 45 1241 1247 1250
2750 45 1241 1247 1251
2751 45 1248 1249 1252
2752 45 1248 1249 1253
2753 45 1248 1254 1257
2754 45 1248 1254 1258
2755 45 1255 1256 1259
2756 45 1255 1256 1260
2757 45 1255 1261 1264
2758 45 1255 1261 1265
2759 45 1262 1263 1266
2760 45 1262 1263 1267
2761 45 1262 1268 1271
2762 45 1262 1268 1272
2763 45 1269 1270 1273
2764 45 1269 1270 1274
2765 45 1269 1275 1278
2766 45 1269 1275 1279
2767 45 1276 1277 1280
2768 45 1276 1277 1281
2769 45 1276 1282 1285
2770 45 1276 1282 1286
2771 45 1283 1284 1287
2772 45 1283 1284 1288
2773 45 1283 1289 1292
2774 45 1283 1289 1293
2775 45 1290 1291 1294
2776 45 1290 1291 1295
2777 45 1290 1296 1299
2778 45 1290 1296 1300
2779 45 1297 1298 1301
2780 45 1297 1298 1302
2781 45 1297 1303 1306
2782 45 1297 1303 1307
2783 45 1304 1305 1308
2784 45 1304 1305 1309
2785 45 1304 1310 1313
2786 45 1304 1310 1314
2787 45 1311 1312 1315
2788 45 1311 1312 1316
2789 45 1311 1317 1320
2790 45 1311 1317 1321
2791 45 1318 1319 1322
2792 45 1318 1319 1323
2793 45 1318 1324 1327
2794 45 1318 1324 1328
2795 45 1325 1326 1329
2796 45 1325 1326 1330
2797 45 1325 1331 1334
2798 45 1325 1331 1335
2799 45 1332 1333 1336
2800 45 1332 1333 1337
2801 45 1332 1338 1341
2802 45 1332 1338 1342
2803 45 1339 1340 1343
2804 45 1339 1340 1344
2805 45 1339 1345 1348
2806 45 1339 1345 1349
2807 45 1346 1347 1350
2808 45 1346 1347 1351
2809 45 1346 1352 1355
2810 45 1346 1352 1356
2811 45 1353 1354 1357
2812 45 1353 1354 1358
2813 45 1353 1359 1362
2814 45 1353 1359 1363
2815 45 1360 1361 1364
2816 45 1360 1361 1365
2817 45 1360 1366 1369
2818 45 1360 1366 1370
2819 45 1367 1368 1371
2820 45 1367 1368 1372
2821 45 1367 1373 1376
2822 45 1367 1373 1377
2823 45 1374 1375 1378
2824 45 1374 1375 1379
2825 45 1374 1380 1383
2826 45 1374 1380 1384
2827 45 1381 1382 1385
2828 45 1381 1382 1386
2829 45 1381 1387 1390
2830 45 1381 1387 1391
2831 45 1388 1389 1392
2832 45 1388 1389 1393
2833 45 1388 1394 1397
2834 45 1388 1394 1398
2835 45 1395 1396 1399
2836 45 1395 1396 1400
2837 45 1410 1411 1415
2838 45 1410 1411 1416
2839 45 1410 1417 1420
2840 45 1410 1417 1421
2841 45 1418 1419 1422
2842 45 1418 1419 1423
2843 45 1418 1424 1427
2844 45 1418 1424 1428
2845 45 1425 1426 1429
2846 45 1425 1426 1430
2847 45 1425 1431 1434
2848 45 1425 1431 1435
2849 45 1432 1433 1436
2850 45 1432 1433 1437
2851 45 1432 1438 1441
2852 45 1432 1438 1442
2853 45 1439 1440 1443
2854 45 1439 1440 1444
2855 45 1439 1445 1448
2856 45 1439 1445 1449
2857 45 1446 1447 1450
2858 45 1446 1447 1451
2859 45 1446 1452 1455
2860 45 1446 1452 1456
2861 45 1453 1454 1457
2862 45 1453 1454 1458
2863 45 1453 1459 1462
2864 45 1453 1459 1463
2865 45 1460 1461 1464
2866 45 1460 1461 1465
2867 45 1460 1466 1469
2868 45 1460 1466 1470
2869 45 1467 1468 1471
2870 45 1467 1468 1472
2871 45 1467 1473 1476
2872 45 1467 1473 1477
2873 45 1474 1475 1478
2874 45 1474 1475 1479
2875 45 1474 1480 1483
2876 45 1474 1480 1484
2877 45 1481 1482 1485
2878 45 1481 1482 1486
2879 45 1481 1487 1490
2880 45 1481 1487 1491
2881 45 1488 1489 1492
2882 45 1488 1489 1493
2883 45 1488 1494 1497
2884 45 1488 1494 1498
2885 45 1495 1496 1499
2886 45 1495 1496 1500
2887 45 1495 1501 1504
2888 45 1495 1501 1505
2889 45 1502 1503 1506
2890 45 1502 1503 1507
2891 45 1502 1508 1511
2892 45 1502 1508 1512
2893 45 1509 1510 1513
2894 45 1509 1510 1514
2895 45 1509 1515 1518
2896 45 1509 1515 1519
2897 45 1516 1517 1520
2898 45 1516 1517 1521
2899 45 1516 1522 1525
2900 45 1516 1522 1526
2901 45 1523 1524 1527
2902 45 1523 1524 1528
2903 45 1523 1529 1532
2904 45 1523 1529 1533
2905 45 1530 1531 1534
2906 45 1530 1531 1535
2907 45 1530 1536 1539
2908 45 1530 1536 1540
2909 45 1537 1538 1541
2910 45 1537 1538 1542
2911 45 1537 1543 1546
2912 45 1537 1543 1547
2913 45 1544 1545 1548
2914 45 1544 1545 1549
2915 45 1544 1550 1553
2916 45 1544 1550 1554
2917 45 1551 1552 1555
2918 45 1551 1552 1556
2919 45 1551 1557 1560
2920 45 1551 1557 1561
2921 45 1558 1559 1562
2922 45 1558 1559 1563
2923 45 1558 1564 1567
2924 45 1558 1564 1568
2925 45 1565 1566 1569
2926 45 1565 1566 1570
2927 45 1565 1571 1574
2928 45 1565 1571 1575
2929 45 1572 1573 1576
2930 45 1572 1573 1577
2931 45 1572 1578 1581
2932 45 1572 1578 1582
2933 45 1579 1580 1583
2934 45 1579 1580 1584
2935 45 1579 1585 1588
2936 45 1579 1585 1589
2937 45 1586 1587 1590
2938 45 1586 1587 1591
2939 45 1586 1592 1595
2940 45 1586 1592 1596
2941 45 1593 1594 1597
2942 45 1593 1594 1598
2943 45 1593 1599 1602
2944 45 1593 1599 1603
2945 45 1600 1601 1604
2946 45 1600 1601 1605
2947 45 1600 1606 1609
2948 45 1600 1606 1610
2949 45 1607 1608 1611
2950 45 1607 1608 1612
2951 45 1607 1613 1616
2952 45 1607 1613 1617
2953 45 1614 1615 1618
2954 45 1614 1615 1619
2955 45 1614 1620 1623
2956 45 1614 1620 1624
2957 45 1621 1622 1625
2958 45 1621 1622 1626
2959 45 1621 1627 1630
2960 45 1621 1627 1631
2961 45 1628 1629 1632
2962 45 1628 1629 1633
2963 45 1628 1634 1637
2964 45 1628 1634 1638
2965 45 1635 1636 1639
2966 45 1635 1636 1640
2967 45 1635 1641 1644
2968 45 1635 1641 1645
2969 45 1642 1643 1646
2970 45 1642 1643 1647
2971 45 1642 1648 1651
2972 45 1642 1648 1652
2973 45 1649 1650 1653
2974 45 1649 1650 1654
2975 45 1649 1655 1658
2976 45 1649 1655 1659
2977 45 1656 1657 1660
2978 45 1656 1657 1661
2979 45 1656 1662 1665
2980 45 1656 1662 1666
2981 45 1663 1664 1667
2982 45 1663 1664 1668
2983 45 1663 1669 1672
2984 45 1663 1669 1673
2985 45 1670 1671 1674
2986 45 1670 1671 1675
2987 45 1670 1676 1679
2988 45 1670 1676 1680
2989 45 1677 1678 1681
2990 45 1677 1678 1682
2991 45 1677 1683 1686
2992 45 1677 1683 1687
2993 45 1684 1685 1688
2994 45 1684 1685 1689
2995 45 1684 1690 1693
2996 45 1684 1690 1694
2997 45 1691 1692 1695
2998 45 1691 1692 1696
2999 45 1691 1697 1700
3000 45 1691 1697 1701
3001 45 1698 1699 1702
3002 45 1698 1699 1703
3003 45 1698 1704 1707
3004 45 1698 1704 1708
3005 45 1705 1706 1709
3006 45 1705 1706 1710
3007 45 1705 1711 1714
3008 45 1705 1711 1715
3009 45 1712 1713 1716
3010 45 1712 1713 1717
3011 45 1712 1718 1721
3012 45 1712 1718 1722
3013 45 1719 1720 1723
3014 45 1719 1720 1724
3015 45 1719 1725 1728
3016 45 1719 1725 1729
3017 45 1726 1727 1730
3018 45 1726 1727 1731
3019 45 1726 1732 1735
3020 45 1726 1732 1736
3021 45 1733 1734 1737
3022 45 1733 1734 1738
3023 45 1733 1739 1742
3024 45 1733 1739 1743
3025 45 1740 1741 1744
3026 45 1740 1741 1745
3027 45 1740 1746 1749
3028 45 1740 1746 1750
3029 45 1747 1748 1751
3030 45 1747 1748 1752
3031 45 1762 1763 1767
3032 45 1762 1763 1768
3033 45 1762 1769 1772
3034 45 1762 1769 1773
3035 45 1770 1771 1774
3036 45 1770 1771 1775
3037 45 1770 1776 1779
3038 45 1770 1776 1780
3039 45 1777 1778 1781
3040 45 1777 1778 1782
3041 45 1777 1783 1786
3042 45 1777 1783 1787
3043 45 1784 1785 1788
3044 45 1784 1785 1789
3045 45 1784 1790 1793
3046 45 1784 1790 1794
3047 45 1791 1792 1795
3048 45 1791 1792 1796
3049 45 1791 1797 1800
3050 45 1791 1797 1801
3051 45 1798 1799 1802
3052 45 1798 1799 1803
3053 45 1798 1804 1807
3054 45 1798 1804 1808
3055 45 1805 1806 1809
3056 45 1805 1806 1810
3057 45 1805 1811 1814
3058 45 1805 1811 1815
3059 45 1812 1813 1816
3060 45 1812 1813 1817
3061 45 1812 1818 1821
3062 45 1812 1818 1822
3063 45 1819 1820 1823
3064 45 1819 1820 1824
3065 45 1819 1825 1828
3066 45 1819 1825 1829
3067 45 1826 1827 1830
3068 45 1826 1827 1831
3069 45 1826 1832 1835
3070 45 1826 1832 1836
3071 45 1833 1834 1837
3072 45 1833 1834 1838
3073 45 1833 1839 1842
3074 45 1833 1839 1843
3075 45 1840 1841 1844
3076 45 1840 1841 1845
3077 45 1840 1846 1849
3078 45 1840 1846 1850
3079 45 1847 1848 1851
3080 45 1847 1848 1852
3081 45 1847 1853 1856
3082 45 1847 1853 1857
3083 45 1854 1855 1858
3084 45 1854 1855 1859
3085 45 1854 1860 1863
3086 45 1854 1860 1864
3087 45 1861 1862 1865
3088 45 1861 1862 1866
3089 45 1861 1867 1870
3090 45 1861 1867 1871
3091 45 1868 1869 1872
3092 45 1868 1869 1873
3093 45 1868 1874 1877
3094 45 1868 1874 1878
3095 45 1875 1876 1879
3096 45 1875 1876 1880
3097 45 1875 1881 1884
3098 45 1875 1881 1885
3099 45 1882 1883 1886
3100 45 1882 1883 1887
3101 45 1882 1888 1891
3102 45 1882 1888 1892
3103 45 1889 1890 1893
3104 45 1889 1890 1894
3105 45 1889 1895 1898
3106 45 1889 1895 1899
3107 45 1896 1897 1900
3108 45 1896 1897 1901
3109 45 1896 1902 1905
3110 45 1896 1902 1906
3111 45 1903 1904 1907
3112 45 1903 1904 1908
3113 45 1903 1909 1912
3114 45 1903 1909 1913
3115 45 1910 1911 1914
3116 45 1910 1911 1915
3117 45 1910 1916 1919
3118 45 1910 1916 1920
3119 45 1917 1918 1921
3120 45 1917 1918 1922
3121 45 1917 1923 1926
3122 45 1917 1923 1927
3123 45 1924 1925 1928
3124 45 1924 1925 1929
3125 45 1924 1930 1933
3126 45 1924 1930 1934
3127 45 1931 1932 1935
3128 45 1931 1932 1936
3129 45 1931 1937 1940
3130 45 1931 1937 1941
3131 45 1938 1939 1942
3132 45 1938 1939 1943
3133 45 1938 1944 1947
3134 45 1938 1944 1948
3135 45 1945 1946 1949
3136 45 1945 1946 1950
3137 45 1945 1951 1954
3138 45 1945 1951 1955
3139 45 1952 1953 1956
3140 45 1952 1953 1957
3141 45 1952 1958 1961
3142 45 1952 1958 1962
3143 45 1959 1960 1963
3144 45 1959 1960 1964
3145 45 1959 1965 1968
3146 45 1959 1965 1969
3147 45 1966 1967 1970
3148 45 1966 1967 1971
3149 45 1966 1972 1975
3150 45 1966 1972 1976
3151 45 1973 1974 1977
3152 45 1973 1974 1978
3153 45 1973 1979 1982
3154 45 1973 1979 1983
3155 45 1980 1981 1984
3156 45 1980 1981 1985
3157 45 1980 1986 1989
3158 45 1980 1986 1990
3159 45 1987 1988 1991
3160 45 1987 1988 1992
3161 45 1987 1993 1996
3162 45 1987 1993 1997
3163 45 1994 1995 1998
3164 45 1994 1995 1999
3165 45 1994 2000 2003
3166 45 1994 2000 2004
3167 45 2001 2002 2005
3168 45 2001 2002 2006
3169 45 2001 2007 2010
3170 45 2001 2007 2011
3171 45 2008 2009 2012
3172 45 2008 2009 2013
3173 45 2008 2014 2017
3174 45 2008 2014 2018
3175 45 2015 2016 2019
3176 45 2015 2016 2020
3177 45 2015 2021 2024
3178 45 2015 2021 2025
3179 45 2022 2023 2026
3180 45 2022 2023 2027
3181 45 2022 2028 2031
3182 45 2022 2028 2032
3183 45 2029 2030 2033
3184 45 2029 2030 2034
3185 45 2029 2035 2038
3186 45 2029 2035 2039
3187 45 2036 2037 2040
3188 45 2036 2037 2041
3189 45 2036 2042 2045
3190 45 2036 2042 2046
3191 45 2043 2044 2047
3192 45 2043 2044 2048
3193 45 2043 2049 2052
3194 45 2043 2049 2053
3195 45 2050 2051 2054
3196 45 2050 2051 2055
3197 45 2050 2056 2059
3198 45 2050 2056 2060
3199 45 2057 2058 2061
3200 45 2057 2058 2062
3201 45 2057 2063 2066
3202 45 2057 2063 2067
3203 45 2064 2065 2068
3204 45 2064 2065 2069
3205 45 2064 2070 2073
3206 45 2064 2070 2074
3207 45 2071 2072 2075
3208 45 2071 2072 2076
3209 45 2071 2077 2080
3210 45 2071 2077 2081
3211 45 2078 2079 2082
3212 45 2078 2079 2083
3213 45 2078 2084 2087
3214 45 2078 2084 2088
3215 45 2085 2086 2089
3216 45 2085 2086 2090
3217 45 2085 2091 2094
3218 45 2085 2091 2095
3219 45 2092 2093 2096
3220 45 2092 2093 2097
3221 45 2092 2098 2101
3222 45 2092 2098 2102
3223 45 2099 2100 2103
3224 45 2099 2100 2104
3225 45 2114 2115 2119
3226 45 2114 2115 2120
3227 45 2114 2121 2124
3228 45 2114 2121 2125
3229 45 2122 2123 2126
3230 45 2122 2123 2127
3231 45 2122 2128 2131
3232 45 2122 2128 2132
3233 45 2129 2130 2133
3234 45 2129 2130 2134
3235 45 2129 2135 2138
3236 45 2129 2135 2139
3237 45 2136 2137 2140
3238 45 2136 2137 2141
3239 45 2136 2142 2145
3240 45 2136 2142 2146
3241 45 2143 2144 2147
3242 45 2143 2144 2148
3243 45 2143 2149 2152
3244 45 2143 2149 2153
3245 45 2150 2151 2154
3246 45 2150 2151 2155
3247 45 2150 2156 2159
3248 45 2150 2156 2160
3249 45 2157 2158 2161
3250 45 2157 2158 2162
3251 45 2157 2163 2166
3252 45 2157 2163 2167
3253 45 2164 2165 2168
3254 45 2164 2165 2169
3255 45 2164 2170 2173
3256 45 2164 2170 2174
3257 45 2171 2172 2175
3258 45 2171 2172 2176
3259 45 2171 2177 2180
3260 45 2171 2177 2181
3261 45 2178 2179 2182
3262 45 2178 2179 2183
3263 45 2178 2184 2187
3264 45 2178 2184 2188
3265 45 2185 2186 2189
3266 45 2185 2186 2190
3267 45 2185 2191 2194
3268 45 2185 2191 2195
3269 45 2192 2193 2196
3270 45 2192 2193 2197
3271 45 2192 2198 2201
3272 45 2192 2198 2202
3273 45 2199 2200 2203
3274 45 2199 2200 2204
3275 45 2199 2205 2208
3276 45 2199 2205 2209
3277 45 2206 2207 2210
3278 45 2206 2207 2211
3279 45 2206 2212 2215
3280 45 2206 2212 2216
3281 45 2213 2214 2217
3282 45 2213 2214 2218
3283 45 2213 2219 2222
3284 45 2213 2219 2223
3285 45 2220 2221 2224
3286 45 2220 2221 2225
3287 45 2220 2226 2229
3288 45 2220 2226 2230
3289 45 2227 2228 2231
3290 45 2227 2228 2232
3291 45 2227 2233 2236
3292 45 2227 2233 2237
3293 45 2234 2235 2238
3294 45 2234 2235 2239
3295 45 2234 2240 2243
3296 45 2234 2240 2244
3297 45 2241 2242 2245
3298 45 2241 2242 2246
3299 45 2241 2247 2250
3300 45 2241 2247 2251
3301 45 2248 2249 2252
3302 45 2248 2249 2253
3303 45 2248 2254 2257
3304 45 2248 2254 2258
3305 45 2255 2256 2259
3306 45 2255 2256 2260
3307 45 2255 2261 2264
3308 45 2255 2261 2265
3309 45 2262 2263 2266
3310 45 2262 2263 2267
3311 45 2262 2268 2271
3312 45 2262 2268 2272
3313 45 2269 2270 2273
3314 45 2269 2270 2274
3315 45 2269 2275 2278
3316 45 2269 2275 2279
3317 45 2276 2277 2280
3318 45 2276 2277 2281
3319 45 2276 2282 2285
3320 45 2276 2282 2286
3321 45 2283 2284 2287
3322 45 2283 2284 2288
3323 45 2283 2289 2292
3324 45 2283 2289 2293
3325 45 2290 2291 2294
3326 45 2290 2291 2295
3327 45 2290 2296 2299
3328 45 2290 2296 2300
3329 45 2297 2298 2301
3330 45 2297 2298 2302
3331 45 2297 2303 2306
3332 45 2297 2303 2307
3333 45 2304 2305 2308
3334 45 2304 2305 2309
3335 45 2304 2310 2313
3336 45 2304 2310 2314
3337 45 2311 2312 2315
3338 45 2311 2312 2316
3339 45 2311 2317 2320
3340 45 2311 2317 2321
3341 45 2318 2319 2322
3342 45 2318 2319 2323
3343 45 2318 2324 2327
3344 45 2318 2324 2328
3345 45 2325 2326 2329
3346 45 2325 2326 2330
3347 45 2325 2331 2334
3348 45 2325 2331 2335
3349 45 2332 2333 2336
3350 45 2332 2333 2337
3351 45 2332 2338 2341
3352 45 2332 2338 2342
3353 45 2339 2340 2343
3354 45 2339 2340 2344
3355 45 2339 2345 2348
3356 45 2339 2345 2349
3357 45 2346 2347 2350
3358 45 2346 2347 2351
3359 45 2346 2352 2355
3360 45 2346 2352 2356
3361 45 2353 2354 2357
3362 45 2353 2354 2358
3363 45 2353 2359 2362
3364 45 2353 2359 2363
3365 45 2360 2361 2364
3366 45 2360 2361 2365
3367 45 2360 2366 2369
3368 45 2360 2366 2370
3369 45 2367 2368 2371
3370 45 2367 2368 2372
3371 45 2367 2373 2376
3372 45 2367 2373 2377
3373 45 2374 2375 2378
3374 45 2374 2375 2379
3375 45 2374 2380 2383
3376 45 2374 2380 2384
3377 45 2381 2382 2385
3378 45 2381 2382 2386
3379 45 2381 2387 2390
3380 45 2381 2387 2391
3381 45 2388 2389 2392
3382 45 2388 2389 2393
3383 45 2388 2394 2397
3384 45 2388 2394 2398
3385 45 2395 2396 2399
3386 45 2395 2396 2400
3387 45 2395 2401 2404
3388 45 2395 2401 2405
3389 45 2402 2403 2406
3390 45 2402 2403 2407
3391 45 2402 2408 2411
3392 45 2402 2408 2412
3393 45 2409 2410 2413
3394 45 2409 2410 2414
3395 45 2409 2415 2418
3396 45 2409 2415 2419
3397 45 2416 2417 2420
3398 45 2416 2417 2421
3399 45 2416 2422 2425
3400 45 2416 2422 2426
3401 45 2423 2424 2427
3402 45 2423 2424 2428
3403 45 2423 2429 2432
3404 45 2423 2429 2433
3405 45 2430 2431 2434
3406 45 2430 2431 2435
3407 45 2430 2436 2439
3408 45 2430 2436 2440
3409 45 2437 2438 2441
3410 45 2437 2438 2442
3411 45 2437 2443 2446
3412 45 2437 2443 2447
3413 45 2444 2445 2448
3414 45 2444 2445 2449
3415 45 2444 2450 2453
3416 45 2444 2450 2454
3417 45 2451 2452 2455
3418 45 2451 2452 2456
3419 45 2466 2467 2471
3420 45 2466 2467 2472
3421 45 2466 2473 2476
3422 45 2466 2473 2477
3423 45 2474 2475 2478
3424 45 2474 2475 2479
3425 45 2474 2480 2483
3426 45 2474 2480 2484
3427 45 2481 2482 2485
3428 45 2481 2482 2486
3429 45 2481 2487 2490
3430 45 2481 2487 2491
3431 45 2488 2489 2492
3432 45 2488 2489 2493
3433 45 2488 2494 2497
3434 45 2488 2494 2498
3435 45 2495 2496 2499
3436 45 2495 2496 2500
3437 45 2495 2501 2504
3438 45 2495 2501 2505
3439 45 2502 2503 2506
3440 45 2502 2503 2507
3441 45 2502 2508 2511
3442 45 2502 2508 2512
3443 45 2509 2510 2513
3444 45 2509 2510 2514
3445 45 2509 2515 2518
3446 45 2509 2515 2519
3447 45 2516 2517 2520
3448 45 2516 2517 2521
3449 45 2516 2522 2525
3450 45 2516 2522 2526
3451 45 2523 2524 2527
3452 45 2523 2524 2528
3453 45 2523 2529 2532
3454 45 2523 2529 2533
3455 45 2530 2531 2534
3456 45 2530 2531 2535
3457 45 2530 2536 2539
3458 45 2530 2536 2540
3459 45 2537 2538 2541
3460 45 2537 2538 2542
3461 45 2537 2543 2546
3462 45 2537 2543 2547
3463 45 2544 2545 2548
3464 45 2544 2545 2549
3465 45 2544 2550 2553
3466 45 2544 2550 2554
3467 45 2551 2552 2555
3468 45 2551 2552 2556
3469 45 2551 2557 2560
3470 45 2551 2557 2561
3471 45 2558 2559 2562
3472 45 2558 2559 2563
3473 45 2558 2564 2567
3474 45 2558 2564 2568
3475 45 2565 2566 2569
3476 45 2565 2566 2570
3477 45 2565 2571 2574
3478 45 2565 2571 2575
3479 45 2572 2573 2576
3480 45 2572 2573 2577
3481 45 2572 2578 2581
3482 45 2572 2578 2582
3483 45 2579 2580 2583
3484 45 2579 2580 2584
3485 45 2579 2585 2588
3486 45 2579 2585 2589
3487 45 2586 2587 2590
3488 45 2586 2587 2591
3489 45 2586 2592 2595
3490 45 2586 2592 2596
3491 45 2593 2594 2597
3492 45 2593 2594 2598
3493 45 2593 2599 2602
3494 45 2593 2599 2603
3495 45 2600 2601 2604
3496 45 2600 2601 2605
3497 45 2600 2606 2609
3498 45 2600 2606 2610
3499 45 2607 2608 2611
3500 45 2607 2608 2612
3501 45 2607 2613 2616
3502 45 2607 2613 2617
3503 45 2614 2615 2618
3504 45 2614 2615 2619
3505 45 2614 2620 2623
3506 45 2614 2620 2624
3507 45 2621 2622 2625
3508 45 2621 2622 2626
3509 45 2621 2627 2630
3510 45 2621 2627 2631
3511 45 2628 2629 2632
3512 45 2628 2629 2633
3513 45 2628 2634 2637
3514 45 2628 2634 2638
3515 45 2635 2636 2639
3516 45 2635 2636 2640
3517 45 2635 2641 2644
3518 45 2635 2641 2645
3519 45 2642 2643 2646
3520 45 2642 2643 2647
3521 45 2642 2648 2651
3522 45 2642 2648 2652
3523 45 2649 2650 2653
3524 45 2649 2650 2654
3525 45 2649 2655 2658
3526 45 2649 2655 2659
3527 45 2656 2657 2660
3528 45 2656 2657 2661
3529 45 2656 2662 2665
3530 45 2656 2662 2666
3531 45 2663 2664 2667
3532 45 2663 2664 2668
3533 45 2663 2669 2672
3534 45 2663 2669 2673
3535 45 2670 2671 2674
3536 45 2670 2671 2675
3537 45 2670 2676 2679
3538 45 2670 2676 2680
3539 45 2677 2678 2681
3540 45 2677 2678 2682
3541 45 2677 2683 2686
3542 45 2677 2683 2687
3543 45 2684 2685 2688
3544 45 2684 2685 2689
3545 45 2684 2690 2693
3546 45 2684 2690 2694
3547 45 2691 2692 2695
3548 45 2691 2692 2696
3549 45 2691 2697 2700
3550 45 2691 2697 2701
3551 45 2698 2699 2702
3552 45 2698 2699 2703
3553 45 2698 2704 2707
3554 45 2698 2704 2708
3555 45 2705 2706 2709
3556 45 2705 2706 2710
3557 45 2705 2711 2714
3558 45 2705 2711 2715
3559 45 2712 2713 2716
3560 45 2712 2713 2717
3561 45 2712 2718 2721
3562 45 2712 2718 2722
3563 45 2719 2720 2723
3564 45 2719 2720 2724
3565 45 2719 2725 2728
3566 45 2719 2725 2729
3567 45 2726 2727 2730
3568 45 2726 2727 2731
3569 45 2726 2732 2735
3570 45 2726 2732 2736
3571 45 2733 2734 2737
3572 45 2733 2734 2738
3573 45 2733 2739 2742
3574 45 2733 2739 2743
3575 45 2740 2741 2744
3576 45 2740 2741 2745
3577 45 2740 2746 2749
3578 45 2740 2746 2750
3579 45 2747 2748 2751
3580 45 2747 2748 2752
3581 45 2747 2753 2756
3582 45 2747 2753 2757
3583 45 2754 2755 2758
3584 45 2754 2755 2759
3585 45 2754 2760 2763
3586 45 2754 2760 2764
3587 45 2761 2762 2765
3588 45 2761 2762 2766
3589 45 2761 2767 2770
3590 45 2761 2767 2771
3591 45 2768 2769 2772
3592 45 2768 2769 2773
3593 45 2768 2774 2777
3594 45 2768 2774 2778
3595 45 2775 2776 2779
3596 45 2775 2776 2780
3597 45 2775 2781 2784
3598 45 2775 2781 2785
3599 45 2782 2783 2786
3600 45 2782 2783 2787
3601 45 2782 2788 2791
3602 45 2782 2788 2792
3603 45 2789 2790 2793
3604 45 2789 2790 2794
3605 45 2789 2795 2798
3606 45 2789 2795 2799
3607 45 2796 2797 2800
3608 45 2796 2797 2801
3609 45 2796 2802 2805
3610 45 2796 2802 2806
3611 45 2803 2804 2807
3612 45 2803 2804 2808
3613 45 2818 2819 2823
3614 45 2818 2819 2824
3615 45 2818 2825 2828
3616 45 2818 2825 2829
3617 45 2826 2827 2830
3618 45 2826 2827 2831
3619 45 2826 2832 2835
3620 45 2826 2832 2836
3621 45 2833 2834 2837
3622 45 2833 2834 2838
3623 45 2833 2839 2842
3624 45 2833 2839 2843
3625 45 2840 2841 2844
3626 45 2840 2841 2845
3627 45 2840 2846 2849
3628 45 2840 2846 2850
3629 45 2847 2848 2851
3630 45 2847 2848 2852
3631 45 2847 2853 2856
3632 45 2847 2853 2857
3633 45 2854 2855 2858
3634 45 2854 2855 2859
3635 45 2854 2860 2863
3636 45 2854 2860 2864
3637 45 2861 2862 2865
3638 45 2861 2862 2866
3639 45 2861 2867 2870
3640 45 2861 2867 2871
3641 45 2868 2869 2872
3642 45 2868 2869 2873
3643 45 2868 2874 2877
3644 45 2868 2874 2878
3645 45 2875 2876 2879
3646 45 2875 2876 2880
3647 45 2875 2881 2884
3648 45 2875 2881 2885
3649 45 2882 2883 2886
3650 45 2882 2883 2887
3651 45 2882 2888 2891
3652 45 2882 2888 2892
3653 45 2889 2890 2893
3654 45 2889 2890 2894
3655 45 2889 2895 2898
3656 45 2889 2895 2899
3657 45 2896 2897 2900
3658 45 2896 2897 2901
3659 45 2896 2902 2905
3660 45 2896 2902 2906
3661 45 2903 2904 2907
3662 45 2903 2904 2908
3663 45 2903 2909 2912
3664 45 2903 2909 2913
3665 45 2910 2911 2914
3666 45 2910 2911 2915
3667 45 2910 2916 2919
3668 45 2910 2916 2920
3669 45 2917 2918 2921
3670 45 2917 2918 2922
3671 45 2917 2923 2926
3672 45 2917 2923 2927
3673 45 2924 2925 2928
3674 45 2924 2925 2929
3675 45 2924 2930 2933
3676 45 2924 2930 2934
3677 45 2931 2932 2935
3678 45 2931 2932 2936
3679 45 2931 2937 2940
3680 45 2931 2937 2941
3681 45 2938 2939 2942
3682 45 2938 2939 2943
3683 45 2938 2944 2947
3684 45 2938 2944 2948
3685 45 2945 2946 2949
3686 45 2945 2946 2950
3687 45 2945 2951 2954
3688 45 2945 2951 2955
3689 45 2952 2953 2956
3690 45 2952 2953 2957
3691 45 2952 2958 2961
3692 45 2952 2958 2962
3693 45 2959 2960 2963
3694 45 2959 2960 2964
3695 45 2959 2965 2968
3696 45 2959 2965 2969
3697 45 2966 2967 2970
3698 45 2966 2967 2971
3699 45 2966 2972 2975
3700 45 2966 2972 2976
3701 45 2973 2974 2977
3702 45 2973 2974 2978
3703 45 2973 2979 2982
3704 45 2973 2979 2983
3705 45 2980 2981 2984
3706 45 2980 2981 2985
3707 45 2980 2986 2989
3708 45 2980 2986 2990
3709 45 2987 2988 2991
3710 45 2987 2988 2992
3711 45 2987 2993 2996
3712 45 2987 2993 2997
3713 45 2994 2995 2998
3714 45 2994 2995 2999
3715 45 2994 3000 3003
3716 45 2994 3000 3004
3717 45 3001 3002 3005
3718 45 3001 3002 3006
3719 45 3001 3007 3010
3720 45 3001 3007 3011
3721 45 3008 3009 3012
3722 45 3008 3009 3013
3723 45 3008 3014 3017
3724 45 3008 3014 3018
3725 45 3015 3016 3019
3726 45 3015 3016 3020
3727 45 3015 3021 3024
3728 45 3015 3021 3025
3729 45 3022 3023 3026
3730 45 3022 3023 3027
3731 45 3022 3028 3031
3732 45 3022 3028 3032
3733 45 3029 3030 3033
3734 45 3029 3030 3034
3735 45 3029 3035 3038
3736 45 3029 3035 3039
3737 45 3036 3037 3040
3738 45 3036 3037 3041
3739 45 3036 3042 3045
3740 45 3036 3042 3046
3741 45 3043 3044 3047
3742 45 3043 3044 3048
3743 45 3043 3049 3052
3744 45 3043 3049 3053
3745 45 3050 3051 3054
3746 45 3050 3051 3055
3747 45 3050 3056 3059
3748 45 3050 3056 3060
3749 45 3057 3058 3061
3750 45 3057 3058 3062
3751 45 3057 3063 3066
3752 45 3057 3063 3067
3753 45 3064 3065 3068
3754 45 3064 3065 3069
3755 45 3064 3070 3073
3756 45 3064 3070 3074
3757 45 3071 3072 3075
3758 45 3071 3072 3076
3759 45 3071 3077 3080
3760 45 3071 3077 3081
3761 45 3078 3079 3082
3762 45 3078 3079 3083
3763 45 3078 3084 3087
3764 45 3078 3084 3088
3765 45 3085 3086 3089
3766 45 3085 3086 3090
3767 45 3085 3091 3094
3768 45 3085 3091 3095
3769 45 3092 3093 3096
3770 45 3092 3093 3097
3771 45 3092 3098 3101
3772 45 3092 3098 3102
3773 45 3099 3100 3103
3774 45 3099 3100 3104
3775 45 3099 3105 3108
3776 45 3099 3105 3109
3777 45 3106 3107 3110
3778 45 3106 3107 3111
3779 45 3106 3112 3115
3780 45 3106 3112 3116
3781 45 3113 3114 3117
3782 45 3113 3114 3118
3783 45 3113 3119 3122
3784 45 3113 3119 3123
3785 45 3120 3121 3124
3786 45 3120 3121 3125
3787 45 3120 3126 3129
3788 45 3120 3126 3130
3789 45 3127 3128 3131
3790 45 3127 3128 3132
3791 45 3127 3133 3136
3792 45 3127 3133 3137
3793 45 3134 3135 3138
3794 45 3134 3135 3139
3795 45 3134 3140 3143
3796 45 3134 3140 3144
3797 45 3141 3142 3145
3798 45 3141 3142 3146
3799 45 3141 3147 3150
3800 45 3141 3147 3151
3801 45 3148 3149 3152
3802 45 3148 3149 3153
3803 45 3148 3154 3157
3804 45 3148 3154 3158
3805 45 3155 3156 3159
3806 45 3155 3156 3160
3807 45 3170 3171 3175
3808 45 3170 3171 3176
3809 45 3170 3177 3180
3810 45 3170 3177 3181
3811 45 3178 3179 3182
3812 45 3178 3179 3183
3813 45 3178 3184 3187
3814 45 3178 3184 3188
3815 45 3185 3186 3189
3816 45 3185 3186 3190
3817 45 3185 3191 3194
3818 45 3185 3191 3195
3819 45 3192 3193 3196
3820 45 3192 3193 3197
3821 45 3192 3198 3201
3822 45 3192 3198 3202
3823 45 3199 3200 3203
3824 45 3199 3200 3204
3825 45 3199 3205 3208
3826 45 3199 3205 3209
3827 45 3206 3207 3210
3828 45 3206 3207 3211
3829 45 3206 3212 3215
3830 45 3206 3212 3216
3831 45 3213 3214 3217
3832 45 3213 3214 3218
3833 45 3213 3219 3222
3834 45 3213 3219 3223
3835 45 3220 3221 3224
3836 45 3220 3221 3225
3837 45 3220 3226 3229
3838 45 3220 3226 3230
3839 45 3227 3228 3231
3840 45 3227 3228 3232
3841 45 3227 3233 3236
3842 45 3227 3233 3237
3843 45 3234 3235 3238
3844 45 3234 3235 3239
3845 45 3234 3240 3243
3846 45 3234 3240 3244
3847 45 3241 3242 3245
3848 45 3241 3242 3246
3849 45 3241 3247 3250
3850 45 3241 3247 3251
3851 45 3248 3249 3252
3852 45 3248 3249 3253
3853 45 3248 3254 3257
3854 45 3248 3254 3258
3855 45 3255 3256 3259
3856 45 3255 3256 3260
3857 45 3255 3261 3264
3858 45 3255 3261 3265
3859 45 3262 3263 3266
3860 45 3262 3263 3267
3861 45 3262 3268 3271
3862 45 3262 3268 3272
3863 45 3269 3270 3273
3864 45 3269 3270 3274
3865 45 3269 3275 3278
3866 45 3269 3275 3279
3867 45 3276 3277 3280
3868 45 3276 3277 3281
3869 45 3276 3282 3285
3870 45 3276 3282 3286
3871 45 3283 3284 3287
3872 45 3283 3284 3288
3873 45 3283 3289 3292
3874 45 3283 3289 3293
3875 45 3290 3291 3294
3876 45 3290 3291 3295
3877 45 3290 3296 3299
3878 45 3290 3296 3300
3879 45 3297 3298 3301
3880 45 3297 3298 3302
3881 45 3297 3303 3306
3882 45 3297 3303 3307
3883 45 3304 3305 3308
3884 45 3304 3305 3309
3885 45 3304 3310 3313
3886 45 3304 3310 3314
3887 45 3311 3312 3315
3888 45 3311 3312 3316
3889 45 3311 3317 3320
3890 45 3311 3317 3321
3891 45 3318 3319 3322
3892 45 3318 3319 3323
3893 45 3318 3324 3327
3894 45 3318 3324 3328
3895 45 3325 3326 3329
3896 45 3325 3326 3330
3897 45 3325 3331 3334
3898 45 3325 3331 3335
3899 45 3332 3333 3336
3900 45 3332 3333 3337
3901 45 3332 3338 3341
3902 45 3332 3338 3342
3903 45 3339 3340 3343
3904 45 3339 3340 3344
3905 45 3339 3345 3348
3906 45 3339 3345 3349
3907 45 3346 3347 3350
3908 45 3346 3347 3351
3909 45 3346 3352 3355
3910 45 3346 3352 3356
3911 45 3353 3354 3357
3912 45 3353 3354 3358
3913 45 3353 3359 3362
3914 45 3353 3359 3363
3915 45 3360 3361 3364
3916 45 3360 3361 3365
3917 45 3360 3366 3369
3918 45 3360 3366 3370
3919 45 3367 3368 3371
3920 45 3367 3368 3372
3921 45 3367 3373 3376
3922 45 3367 3373 3377
3923 45 3374 3375 3378
3924 45 3374 3375 3379
3925 45 3374 3380 3383
3926 45 3374 3380 3384
3927 45 3381 3382 3385
3928 45 3381 3382 3386
3929 45 3381 3387 3390
3930 45 3381 3387 3391
3931 45 3388 3389 3392
3932 45 3388 3389 3393
3933 45 3388 3394 3397
3934 45 3388 3394 3398
3935 45 3395 3396 3399
3936 45 3395 3396 3400
3937 45 3395 3401 3404
3938 45 3395 3401 3405
3939 45 3402 3403 3406
3940 45 3402 3403 3407
3941 45 3402 3408 3411
3942 45 3402 3408 3412
3943 45 3409 3410 3413
3944 45 3409 3410 3414
3945 45 3409 3415 3418
3946 45 3409 3415 3419
3947 45 3416 3417 3420
3948 45 3416 3417 3421
3949 45 3416 3422 3425
3950 45 3416 3422 3426
3951 45 3423 3424 3427
3952 45 3423 3424 3428
3953 45 3423 3429 3432
3954 45 3423 3429 3433
3955 45 3430 3431 3434
3956 45 3430 3431 3435
3957 45 3430 3436 3439
3958 45 3430 3436 3440
3959 45 3437 3438 3441
3960 45 3437 3438 3442
3961 45 3437 3443 3446
3962 45 3437 3443 3447
3963 45 3444 3445 3448
3964 45 3444 3445 3449
3965 45 3444 3450 3453
3966 45 3444 3450 3454
3967 45 3451 3452 3455
3968 45 3451 3452 3456
3969 45 3451 3457 3460
3970 45 3451 3457 3461
3971 45 3458 3459 3462
3972 45 3458 3459 3463
3973 45 3458 3464 3467
3974 45 3458 3464 3468
3975 45 3465 3466 3469
3976 45 3465 3466 3470
3977 45 3465 3471 3474
3978 45 3465 3471 3475
3979 45 3472 3473 3476
3980 45 3472 3473 3477
3981 45 3472 3478 3481
3982 45 3472 3478 3482
3983 45 3479 3480 3483
3984 45 3479 3480 3484
3985 45 3479 3485 3488
3986 45 3479 3485 3489
3987 45 3486 3487 3490
3988 45 3486 3487 3491
3989 45 3486 3492 3495
3990 45 3486 3492 3496
3991 45 3493 3494 3497
3992 45 3493 3494 3498
3993 45 3493 3499 3502
3994 45 3493 3499 3503
3995 45 3500 3501 3504
3996 45 3500 3501 3505
3997 45 3500 3506 3509
3998 45 3500 3506 3510
3999 45 3507 3508 3511
4000 45 3507 3508 3512
4001 51 1 3 7
4002 51 1 3 8
4003 51 353 355 359
4004 51 353 355 360
4005 51 705 707 711
4006 51 705 707 712
4007 51 1057 1059 1063
4008 51 1057 1059 1064
4009 51 1409 1411 1415
4010 51 1409 1411 1416
4011 51 1761 1763 1767
4012 51 1761 1763 1768
4013 51 2113 2115 2119
4014 51 2113 2115 2120
4015 51 2465 2467 2471
4016 51 2465 2467 2472
4017 51 2817 2819 2823
4018 51 2817 2819 2824
4019 51 3169 3171 3175
4020 51 3169 3171 3176
4021 56 346 345 348
4022 56 346 345 349
4023 56 698 697 700
4024 56 698 697 701
4025 56 1050 1049 1052
4026 56 1050 1049 1053
4027 56 1402 1401 1404
4028 56 1402 1401 1405
4029 56 1754 1753 1756
4030 56 1754 1753 1757
4031 56 2106 2105 2108
4032 56 2106 2105 2109
4033 56 2458 2457 2460
4034 56 2458 2457 2461
4035 56 2810 2809 2812
4036 56 2810 2809 2813
4037 56 3162 3161 3164
4038 56 3162 3161 3165
4039 56 3514 3513 3516
4040 56 3514 3513 3517
4041 58 3 1 4
4042 58 3 1 5
4043 58 3 1 6
4044 58 355 353 356
4045 58 355 353 357
4046 58 355 353 358
4047 58 707 705 708
4048 58 707 705 709
4049 58 707 705 710
4050 58 1059 1057 1060
4051 58 1059 1057 1061
4052 58 1059 1057 1062
4053 58 1411 1409 1412
4054 58 1411 1409 1413
4055 58 1411 1409 1414
4056 58 1763 1761 1764
4057 58 1763 1761 1765
4058 58 1763 1761 1766
4059 58 2115 2113 2116
4060 58 2115 2113 2117
4061 58 2115 2113 2118
4062 58 2467 2465 2468
4063 58 2467 2465 2469
4064 58 2467 2465 2470
4065 58 2819 2817 2820
4066 58 2819 2817 2821
4067 58 2819 2817 2822
4068 58 3171 3169 3172
4069 58 3171 3169 3173
4070 58 3171 3169 3174
4071 60 345 346 350
4072 60 345 346 351
4073 60 697 698 702
4074 60 697 698 703
4075 60 1049 1050 1054
4076 60 1049 1050 1055
4077 60 1401 1402 1406
4078 60 1401 1402 1407
4079 60 1753 1754 1758
4080 60 1753 1754 1759
4081 60 2105 2106 2110
4082 60 2105 2106 2111
4083 60 2457 2458 2462
4084 60 2457 2458 2463
4085 60 2809 2810 2814
4086 60 2809 2810 2815
4087 60 3161 3162 3166
4088 60 3161 3162 3167
4089 60 3513 3514 3518
4090 60 3513 3514 3519
4091 63 9 11 14
4092 63 9 11 15
4093 63 11 9 12
4094 63 11 9 13
4095 63 16 18 21
4096 63 16 18 22
4097 63 18 16 19
4098 63 18 16 20
4099 63 23 25 28
4100 63 23 25 29
4101 63 25 23 26
4102 63 25 23 27
4103 63 30 32 35
4104 63 30 32 36
4105 63 32 30 33
4106 63 32 30 34
4107 63 37 39 42
4108 63 37 39 43
4109 63 39 37 40
4110 63 39 37 41
4111 63 44 46 49
4112 63 44 46 50
4113 63 46 44 47
4114 63 46 44 48
4115 63 51 53 56
4116 63 51 53 57
4117 63 53 51 54
4118 63 53 51 55
4119 63 58 60 63
4120 63 58 60 64
4121 63 60 58 61
4122 63 60 58 62
4123 63 65 67 70
4124 63 65 67 71
4125 63 67 65 68
4126 63 67 65 69
4127 63 72 74 77
4128 63 72 74 78
4129 63 74 72 75
4130 63 74 72 76
4131 63 79 81 84
4132 63 79 81 85
4133 63 81 79 82
4134 63 81 79 83
4135 63 86 88 91
4136 63 86 88 92
4137 63 88 86 89
4138 63 88 86 90
4139 63 93 95 98
4140 63 93 95 99
4141 63 95 93 96
4142 63 95 93 97
4143 63 100 102 105
4144 63 100 102 106
4145 63 102 100 103
4146 63 102 100 104
4147 63 107 109 112
4148 63 107 109 113
4149 63 109 107 110
4150 63 109 107 111
4151 63 114 116 119
4152 63 114 116 120
4153 63 116 114 117
4154 63 116 114 118
4155 63 121 123 126
4156 63 121 123 127
4157 63 123 121 124
4158 63 123 121 125
4159 63 128 130 133
4160 63 128 130 134
4161 63 130 128 131
4162 63 130 128 132
4163 63 135 137 140
4164 63 135 137 141
4165 63 137 135 138
4166 63 137 135 139
4167 63 142 144 147
4168 63 142 144 148
4169 63 144 142 145
4170 63 144 142 146
4171 63 149 151 154
4172 63 149 151 155
4173 63 151 149 152
4174 63 151 149 153
4175 63 156 158 161
4176 63 156 158 162
4177 63 158 156 159
4178 63 158 156 160
4179 63 163 165 168
4180 63 163 165 169
4181 63 165 163 166
4182 63 165 163 167
4183 63 170 172 175
4184 63 170 172 176
4185 63 172 170 173
4186 63 172 170 174
4187 63 177 179 182
4188 63 177 179 183
4189 63 179 177 180
4190 63 179 177 181
4191 63 184 186 189
4192 63 184 186 190
4193 63 186 184 187
4194 63 186 184 188
4195 63 191 193 196
4196 63 191 193 197
4197 63 193 191 194
4198 63 193 191 195
4199 63 198 200 203
4200 63 198 200 204
4201 63 200 198 201
4202 63 200 198 202
4203 63 205 207 210
4204 63 205 207 211
4205 63 207 205 208
4206 63 207 205 209
4207 63 212 214 217
4208 63 212 214 218
4209 63 214 212 215
4210 63 214 212 216
4211 63 219 221 224
4212 63 219 221 225
4213 63 221 219 222
4214 63 221 219 223
4215 63 226 228 231
4216 63 226 228 232
4217 63 228 226 229
4218 63 228 226 230
4219 63 233 235 238
4220 63 233 235 239
4221 63 235 233 236
4222 63 235 233 237
4223 63 240 242 245
4224 63 240 242 246
4225 63 242 240 243
4226 63 242 240 244
4227 63 247 249 252
4228 63 247 249 253
4229 63 249 247 250
4230 63 249 247 251
4231 63 254 256 259
4232 63 254 256 260
4233 63 256 254 257
4234 63 256 254 258
4235 63 261 263 266
4236 63 261 263 267
4237 63 263 261 264
4238 63 263 261 265
4239 63 268 270 273
4240 63 268 270 274
4241 63 270 268 271
4242 63 270 268 272
4243 63 275 277 280
4244 63 275 277 281
4245 63 277 275 278
4246 63 277 275 279
4247 63 282 284 287
4248 63 282 284 288
4249 63 284 282 285
4250 63 284 282 286
4251 63 289 291 294
4252 63 289 291 295
4253 63 291 289 292
4254 63 291 289 293
4255 63 296 298 301
4256 63 296 298 302
4257 63 298 296 299
4258 63 298 296 300
4259 63 303 305 308
4260 63 303 305 309
4261 63 305 303 306
4262 63 305 303 307
4263 63 310 312 315
4264 63 310 312 316
4265 63 312 310 313
4266 63 312 310 314
4267 63 317 319 322
4268 63 317 319 323
4269 63 319 317 320
4270 63 319 317 321
4271 63 324 326 329
4272 63 324 326 330
4273 63 326 324 327
4274 63 326 324 328
4275 63 331 333 336
4276 63 331 333 337
4277 63 333 331 334
4278 63 333 331 335
4279 63 338 340 343
4280 63 338 340 344
4281 63 340 338 341
4282 63 340 338 342
4283 63 361 363 366
4284 63 361 363 367
4285 63 363 361 364
4286 63 363 361 365
4287 63 368 370 373
4288 63 368 370 374
4289 63 370 368 371
4290 63 370 368 372
4291 63 375 377 380
4292 63 375 377 381
4293 63 377 375 378
4294 63 377 375 379
4295 63 382 384 387
4296 63 382 384 388
4297 63 384 382 385
4298 63 384 382 386
4299 63 389 391 394
4300 63 389 391 395
4301 63 391 389 392
4302 63 391 389 393
4303 63 396 398 401
4304 63 396 398 402
4305 63 398 396 399
4306 63 398 396 400
4307 63 403 405 408
4308 63 403 405 409
4309 63 405 403 406
4310 63 405 403 407
4311 63 410 412 415
4312 63 410 412 416
4313 63 412 410 413
4314 63 412 410 414
4315 63 417 419 422
4316 63 417 419 423
4317 63 419 417 420
4318 63 419 417 421
4319 63 424 426 429
4320 63 424 426 430
4321 63 426 424 427
4322 63 426 424 428
4323 63 431 433 436
4324 63 431 433 437
4325 63 433 431 434
4326 63 433 431 435
4327 63 438 440 443
4328 63 438 440 444
4329 63 440 438 441
4330 63 440 438 442
4331 63 445 447 450
4332 63 445 447 451
4333 63 447 445 448
4334 63 447 445 449
4335 63 452 454 457
4336 63 452 454 458
4337 63 454 452 455
4338 63 454 452 456
4339 63 459 461 464
4340 63 459 461 465
4341 63 461 459 462
4342 63 461 459 463
4343 63 466 468 471
4344 63 466 468 472
4345 63 468 466 469
4346 63 468 466 470
4347 63 473 475 478
4348 63 473 475 479
4349 63 475 473 476
4350 63 475 473 477
4351 63 480 482 485
4352 63 480 482 486
4353 63 482 480 483
4354 63 482 480 484
4355 63 487 489 492
4356 63 487 489 493
4357 63 489 487 490
4358 63 489 487 491
4359 63 494 496 499
4360 63 494 496 500
4361 63 496 494 497
4362 63 496 494 498
4363 63 501 503 506
4364 63 501 503 507
4365 63 503 501 504
4366 63 503 501 505
4367 63 508 510 513
4368 63 508 510 514
4369 63 510 508 511
4370 63 510 508 512
4371 63 515 517 520
4372 63 515 517 521
4373 63 517 515 518
4374 63 517 515 519
4375 63 522 524 527
4376 63 522 524 528
4377 63 524 522 525
4378 63 524 522 526
4379 63 529 531 534
4380 63 529 531 535
4381 63 531 529 532
4382 63 531 529 533
4383 63 536 538 541
4384 63 536 538 542
4385 63 538 536 539
4386 63 538 536 540
4387 63 543 545 548
4388 63 543 545 549
4389 63 545 543 546
4390 63 545 543 547
4391 63 550 552 555
4392 63 550 552 556
4393 63 552 550 553
4394 63 552 550 554
4395 63 557 559 562
4396 63 557 559 563
4397 63 559 557 560
4398 63 559 557 561
4399 63 564 566 569
4400 63 564 566 570
4401 63 566 564 567
4402 63 566 564 568
4403 63 571 573 576
4404 63 571 573 577
4405 63 573 571 574
4406 63 573 571 575
4407 63 578 580 583
4408 63 578 580 584
4409 63 580 578 581
4410 63 580 578 582
4411 63 585 587 590
4412 63 585 587 591
4413 63 587 585 588
4414 63 587 585 589
4415 63 592 594 597
4416 63 592 594 598
4417 63 594 592 595
4418 63 594 592 596
4419 63 599 601 604
4420 63 599 601 605
4421 63 601 599 602
4422 63 601 599 603
4423 63 606 608 611
4424 63 606 608 612
4425 63 608 606 609
4426 63 608 606 610
4427 63 613 615 618
4428 63 613 615 619
4429 63 615 613 616
4430 63 615 613 617
4431 63 620 622 625
4432 63 620 622 626
4433 63 622 620 623
4434 63 622 620 624
4435 63 627 629 632
4436 63 627 629 633
4437 63 629 627 630
4438 63 629 627 631
4439 63 634 636 639
4440 63 634 636 640
4441 63 636 634 637
4442 63 636 634 638
4443 63 641 643 646
4444 63 641 643 647
4445 63 643 641 644
4446 63 643 641 645
4447 63 648 650 653
4448 63 648 650 654
4449 63 650 648 651
4450 63 650 648 652
4451 63 655 657 660
4452 63 655 657 661
4453 63 657 655 658
4454 63 657 655 659
4455 63 662 664 667
4456 63 662 664 668
4457 63 664 662 665
4458 63 664 662 666
4459 63 669 671 674
4460 63 669 671 675
4461 63 671 669 672
4462 63 671 669 673
4463 63 676 678 681
4464 63 676 678 682
4465 63 678 676 679
4466 63 678 676 680
4467 63 683 685 688
4468 63 683 685 689
4469 63 685 683 686
4470 63 685 683 687
4471 63 690 692 695
4472 63 690 692 696
4473 63 692 690 693
4474 63 692 690 694
4475 63 713 715 718
4476 63 713 715 719
4477 63 715 713 716
4478 63 715 713 717
4479 63 720 722 725
4480 63 720 722 726
4481 63 722 720 723
4482 63 722 720 724
4483 63 727 729 732
4484 63 727 729 733
4485 63 729 727 730
4486 63 729 727 731
4487 63 734 736 739
4488 63 734 736 740
4489 63 736 734 737
4490 63 736 734 738
4491 63 741 743 746
4492 63 741 743 747
4493 63 743 741 744
4494 63 743 741 745
4495 63 748 750 753
4496 63 748 750 754
4497 63 750 748 751
4498 63 750 748 752
4499 63 755 757 760
4500 63 755 757 761
4501 63 757 755 758
4502 63 757 755 759
4503 63 762 764 767
4504 63 762 764 768
4505 63 764 762 765
4506 63 764 762 766
4507 63 769 771 774
4508 63 769 771 775
4509 63 771 769 772
4510 63 771 769 773
4511 63 776 778 781
4512 63 776 778 782
4513 63 778 776 779
4514 63 778 776 780
4515 63 783 785 788
4516 63 783 785 789
4517 63 785 783 786
4518 63 785 783 787
4519 63 790 792 795
4520 63 790 792 796
4521 63 792 790 793
4522 63 792 790 794
4523 63 797 799 802
4524 63 797 799 803
4525 63 799 797 800
4526 63 799 797 801
4527 63 804 806 809
4528 63 804 806 810
4529 63 806 804 807
4530 63 806 804 808
4531 63 811 813 816
4532 63 811 813 817
4533 63 813 811 814
4534 63 813 811 815
4535 63 818 820 823
4536 63 818 820 824
4537 63 820 818 821
4538 63 820 818 822
4539 63 825 827 830
4540 63 825 827 831
4541 63 827 825 828
4542 63 827 825 829
4543 63 832 834 837
4544 63 832 834 838
4545 63 834 832 835
4546 63 834 832 836
4547 63 839 841 844
4548 63 839 841 845
4549 63 841 839 842
4550 63 841 839 843
4551 63 846 848 851
4552 63 846 848 852
4553 63 848 846 849
4554 63 848 846 850
4555 63 853 855 858
4556 63 853 855 859
4557 63 855 853 856
4558 63 855 853 857
4559 63 860 862 865
4560 63 860 862 866
4561 63 862 860 863
4562 63 862 860 864
4563 63 867 869 872
4564 63 867 869 873
4565 63 869 867 870
4566 63 869 867 871
4567 63 874 876 879
4568 63 874 876 880
4569 63 876 874 877
4570 63 876 874 878
4571 63 881 883 886
4572 63 881 883 887
4573 63 883 881 884
4574 63 883 881 885
4575 63 888 890 893
4576 63 888 890 894
4577 63 890 888 891
4578 63 890 888 892
4579 63 895 897 900
4580 63 895 897 901
4581 63 897 895 898
4582 63 897 895 899
4583 63 902 904 907
4584 63 902 904 908
4585 63 904 902 905
4586 63 904 902 906
4587 63 909 911 914
4588 63 909 911 915
4589 63 911 909 912
4590 63 911 909 913
4591 63 916 918 921
4592 63 916 918 922
4593 63 918 916 919
4594 63 918 916 920
4595 63 923 925 928
4596 63 923 925 929
4597 63 925 923 926
4598 63 925 923 927
4599 63 930 932 935
4600 63 930 932 936
4601 63 932 930 933
4602 63 932 930 934
4603 63 937 939 942
4604 63 937 939 943
4605 63 939 937 940
4606 63 939 937 941
4607 63 944 946 949
4608 63 944 946 950
4609 63 946 944 947
4610 63 946 944 948
4611 63 951 953 956
4612 63 951 953 957
4613 63 953 951 954
4614 63 953 951 955
4615 63 958 960 963
4616 63 958 960 964
4617 63 960 958 961
4618 63 960 958 962
4619 63 965 967 970
4620 63 965 967 971
4621 63 967 965 968
4622 63 967 965 969
4623 63 972 974 977
4624 63 972 974 978
4625 63 974 972 975
4626 63 974 972 976
4627 63 979 981 984
4628 63 979 981 985
4629 63 981 979 982
4630 63 981 979 983
4631 63 986 988 991
4632 63 986 988 992
4633 63 988 986 989
4634 63 988 986 990
4635 63 993 995 998
4636 63 993 995 999
4637 63 995 993 996
4638 63 995 993 997
4639 63 1000 1002 1005
4640 63 1000 1002 1006
4641 63 1002 1000 1003
4642 63 1002 1000 1004
4643 63 1007 1009 1012
4644 63 1007 1009 1013
4645 63 1009 1007 1010
4646 63 1009 1007 1011
4647 63 1014 1016 1019
4648 63 1014 1016 1020
4649 63 1016 1014 1017
4650 63 1016 1014 1018
4651 63 1021 1023 1026
4652 63 1021 1023 1027
4653 63 1023 1021 1024
4654 63 1023 1021 1025
4655 63 1028 1030 1033
4656 63 1028 1030 1034
4657 63 1030 1028 1031
4658 63 1030 1028 1032
4659 63 1035 1037 1040
4660 63 1035 1037 1041
4661 63 1037 1035 1038
4662 63 1037 1035 1039
4663 63 1042 1044 1047
4664 63 1042 1044 1048
4665 63 1044 1042 1045
4666 63 1044 1042 1046
4667 63 1065 1067 1070
4668 63 1065 1067 1071
4669 63 1067 1065 1068
4670 63 1067 1065 1069
4671 63 1072 1074 1077
4672 63 1072 1074 1078
4673 63 1074 1072 1075
4674 63 1074 1072 1076
4675 63 1079 1081 1084
4676 63 1079 1081 1085
4677 63 1081 1079 1082
4678 63 1081 1079 1083
4679 63 1086 1088 1091
4680 63 1086 1088 1092
4681 63 1088 1086 1089
4682 63 1088 1086 1090
4683 63 1093 1095 1098
4684 63 1093 1095 1099
4685 63 1095 1093 1096
4686 63 1095 1093 1097
4687 63 1100 1102 1105
4688 63 1100 1102 1106
4689 63 1102 1100 1103
4690 63 1102 1100 1104
4691 63 1107 1109 1112
4692 63 1107 1109 1113
4693 63 1109 1107 1110
4694 63 1109 1107 1111
4695 63 1114 1116 1119
4696 63 1114 1116 1120
4697 63 1116 1114 1117
4698 63 1116 1114 1118
4699 63 1121 1123 1126
4700 63 1121 1123 1127
4701 63 1123 1121 1124
4702 63 1123 1121 1125
4703 63 1128 1130 1133
4704 63 1128 1130 1134
4705 63 1130 1128 1131
4706 63 1130 1128 1132
4707 63 1135 1137 1140
4708 63 1135 1137 1141
4709 63 1137 1135 1138
4710 63 1137 1135 1139
4711 63 1142 1144 1147
4712 63 1142 1144 1148
4713 63 1144 1142 1145
4714 63 1144 1142 1146
4715 63 1149 1151 1154
4716 63 1149 1151 1155
4717 63 1151 1149 1152
4718 63 1151 1149 1153
4719 63 1156 1158 1161
4720 63 1156 1158 1162
4721 63 1158 1156 1159
4722 63 1158 1156 1160
4723 63 1163 1165 1168
4724 63 1163 1165 1169
4725 63 1165 1163 1166
4726 63 1165 1163 1167
4727 63 1170 1172 1175
4728 63 1170 1172 1176
4729 63 1172 1170 1173
4730 63 1172 1170 1174
4731 63 1177 1179 1182
4732 63 1177 1179 1183
4733 63 1179 1177 1180
4734 63 1179 1177 1181
4735 63 1184 1186 1189
4736 63 1184 1186 1190
4737 63 1186 1184 1187
4738 63 1186 1184 1188
4739 63 1191 1193 1196
4740 63 1191 1193 1197
4741 63 1193 1191 1194
4742 63 1193 1191 1195
4743 63 1198 1200 1203
4744 63 1198 1200 1204
4745 63 1200 1198 1201
4746 63 1200 1198 1202
4747 63 1205 1207 1210
4748 63 1205 1207 1211
4749 63 1207 1205 1208
4750 63 1207 1205 1209
4751 63 1212 1214 1217
4752 63 1212 1214 1218
4753 63 1214 1212 1215
4754 63 1214 1212 1216
4755 63 1219 1221 1224
4756 63 1219 1221 1225
4757 63 1221 1219 1222
4758 63 1221 1219 1223
4759 63 1226 1228 1231
4760 63 1226 1228 1232
4761 63 1228 1226 1229
4762 63 1228 1226 1230
4763 63 1233 1235 1238
4764 63 1233 1235 1239
4765 63 1235 1233 1236
4766 63 1235 1233 1237
4767 63 1240 1242 1245
4768 63 1240 1242 1246
4769 63 1242 1240 1243
4770 63 1242 1240 1244
4771 63 1247 1249 1252
4772 63 1247 1249 1253
4773 63 1249 1247 1250
4774 63 1249 1247 1251
4775 63 1254 1256 1259
4776 63 1254 1256 1260
4777 63 1256 1254 1257
4778 63 1256 1254 1258
4779 63 1261 1263 1266
4780 63 1261 1263 1267
4781 63 1263 1261 1264
4782 63 1263 1261 1265
4783 63 1268 1270 1273
4784 63 1268 1270 1274
4785 63 1270 1268 1271
4786 63 1270 1268 1272
4787 63 1275 1277 1280
4788 63 1275 1277 1281
4789 63 1277 1275 1278
4790 63 1277 1275 1279
4791 63 1282 1284 1287
4792 63 1282 1284 1288
4793 63 1284 1282 1285
4794 63 1284 1282 1286
4795 63 1289 1291 1294
4796 63 1289 1291 1295
4797 63 1291 1289 1292
4798 63 1291 1289 1293
4799 63 1296 1298 1301
4800 63 1296 1298 1302
4801 63 1298 1296 1299
4802 63 1298 1296 1300
4803 63 1303 1305 1308
4804 63 1303 1305 1309
4805 63 1305 1303 1306
4806 63 1305 1303 1307
4807 63 1310 1312 1315
4808 63 1310 1312 1316
4809 63 1312 1310 1313
4810 63 1312 1310 1314
4811 63 1317 1319 1322
4812 63 1317 1319 1323
4813 63 1319 1317 1320
4814 63 1319 1317 1321
4815 63 1324 1326 1329
4816 63 1324 1326 1330
4817 63 1326 1324 1327
4818 63 1326 1324 1328
4819 63 1331 1333 1336
4820 63 1331 1333 1337
4821 63 1333 1331 1334
4822 63 1333 1331 1335
4823 63 1338 1340 1343
4824 63 1338 1340 1344
4825 63 1340 1338 1341
4826 63 1340 1338 1342
4827 63 1345 1347 1350
4828 63 1345 1347 1351
4829 63 1347 1345 1348
4830 63 1347 1345 1349
4831 63 1352 1354 1357
4832 63 1352 1354 1358
4833 63 1354 1352 1355
4834 63 1354 1352 1356
4835 63 1359 1361 1364
4836 63 1359 1361 1365
4837 63 1361 1359 1362
4838 63 1361 1359 1363
4839 63 1366 1368 1371
4840 63 1366 1368 1372
4841 63 1368 1366 1369
4842 63 1368 1366 1370
4843 63 1373 1375 1378
4844 63 1373 1375 1379
4845 63 1375 1373 1376
4846 63 1375 1373 1377
4847 63 1380 1382 1385
4848 63 1380 1382 1386
4849 63 1382 1380 1383
4850 63 1382 1380 1384
4851 63 1387 1389 1392
4852 63 1387 1389 1393
4853 63 1389 1387 1390
4854 63 1389 1387 1391
4855 63 1394 1396 1399
4856 63 1394 1396 1400
4857 63 1396 1394 1397
4858 63 1396 1394 1398
4859 63 1417 1419 1422
4860 63 1417 1419 1423
4861 63 1419 1417 1420
4862 63 1419 1417 1421
4863 63 1424 1426 1429
4864 63 1424 1426 1430
4865 63 1426 1424 1427
4866 63 1426 1424 1428
4867 63 1431 1433 1436
4868 63 1431 1433 1437
4869 63 1433 1431 1434
4870 63 1433 1431 1435
4871 63 1438 1440 1443
4872 63 1438 1440 1444
4873 63 1440 1438 1441
4874 63 1440 1438 1442
4875 63 1445 1447 1450
4876 63 1445 1447 1451
4877 63 1447 1445 1448
4878 63 1447 1445 1449
4879 63 1452 1454 1457
4880 63 1452 1454 1458
4881 63 1454 1452 1455
4882 63 1454 1452 1456
4883 63 1459 1461 1464
4884 63 1459 1461 1465
4885 63 1461 1459 1462
4886 63 1461 1459 1463
4887 63 1466 1468 1471
4888 63 1466 1468 1472
4889 63 1468 1466 1469
4890 63 1468 1466 1470
4891 63 1473 1475 1478
4892 63 1473 1475 1479
4893 63 1475 1473 1476
4894 63 1475 1473 1477
4895 63 1480 1482 1485
4896 63 1480 1482 1486
4897 63 1482 1480 1483
4898 63 1482 1480 1484
4899 63 1487 1489 1492
4900 63 1487 1489 1493
4901 63 1489 1487 1490
4902 63 1489 1487 1491
4903 63 1494 1496 1499
4904 63 1494 1496 1500
4905 63 1496 1494 1497
4906 63 1496 1494 1498
4907 63 1501 1503 1506
4908 63 1501 1503 1507
4909 63 1503 1501 1504
4910 63 1503 1501 1505
4911 63 1508 1510 1513
4912 63 1508 1510 1514
4913 63 1510 1508 1511
4914 63 1510 1508 1512
4915 63 1515 1517 1520
4916 63 1515 1517 1521
4917 63 1517 1515 1518
4918 63 1517 1515 1519
4919 63 1522 1524 1527
4920 63 1522 1524 1528
4921 63 1524 1522 1525
4922 63 1524 1522 1526
4923 63 1529 1531 1534
4924 63 1529 1531 1535
4925 63 1531 1529 1532
4926 63 1531 1529 1533
4927 63 1536 1538 1541
4928 63 1536 1538 1542
4929 63 1538 1536 1539
4930 63 1538 1536 1540
4931 63 1543 1545 1548
4932 63 1543 1545 1549
4933 63 1545 1543 1546
4934 63 1545 1543 1547
4935 63 1550 1552 1555
4936 63 1550 1552 1556
4937 63 1552 1550 1553
4938 63 1552 1550 1554
4939 63 1557 1559 1562
4940 63 1557 1559 1563
4941 63 1559 1557 1560
4942 63 1559 1557 1561
4943 63 1564 1566 1569
4944 63 1564 1566 1570
4945 63 1566 1564 1567
4946 63 1566 1564 1568
4947 63 1571 1573 1576
4948 63 1571 1573 1577
4949 63 1573 1571 1574
4950 63 1573 1571 1575
4951 63 1578 1580 1583
4952 63 1578 1580 1584
4953 63 1580 1578 1581
4954 63 1580 1578 1582
4955 63 1585 1587 1590
4956 63 1585 1587 1591
4957 63 1587 1585 1588
4958 63 1587 1585 1589
4959 63 1592 1594 1597
4960 63 1592 1594 1598
4961 63 1594 1592 1595
4962 63 1594 1592 1596
4963 63 1599 1601 1604
4964 63 1599 1601 1605
4965 63 1601 1599 1602
4966 63 1601 1599 1603
4967 63 1606 1608 1611
4968 63 1606 1608 1612
4969 63 1608 1606 1609
4970 63 1608 1606 1610
4971 63 1613 1615 1618
4972 63 1613 1615 1619
4973 63 1615 1613 1616
4974 63 1615 1613 1617
4975 63 1620 1622 1625
4976 63 1620 1622 1626
4977 63 1622 1620 1623
4978 63 1622 1620 1624
4979 63 1627 1629 1632
4980 63 1627 1629 1633
4981 63 1629 1627 1630
4982 63 1629 1627 1631
4983 63 1634 1636 1639
4984 63 1634 1636 1640
4985 63 1636 1634 1637
4986 63 1636 1634 1638
4987 63 1641 1643 1646
4988 63 1641 1643 1647
4989 63 1643 1641 1644
4990 63 1643 1641 1645
4991 63 1648 1650 1653
4992 63 1648 1650 1654
4993 63 1650 1648 1651
4994 63 1650 1648 1652
4995 63 1655 1657 1660
4996 63 1655 1657 1661
4997 63 1657 1655 1658
4998 63 1657 1655 1659
4999 63 1662 1664 1667
5000 63 1662 1664 1668
5001 63 1664 1662 1665
5002 63 1664 1662 1666
5003 63 1669 1671 1674
5004 63 1669 1671 1675
5005 63 1671 1669 1672
5006 63 1671 1669 1673
5007 63 1676 1678 1681
5008 63 1676 1678 1682
5009 63 1678 1676 1679
5010 63 1678 1676 1680
5011 63 1683 1685 1688
5012 63 1683 1685 1689
5013 63 1685 1683 1686
5014 63 1685 1683 1687
5015 63 1690 1692 1695
5016 63 1690 1692 1696
5017 63 1692 1690 1693
5018 63 1692 1690 1694
5019 63 1697 1699 1702
5020 63 1697 1699 1703
5021 63 1699 1697 1700
5022 63 1699 1697 1701
5023 63 1704 1706 1709
5024 63 1704 1706 1710
5025 63 1706 1704 1707
5026 63 1706 1704 1708
5027 63 1711 1713 1716
5028 63 1711 1713 1717
5029 63 1713 1711 1714
5030 63 1713 1711 1715
5031 63 1718 1720 1723
5032 63 1718 1720 1724
5033 63 1720 1718 1721
5034 63 1720 1718 1722
5035 63 1725 1727 1730
5036 63 1725 1727 1731
5037 63 1727 1725 1728
5038 63 1727 1725 1729
5039 63 1732 1734 1737
5040 63 1732 1734 1738
5041 63 1734 1732 1735
5042 63 1734 1732 1736
5043 63 1739 1741 1744
5044 63 1739 1741 1745
5045 63 1741 1739 1742
5046 63 1741 1739 1743
5047 63 1746 1748 1751
5048 63 1746 1748 1752
5049 63 1748 1746 1749
5050 63 1748 1746 1750
5051 63 1769 1771 1774
5052 63 1769 1771 1775
5053 63 1771 1769 1772
5054 63 1771 1769 1773
5055 63 1776 1778 1781
5056 63 1776 1778 1782
5057 63 1778 1776 1779
5058 63 1778 1776 1780
5059 63 1783 1785 1788
5060 63 1783 1785 1789
5061 63 1785 1783 1786
5062 63 1785 1783 1787
5063 63 1790 1792 1795
5064 63 1790 1792 1796
5065 63 1792 1790 1793
5066 63 1792 1790 1794
5067 63 1797 1799 1802
5068 63 1797 1799 1803
5069 63 1799 1797 1800
5070 63 1799 1797 1801
5071 63 1804 1806 1809
5072 63 1804 1806 1810
5073 63 1806 1804 1807
5074 63 1806 1804 1808
5075 63 1811 1813 1816
5076 63 1811 1813 1817
5077 63 1813 1811 1814
5078 63 1813 1811 1815
5079 63 1818 1820 1823
5080 63 1818 1820 1824
5081 63 1820 1818 1821
5082 63 1820 1818 1822
5083 63 1825 1827 1830
5084 63 1825 1827 1831
5085 63 1827 1825 1828
5086 63 1827 1825 1829
5087 63 1832 1834 1837
5088 63 1832 1834 1838
5089 63 1834 1832 1835
5090 63 1834 1832 1836
5091 63 1839 1841 1844
5092 63 1839 1841 1845
5093 63 1841 1839 1842
5094 63 1841 1839 1843
5095 63 1846 1848 1851
5096 63 1846 1848 1852
5097 63 1848 1846 1849
5098 63 1848 1846 1850
5099 63 1853 1855 1858
5100 63 1853 1855 1859
5101 63 1855 1853 1856
5102 63 1855 1853 1857
5103 63 1860 1862 1865
5104 63 1860 1862 1866
5105 63 1862 1860 1863
5106 63 1862 1860 1864
5107 63 1867 1869 1872
5108 63 1867 1869 1873
5109 63 1869 1867 1870
5110 63 1869 1867 1871
5111 63 1874 1876 1879
5112 63 1874 1876 1880
5113 63 1876 1874 1877
5114 63 1876 1874 1878
5115 63 1881 1883 1886
5116 63 1881 1883 1887
5117 63 1883 1881 1884
5118 63 1883 1881 1885
5119 63 1888 1890 1893
5120 63 1888 1890 1894
5121 63 1890 1888 1891
5122 63 1890 1888 1892
5123 63 1895 1897 1900
5124 63 1895 1897 1901
5125 63 1897 1895 1898
5126 63 1897 1895 1899
5127 63 1902 1904 1907
5128 63 1902 1904 1908
5129 63 1904 1902 1905
5130 63 1904 1902 1906
5131 63 1909 1911 1914
5132 63 1909 1911 1915
5133 63 1911 1909 1912
5134 63 1911 1909 1913
5135 63 1916 1918 1921
5136 63 1916 1918 1922
5137 63 1918 1916 1919
5138 63 1918 1916 1920
5139 63 1923 1925 1928
5140 63 1923 1925 1929
5141 63 1925 1923 1926
5142 63 1925 1923 1927
5143 63 1930 1932 1935
5144 63 1930 1932 1936
5145 63 1932 1930 1933
5146 63 1932 1930 1934
5147 63 1937 1939 1942
5148 63 1937 1939 1943
5149 63 1939 1937 1940
5150 63 1939 1937 1941
5151 63 1944 1946 1949
5152 63 1944 1946 1950
5153 63 1946 1944 1947
5154 63 1946 1944 1948
5155 63 1951 1953 1956
5156 63 1951 1953 1957
5157 63 1953 1951 1954
5158 63 1953 1951 1955
5159 63 1958 1960 1963
5160 63 1958 1960 1964
5161 63 1960 1958 1961
5162 63 1960 1958 1962
5163 63 1965 1967 1970
5164 63 1965 1967 1971
5165 63 1967 1965 1968
5166 63 1967 1965 1969
5167 63 1972 1974 1977
5168 63 1972 1974 1978
5169 63 1974 1972 1975
5170 63 1974 1972 1976
5171 63 1979 1981 1984
5172 63 1979 1981 1985
5173 63 1981 1979 1982
5174 63 1981 1979 1983
5175 63 1986 1988 1991
5176 63 1986 1988 1992
5177 63 1988 1986 1989
5178 63 1988 1986 1990
5179 63 1993 1995 1998
5180 63 1993 1995 1999
5181 63 1995 1993 1996
5182 63 1995 1993 1997
5183 63 2000 2002 2005
5184 63 2000 2002 2006
5185 63 2002 2000 2003
5186 63 2002 2000 2004
5187 63 2007 2009 2012
5188 63 2007 2009 2013
5189 63 2009 2007 2010
5190 63 2009 2007 2011
5191 63 2014 2016 2019
5192 63 2014 2016 2020
5193 63 2016 2014 2017
5194 63 2016 2014 2018
5195 63 2021 2023 2026
5196 63 2021 2023 2027
5197 63 2023 2021 2024
5198 63 2023 2021 2025
5199 63 2028 2030 2033
5200 63 2028 2030 2034
5201 63 2030 2028 2031
5202 63 2030 2028 2032
5203 63 2035 2037 2040
5204 63 2035 2037 2041
5205 63 2037 2035 2038
5206 63 2037 2035 2039
5207 63 2042 2044 2047
5208 63 2042 2044 2048
5209 63 2044 2042 2045
5210 63 2044 2042 2046
5211 63 2049 2051 2054
5212 63 2049 2051 2055
5213 63 2051 2049 2052
5214 63 2051 2049 2053
5215 63 2056 2058 2061
5216 63 2056 2058 2062
5217 63 2058 2056 2059
5218 63 2058 2056 2060
5219 63 2063 2065 2068
5220 63 2063 2065 2069
5221 63 2065 2063 2066
5222 63 2065 2063 2067
5223 63 2070 2072 2075
5224 63 2070 2072 2076
5225 63 2072 2070 2073
5226 63 2072 2070 2074
5227 63 2077 2079 2082
5228 63 2077 2079 2083
5229 63 2079 2077 2080
5230 63 2079 2077 2081
5231 63 2084 2086 2089
5232 63 2084 2086 2090
5233 63 2086 2084 2087
5234 63 2086 2084 2088
5235 63 2091 2093 2096
5236 63 2091 2093 2097
5237 63 2093 2091 2094
5238 63 2093 2091 2095
5239 63 2098 2100 2103
5240 63 2098 2100 2104
5241 63 2100 2098 2101
5242 63 2100 2098 2102
5243 63 2121 2123 2126
5244 63 2121 2123 2127
5245 63 2123 2121 2124
5246 63 2123 2121 2125
5247 63 2128 2130 2133
5248 63 2128 2130 2134
5249 63 2130 2128 2131
5250 63 2130 2128 2132
5251 63 2135 2137 2140
5252 63 2135 2137 2141
5253 63 2137 2135 2138
5254 63 2137 2135 2139
5255 63 2142 2144 2147
5256 63 2142 2144 2148
5257 63 2144 2142 2145
5258 63 2144 2142 2146
5259 63 2149 2151 2154
5260 63 2149 2151 2155
5261 63 2151 2149 2152
5262 63 2151 2149 2153
5263 63 2156 2158 2161
5264 63 2156 2158 2162
5265 63 2158 2156 2159
5266 63 2158 2156 2160
5267 63 2163 2165 2168
5268 63 2163 2165 2169
5269 63 2165 2163 2166
5270 63 2165 2163 2167
5271 63 2170 2172 2175
5272 63 2170 2172 2176
5273 63 2172 2170 2173
5274 63 2172 2170 2174
5275 63 2177 2179 2182
5276 63 2177 2179 2183
5277 63 2179 2177 2180
5278 63 2179 2177 2181
5279 63 2184 2186 2189
5280 63 2184 2186 2190
5281 63 2186 2184 2187
5282 63 2186 2184 2188
5283 63 2191 2193 2196
5284 63 2191 2193 2197
5285 63 2193 2191 2194
5286 63 2193 2191 2195
5287 63 2198 2200 2203
5288 63 2198 2200 2204
5289 63 2200 2198 2201
5290 63 2200 2198 2202
5291 63 2205 2207 2210
5292 63 2205 2207 2211
5293 63 2207 2205 2208
5294 63 2207 2205 2209
5295 63 2212 2214 2217
5296 63 2212 2214 2218
5297 63 2214 2212 2215
5298 63 2214 2212 2216
5299 63 2219 2221 2224
5300 63 2219 2221 2225
5301 63 2221 2219 2222
5302 63 2221 2219 2223
5303 63 2226 2228 2231
5304 63 2226 2228 2232
5305 63 2228 2226 2229
5306 63 2228 2226 2230
5307 63 2233 2235 2238
5308 63 2233 2235 2239
5309 63 2235 2233 2236
5310 63 2235 2233 2237
5311 63 2240 2242 2245
5312 63 2240 2242 2246
5313 63 2242 2240 2243
5314 63 2242 2240 2244
5315 63 2247 2249 2252
5316 63 2247 2249 2253
5317 63 2249 2247 2250
5318 63 2249 2247 2251
5319 63 2254 2256 2259
5320 63 2254 2256 2260
5321 63 2256 2254 2257
5322 63 2256 2254 2258
5323 63 2261 2263 2266
5324 63 2261 2263 2267
5325 63 2263 2261 2264
5326 63 2263 2261 2265
5327 63 2268 2270 2273
5328 63 2268 2270 2274
5329 63 2270 2268 2271
5330 63 2270 2268 2272
5331 63 2275 2277 2280
5332 63 2275 2277 2281
5333 63 2277 2275 2278
5334 63 2277 2275 2279
5335 63 2282 2284 2287
5336 63 2282 2284 2288
5337 63 2284 2282 2285
5338 63 2284 2282 2286
5339 63 2289 2291 2294
5340 63 2289 2291 2295
5341 63 2291 2289 2292
5342 63 2291 2289 2293
5343 63 2296 2298 2301
5344 63 2296 2298 2302
5345 63 2298 2296 2299
5346 63 2298 2296 2300
5347 63 2303 2305 2308
5348 63 2303 2305 2309
5349 63 2305 2303 2306
5350 63 2305 2303 2307
5351 63 2310 2312 2315
5352 63 2310 2312 2316
5353 63 2312 2310 2313
5354 63 2312 2310 2314
5355 63 2317 2319 2322
5356 63 2317 2319 2323
5357 63 2319 2317 2320
5358 63 2319 2317 2321
5359 63 2324 2326 2329
5360 63 2324 2326 2330
5361 63 2326 2324 2327
5362 63 2326 2324 2328
5363 63 2331 2333 2336
5364 63 2331 2333 2337
5365 63 2333 2331 2334
5366 63 2333 2331 2335
5367 63 2338 2340 2343
5368 63 2338 2340 2344
5369 63 2340 2338 2341
5370 63 2340 2338 2342
5371 63 2345 2347 2350
5372 63 2345 2347 2351
5373 63 2347 2345 2348
5374 63 2347 2345 2349
5375 63 2352 2354 2357
5376 63 2352 2354 2358
5377 63 2354 2352 2355
5378 63 2354 2352 2356
5379 63 2359 2361 2364
5380 63 2359 2361 2365
5381 63 2361 2359 2362
5382 63 2361 2359 2363
5383 63 2366 2368 2371
5384 63 2366 2368 2372
5385 63 2368 2366 2369
5386 63 2368 2366 2370
5387 63 2373 2375 2378
5388 63 2373 2375 2379
5389 63 2375 2373 2376
5390 63 2375 2373 2377
5391 63 2380 2382 2385
5392 63 2380 2382 2386
5393 63 2382 2380 2383
5394 63 2382 2380 2384
5395 63 2387 2389 2392
5396 63 2387 2389 2393
5397 63 2389 2387 2390
5398 63 2389 2387 2391
5399 63 2394 2396 2399
5400 63 2394 2396 2400
5401 63 2396 2394 2397
5402 63 2396 2394 2398
5403 63 2401 2403 2406
5404 63 2401 2403 2407
5405 63 2403 2401 2404
5406 63 2403 2401 2405
5407 63 2408 2410 2413
5408 63 2408 2410 2414
5409 63 2410 2408 2411
5410 63 2410 2408 2412
5411 63 2415 2417 2420
5412 63 2415 2417 2421
5413 63 2417 2415 2418
5414 63 2417 2415 2419
5415 63 2422 2424 2427
5416 63 2422 2424 2428
5417 63 2424 2422 2425
5418 63 2424 2422 2426
5419 63 2429 2431 2434
5420 63 2429 2431 2435
5421 63 2431 2429 2432
5422 63 2431 2429 2433
5423 63 2436 2438 2441
5424 63 2436 2438 2442
5425 63 2438 2436 2439
5426 63 2438 2436 2440
5427 63 2443 2445 2448
5428 63 2443 2445 2449
5429 63 2445 2443 2446
5430 63 2445 2443 2447
5431 63 2450 2452 2455
5432 63 2450 2452 2456
5433 63 2452 2450 2453
5434 63 2452 2450 2454
5435 63 2473 2475 2478
5436 63 2473 2475 2479
5437 63 2475 2473 2476
5438 63 2475 2473 2477
5439 63 2480 2482 2485
5440 63 2480 2482 2486
5441 63 2482 2480 2483
5442 63 2482 2480 2484
5443 63 2487 2489 2492
5444 63 2487 2489 2493
5445 63 2489 2487 2490
5446 63 2489 2487 2491
5447 63 2494 2496 2499
5448 63 2494 2496 2500
5449 63 2496 2494 2497
5450 63 2496 2494 2498
5451 63 2501 2503 2506
5452 63 2501 2503 2507
5453 63 2503 2501 2504
5454 63 2503 2501 2505
5455 63 2508 2510 2513
5456 63 2508 2510 2514
5457 63 2510 2508 2511
5458 63 2510 2508 2512
5459 63 2515 2517 2520
5460 63 2515 2517 2521
5461 63 2517 2515 2518
5462 63 2517 2515 2519
5463 63 2522 2524 2527
5464 63 2522 2524 2528
5465 63 2524 2522 2525
5466 63 2524 2522 2526
5467 63 2529 2531 2534
5468 63 2529 2531 2535
5469 63 2531 2529 2532
5470 63 2531 2529 2533
5471 63 2536 2538 2541
5472 63 2536 2538 2542
5473 63 2538 2536 2539
5474 63 2538 2536 2540
5475 63 2543 2545 2548
5476 63 2543 2545 2549
5477 63 2545 2543 2546
5478 63 2545 2543 2547
5479 63 2550 2552 2555
5480 63 2550 2552 2556
5481 63 2552 2550 2553
5482 63 2552 2550 2554
5483 63 2557 2559 2562
5484 63 2557 2559 2563
5485 63 2559 2557 2560
5486 63 2559 2557 2561
5487 63 2564 2566 2569
5488 63 2564 2566 2570
5489 63 2566 2564 2567
5490 63 2566 2564 2568
5491 63 2571 2573 2576
5492 63 2571 2573 2577
5493 63 2573 2571 2574
5494 63 2573 2571 2575
5495 63 2578 2580 2583
5496 63 2578 2580 2584
5497 63 2580 2578 2581
5498 63 2580 2578 2582
5499 63 2585 2587 2590
5500 63 2585 2587 2591
5501 63 2587 2585 2588
5502 63 2587 2585 2589
5503 63 2592 2594 2597
5504 63 2592 2594 2598
5505 63 2594 2592 2595
5506 63 2594 2592 2596
5507 63 2599 2601 2604
5508 63 2599 2601 2605
5509 63 2601 2599 2602
5510 63 2601 2599 2603
5511 63 2606 2608 2611
5512 63 2606 2608 2612
5513 63 2608 2606 2609
5514 63 2608 2606 2610
5515 63 2613 2615 2618
5516 63 2613 2615 2619
5517 63 2615 2613 2616
5518 63 2615 2613 2617
5519 63 2620 2622 2625
5520 63 2620 2622 2626
5521 63 2622 2620 2623
5522 63 2622 2620 2624
5523 63 2627 2629 2632
5524 63 2627 2629 2633
5525 63 2629 2627 2630
5526 63 2629 2627 2631
5527 63 2634 2636 2639
5528 63 2634 2636 2640
5529 63 2636 2634 2637
5530 63 2636 2634 2638
5531 63 2641 2643 2646
5532 63 2641 2643 2647
5533 63 2643 2641 2644
5534 63 2643 2641 2645
5535 63 2648 2650 2653
5536 63 2648 2650 2654
5537 63 2650 2648 2651
5538 63 2650 2648 2652
5539 63 2655 2657 2660
5540 63 2655 2657 2661
5541 63 2657 2655 2658
5542 63 2657 2655 2659
5543 63 2662 2664 2667
5544 63 2662 2664 2668
5545 63 2664 2662 2665
5546 63 2664 2662 2666
5547 63 2669 2671 2674
5548 63 2669 2671 2675
5549 63 2671 2669 2672
5550 63 2671 2669 2673
5551 63 2676 2678 2681
5552 63 2676 2678 2682
5553 63 2678 2676 2679
5554 63 2678 2676 2680
5555 63 2683 2685 2688
5556 63 2683 2685 2689
5557 63 2685 2683 2686
5558 63 2685 2683 2687
5559 63 2690 2692 2695
5560 63 2690 2692 2696
5561 63 2692 2690 2693
5562 63 2692 2690 2694
5563 63 2697 2699 2702
5564 63 2697 2699 2703
5565 63 2699 2697 2700
5566 63 2699 2697 2701
5567 63 2704 2706 2709
5568 63 2704 2706 2710
5569 63 2706 2704 2707
5570 63 2706 2704 2708
5571 63 2711 2713 2716
5572 63 2711 2713 2717
5573 63 2713 2711 2714
5574 63 2713 2711 2715
5575 63 2718 2720 2723
5576 63 2718 2720 2724
5577 63 2720 2718 2721
5578 63 2720 2718 2722
5579 63 2725 2727 2730
5580 63 2725 2727 2731
5581 63 2727 2725 2728
5582 63 2727 2725 2729
5583 63 2732 2734 2737
5584 63 2732 2734 2738
5585 63 2734 2732 2735
5586 63 2734 2732 2736
5587 63 2739 2741 2744
5588 63 2739 2741 2745
5589 63 2741 2739 2742
5590 63 2741 2739 2743
5591 63 2746 2748 2751
5592 63 2746 2748 2752
5593 63 2748 2746 2749
5594 63 2748 2746 2750
5595 63 2753 2755 2758
5596 63 2753 2755 2759
5597 63 2755 2753 2756
5598 63 2755 2753 2757
5599 63 2760 2762 2765
5600 63 2760 2762 2766
5601 63 2762 2760 2763
5602 63 2762 2760 2764
5603 63 2767 2769 2772
5604 63 2767 2769 2773
5605 63 2769 2767 2770
5606 63 2769 2767 2771
5607 63 2774 2776 2779
5608 63 2774 2776 2780
5609 63 2776 2774 2777
5610 63 2776 2774 2778
5611 63 2781 2783 2786
5612 63 2781 2783 2787
5613 63 2783 2781 2784
5614 63 2783 2781 2785
5615 63 2788 2790 2793
5616 63 2788 2790 2794
5617 63 2790 2788 2791
5618 63 2790 2788 2792
5619 63 2795 2797 2800
5620 63 2795 2797 2801
5621 63 2797 2795 2798
5622 63 2797 2795 2799
5623 63 2802 2804 2807
5624 63 2802 2804 2808
5625 63 2804 2802 2805
5626 63 2804 2802 2806
5627 63 2825 2827 2830
5628 63 2825 2827 2831
5629 63 2827 2825 2828
5630 63 2827 2825 2829
5631 63 2832 2834 2837
5632 63 2832 2834 2838
5633 63 2834 2832 2835
5634 63 2834 2832 2836
5635 63 2839 2841 2844
5636 63 2839 2841 2845
5637 63 2841 2839 2842
5638 63 2841 2839 2843
5639 63 2846 2848 2851
5640 63 2846 2848 2852
5641 63 2848 2846 2849
5642 63 2848 2846 2850
5643 63 2853 2855 2858
5644 63 2853 2855 2859
5645 63 2855 2853 2856
5646 63 2855 2853 2857
5647 63 2860 2862 2865
5648 63 2860 2862 2866
5649 63 2862 2860 2863
5650 63 2862 2860 2864
5651 63 2867 2869 2872
5652 63 2867 2869 2873
5653 63 2869 2867 2870
5654 63 2869 2867 2871
5655 63 2874 2876 2879
5656 63 2874 2876 2880
5657 63 2876 2874 2877
5658 63 2876 2874 2878
5659 63 2881 2883 2886
5660 63 2881 2883 2887
5661 63 2883 2881 2884
5662 63 2883 2881 2885
5663 63 2888 2890 2893
5664 63 2888 2890 2894
5665 63 2890 2888 2891
5666 63 2890 2888 2892
5667 63 2895 2897 2900
5668 63 2895 2897 2901
5669 63 2897 2895 2898
5670 63 2897 2895 2899
5671 63 2902 2904 2907
5672 63 2902 2904 2908
5673 63 2904 2902 2905
5674 63 2904 2902 2906
5675 63 2909 2911 2914
5676 63 2909 2911 2915
5677 63 2911 2909 2912
5678 63 2911 2909 2913
5679 63 2916 2918 2921
5680 63 2916 2918 2922
5681 63 2918 2916 2919
5682 63 2918 2916 2920
5683 63 2923 2925 2928
5684 63 2923 2925 2929
5685 63 2925 2923 2926
5686 63 2925 2923 2927
5687 63 2930 2932 2935
5688 63 2930 2932 2936
5689 63 2932 2930 2933
5690 63 2932 2930 2934
5691 63 2937 2939 2942
5692 63 2937 2939 2943
5693 63 2939 2937 2940
5694 63 2939 2937 2941
5695 63 2944 2946 2949
5696 63 2944 2946 2950
5697 63 2946 2944 2947
5698 63 2946 2944 2948
5699 63 2951 2953 2956
5700 63 2951 2953 2957
5701 63 2953 2951 2954
5702 63 2953 2951 2955
5703 63 2958 2960 2963
5704 63 2958 2960 2964
5705 63 2960 2958 2961
5706 63 2960 2958 2962
5707 63 2965 2967 2970
5708 63 2965 2967 2971
5709 63 2967 2965 2968
5710 63 2967 2965 2969
5711 63 2972 2974 2977
5712 63 2972 2974 2978
5713 63 2974 2972 2975
5714 63 2974 2972 2976
5715 63 2979 2981 2984
5716 63 2979 2981 2985
5717 63 2981 2979 2982
5718 63 2981 2979 2983
5719 63 2986 2988 2991
5720 63 2986 2988 2992
5721 63 2988 2986 2989
5722 63 2988 2986 2990
5723 63 2993 2995 2998
5724 63 2993 2995 2999
5725 63 2995 2993 2996
5726 63 2995 2993 2997
5727 63 3000 3002 3005
5728 63 3000 3002 3006
5729 63 3002 3000 3003
5730 63 3002 3000 3004
5731 63 3007 3009 3012
5732 63 3007 3009 3013
5733 63 3009 3007 3010
5734 63 3009 3007 3011
5735 63 3014 3016 3019
5736 63 3014 3016 3020
5737 63 3016 3014 3017
5738 63 3016 3014 3018
5739 63 3021 3023 3026
5740 63 3021 3023 3027
5741 63 3023 3021 3024
5742 63 3023 3021 3025
5743 63 3028 3030 3033
5744 63 3028 3030 3034
5745 63 3030 3028 3031
5746 63 3030 3028 3032
5747 63 3035 3037 3040
5748 63 3035 3037 3041
5749 63 3037 3035 3038
5750 63 3037 3035 3039
5751 63 3042 3044 3047
5752 63 3042 3044 3048
5753 63 3044 3042 3045
5754 63 3044 3042 3046
5755 63 3049 3051 3054
5756 63 3049 3051 3055
5757 63 3051 3049 3052
5758 63 3051 3049 3053
5759 63 3056 3058 3061
5760 63 3056 3058 3062
5761 63 3058 3056 3059
5762 63 3058 3056 3060
5763 63 3063 3065 3068
5764 63 3063 3065 3069
5765 63 3065 3063 3066
5766 63 3065 3063 3067
5767 63 3070 3072 3075
5768 63 3070 3072 3076
5769 63 3072 3070 3073
5770 63 3072 3070 3074
5771 63 3077 3079 3082
5772 63 3077 3079 3083
5773 63 3079 3077 3080
5774 63 3079 3077 3081
5775 63 3084 3086 3089
5776 63 3084 3086 3090
5777 63 3086 3084 3087
5778 63 3086 3084 3088
5779 63 3091 3093 3096
5780 63 3091 3093 3097
5781 63 3093 3091 3094
5782 63 3093 3091 3095
5783 63 3098 3100 3103
5784 63 3098 3100 3104
5785 63 3100 3098 3101
5786 63 3100 3098 3102
5787 63 3105 3107 3110
5788 63 3105 3107 3111
5789 63 3107 3105 3108
5790 63 3107 3105 3109
5791 63 3112 3114 3117
5792 63 3112 3114 3118
5793 63 3114 3112 3115
5794 63 3114 3112 3116
5795 63 3119 3121 3124
5796 63 3119 3121 3125
5797 63 3121 3119 3122
5798 63 3121 3119 3123
5799 63 3126 3128 3131
5800 63 3126 3128 3132
5801 63 3128 3126 3129
5802 63 3128 3126 3130
5803 63 3133 3135 3138
5804 63 3133 3135 3139
5805 63 3135 3133 3136
5806 63 3135 3133 3137
5807 63 3140 3142 3145
5808 63 3140 3142 3146
5809 63 3142 3140 3143
5810 63 3142 3140 3144
5811 63 3147 3149 3152
5812 63 3147 3149 3153
5813 63 3149 3147 3150
5814 63 3149 3147 3151
5815 63 3154 3156 3159
5816 63 3154 3156 3160
5817 63 3156 3154 3157
5818 63 3156 3154 3158
5819 63 3177 3179 3182
5820 63 3177 3179 3183
5821 63 3179 3177 3180
5822 63 3179 3177 3181
5823 63 3184 3186 3189
5824 63 3184 3186 3190
5825 63 3186 3184 3187
5826 63 3186 3184 3188
5827 63 3191 3193 3196
5828 63 3191 3193 3197
5829 63 3193 3191 3194
5830 63 3193 3191 3195
5831 63 3198 3200 3203
5832 63 3198 3200 3204
5833 63 3200 3198 3201
5834 63 3200 3198 3202
5835 63 3205 3207 3210
5836 63 3205 3207 3211
5837 63 3207 3205 3208
5838 63 3207 3205 3209
5839 63 3212 3214 3217
5840 63 3212 3214 3218
5841 63 3214 3212 3215
5842 63 3214 3212 3216
5843 63 3219 3221 3224
5844 63 3219 3221 3225
5845 63 3221 3219 3222
5846 63 3221 3219 3223
5847 63 3226 3228 3231
5848 63 3226 3228 3232
5849 63 3228 3226 3229
5850 63 3228 3226 3230
5851 63 3233 3235 3238
5852 63 3233 3235 3239
5853 63 3235 3233 3236
5854 63 3235 3233 3237
5855 63 3240 3242 3245
5856 63 3240 3242 3246
5857 63 3242 3240 3243
5858 63 3242 3240 3244
5859 63 3247 3249 3252
5860 63 3247 3249 3253
5861 63 3249 3247 3250
5862 63 3249 3247 3251
5863 63 3254 3256 3259
5864 63 3254 3256 3260
5865 63 3256 3254 3257
5866 63 3256 3254 3258
5867 63 3261 3263 3266
5868 63 3261 3263 3267
5869 63 3263 3261 3264
5870 63 3263 3261 3265
5871 63 3268 3270 3273
5872 63 3268 3270 3274
5873 63 3270 3268 3271
5874 63 3270 3268 3272
5875 63 3275 3277 3280
5876 63 3275 3277 3281
5877 63 3277 3275 3278
5878 63 3277 3275 3279
5879 63 3282 3284 3287
5880 63 3282 3284 3288
5881 63 3284 3282 3285
5882 63 3284 3282 3286
5883 63 3289 3291 3294
5884 63 3289 3291 3295
5885 63 3291 3289 3292
5886 63 3291 3289 3293
5887 63 3296 3298 3301
5888 63 3296 3298 3302
5889 63 3298 3296 3299
5890 63 3298 3296 3300
5891 63 3303 3305 3308
5892 63 3303 3305 3309
5893 63 3305 3303 3306
5894 63 3305 3303 3307
5895 63 3310 3312 3315
5896 63 3310 3312 3316
5897 63 3312 3310 3313
5898 63 3312 3310 3314
5899 63 3317 3319 3322
5900 63 3317 3319 3323
5901 63 3319 3317 3320
5902 63 3319 3317 3321
5903 63 3324 3326 3329
5904 63 3324 3326 3330
5905 63 3326 3324 3327
5906 63 3326 3324 3328
5907 63 3331 3333 3336
5908 63 3331 3333 3337
5909 63 3333 3331 3334
5910 63 3333 3331 3335
5911 63 3338 3340 3343
5912 63 3338 3340 3344
5913 63 3340 3338 3341
5914 63 3340 3338 3342
5915 63 3345 3347 3350
5916 63 3345 3347 3351
5917 63 3347 3345 3348
5918 63 3347 3345 3349
5919 63 3352 3354 3357
5920 63 3352 3354 3358
5921 63 3354 3352 3355
5922 63 3354 3352 3356
5923 63 3359 3361 3364
5924 63 3359 3361 3365
5925 63 3361 3359 3362
5926 63 3361 3359 3363
5927 63 3366 3368 3371
5928 63 3366 3368 3372
5929 63 3368 3366 3369
5930 63 3368 3366 3370
5931 63 3373 3375 3378
5932 63 3373 3375 3379
5933 63 3375 3373 3376
5934 63 3375 3373 3377
5935 63 3380 3382 3385
5936 63 3380 3382 3386
5937 63 3382 3380 3383
5938 63 3382 3380 3384
5939 63 3387 3389 3392
5940 63 3387 3389 3393
5941 63 3389 3387 3390
5942 63 3389 3387 3391
5943 63 3394 3396 3399
5944 63 3394 3396 3400
5945 63 3396 3394 3397
5946 63 3396 3394 3398
5947 63 3401 3403 3406
5948 63 3401 3403 3407
5949 63 3403 3401 3404
5950 63 3403 3401 3405
5951 63 3408 3410 3413
5952 63 3408 3410 3414
5953 63 3410 3408 3411
5954 63 3410 3408 3412
5955 63 3415 3417 3420
5956 63 3415 3417 3421
5957 63 3417 3415 3418
5958 63 3417 3415 3419
5959 63 3422 3424 3427
5960 63 3422 3424 3428
5961 63 3424 3422 3425
5962 63 3424 3422 3426
5963 63 3429 3431 3434
5964 63 3429 3431 3435
5965 63 3431 3429 3432
5966 63 3431 3429 3433
5967 63 3436 3438 3441
5968 63 3436 3438 3442
5969 63 3438 3436 3439
5970 63 3438 3436 3440
5971 63 3443 3445 3448
5972 63 3443 3445 3449
5973 63 3445 3443 3446
5974 63 3445 3443 3447
5975 63 3450 3452 3455
5976 63 3450 3452 3456
5977 63 3452 3450 3453
5978 63 3452 3450 3454
5979 63 3457 3459 3462
5980 63 3457 3459 3463
5981 63 3459 3457 3460
5982 63 3459 3457 3461
5983 63 3464 3466 3469
5984 63 3464 3466 3470
5985 63 3466 3464 3467
5986 63 3466 3464 3468
5987 63 3471 3473 3476
5988 63 3471 3473 3477
5989 63 3473 3471 3474
5990 63 3473 3471 3475
5991 63 3478 3480 3483
5992 63 3478 3480 3484
5993 63 3480 3478 3481
5994 63 3480 3478 3482
5995 63 3485 3487 3490
5996 63 3485 3487 3491
5997 63 3487 3485 3488
5998 63 3487 3485 3489
5999 63 3492 3494 3497
6000 63 3492 3494 3498
6001 63 3494 3492 3495
6002 63 3494 3492 3496
6003 63 3499 3501 3504
6004 63 3499 3501 3505
6005 63 3501 3499 3502
6006 63 3501 3499 3503
6007 63 3506 3508 3511
6008 63 3506 3508 3512
6009 63 3508 3506 3509
6010 63 3508 3506 3510

Dihedrals

1 6 345 346 347 352
2 6 697 698 699 704
3 6 1049 1050 1051 1056
4 6 1401 1402 1403 1408
5 6 1753 1754 1755 1760
6 6 2105 2106 2107 2112
7 6 2457 2458 2459 2464
8 6 2809 2810 2811 2816
9 6 3161 3162 3163 3168
10 6 3513 3514 3515 3520
11 12 350 346 347 352
12 12 351 346 347 352
13 12 702 698 699 704
14 12 703 698 699 704
15 12 1054 1050 1051 1056
16 12 1055 1050 1051 1056
17 12 1406 1402 1403 1408
18 12 1407 1402 1403 1408
19 12 1758 1754 1755 1760
20 12 1759 1754 1755 1760
21 12 2110 2106 2107 2112
22 12 2111 2106 2107 2112
23 12 2462 2458 2459 2464
24 12 2463 2458 2459 2464
25 12 2814 2810 2811 2816
26 12 2815 2810 2811 2816
27 12 3166 3162 3163 3168
28 12 3167 3162 3163 3168
29 12 3518 3514 3515 3520
30 12 3519 3514 3515 3520
31 26 347 346 345 348
32 26 347 346 345 349
33 26 699 698 697 700
34 26 699 698 697 701
35 26 1051 1050 1049 1052
36 26 1051 1050 1049 1053
37 26 1403 1402 1401 1404
38 26 1403 1402 1401 1405
39 26 1755 1754 1753 1756
40 26 1755 1754 1753 1757
41 26 2107 2106 2105 2108
42 26 2107 2106 2105 2109
43 26 2459 2458 2457 2460
44 26 2459 2458 2457 2461
45 26 2811 2810 2809 2812
46 26 2811 2810 2809 2813
47 26 3163 3162 3161 3164
48 26 3163 3162 3161 3165
49 26 3515 3514 3513 3516
50 26 3515 3514 3513 3517
51 46 2 3 1 4
52 46 2 3 1 5
53 46 2 3 1 6
54 46 354 355 353 356
55 46 354 355 353 357
56 46 354 355 353 358
57 46 706 707 705 708
58 46 706 707 705 709
59 46 706 707 705 710
60 46 1058 1059 1057 1060
61 46 1058 1059 1057 1061
62 46 1058 1059 1057 1062
63 46 1410 1411 1409 1412
64 46 1410 1411 1409 1413
65 46 1410 1411 1409 1414
66 46 1762 1763 1761 1764
67 46 1762 1763 1761 1765
68 46 1762 1763 1761 1766
69 46 2114 2115 2113 2116
70 46 2114 2115 2113 2117
71 46 2114 2115 2113 2118
72 46 2466 2467 2465 2468
73 46 2466 2467 2465 2469
74 46 2466 2467 2465 2470
75 46 2818 2819 2817 2820
76 46 2818 2819 2817 2821
77 46 2818 2819 2817 2822
78 46 3170 3171 3169 3172
79 46 3170 3171 3169 3173
80 46 3170 3171 3169 3174
81 48 339 345 346 350
82 48 339 345 346 351
83 48 691 697 698 702
84 48 691 697 698 703
85 48 1043 1049 1050 1054
86 48 1043 1049 1050 1055
87 48 1395 1401 1402 1406
88 48 1395 1401 1402 1407
89 48 1747 1753 1754 1758
90 48 1747 1753 1754 1759
91 48 2099 2105 2106 2110
92 48 2099 2105 2106 2111
93 48 2451 2457 2458 2462
94 48 2451 2457 2458 2463
95 48 2803 2809 2810 2814
96 48 2803 2809 2810 2815
97 48 3155 3161 3162 3166
98 48 3155 3161 3162 3167
99 48 3507 3513 3514 3518
100 48 3507 3513 3514 3519
101 51 2 9 11 14
102 51 2 9 11 15
103 51 10 11 9 12
104 51 10 11 9 13
105 51 10 16 18 21
106 51 10 16 18 22
107 51 17 18 16 19
108 51 17 18 16 20
109 51 17 23 25 28
110 51 17 23 25 29
111 51 24 25 23 26
112 51 24 25 23 27
113 51 24 30 32 35
114 51 24 30 32 36
115 51 31 32 30 33
116 51 31 32 30 34
117 51 31 37 39 42
118 51 31 37 39 43
119 51 38 39 37 40
120 51 38 39 37 41
121 51 38 44 46 49
122 51 38 44 46 50
123 51 45 46 44 47
124 51 45 46 44 48
125 51 45 51 53 56
126 51 45 51 53 57
127 51 52 53 51 54
128 51 52 53 51 55
129 51 52 58 60 63
130 51 52 58 60 64
131 51 59 60 58 61
132 51 59 60 58 62
133 51 59 65 67 70
134 51 59 65 67 71
135 51 66 67 65 68
136 51 66 67 65 69
137 51 66 72 74 77
138 51 66 72 74 78
139 51 73 74 72 75
140 51 73 74 72 76
141 51 73 79 81 84
142 51 73 79 81 85
143 51 80 81 79 82
144 51 80 81 79 83
145 51 80 86 88 91
146 51 80 86 88 92
147 51 87 88 86 89
148 51 87 88 86 90
149 51 87 93 95 98
150 51 87 93 95 99
151 51 94 95 93 96
152 51 94 95 93 97
153 51 94 100 102 105
154 51 94 100 102 106
155 51 101 102 100 103
156 51 101 102 100 104
157 51 101 107 109 112
158 51 101 107 109 113
159 51 108 109 107 110
160 51 108 109 107 111
161 51 108 114 116 119
162 51 108 114 116 120
163 51 115 116 114 117
164 51 115 116 114 118
165 51 115 121 123 126
166 51 115 121 123 127
167 51 122 123 121 124
168 51 122 123 121 125
169 51 122 128 130 133
170 51 122 128 130 134
171 51 129 130 128 131
172 51 129 130 128 132
173 51 129 135 137 140
174 51 129 135 137 141
175 51 136 137 135 138
176 51 136 137 135 139
177 51 136 142 144 147
178 51 136 142 144 148
179 51 143 144 142 145
180 51 143 144 142 146
181 51 143 149 151 154
182 51 143 149 151 155
183 51 150 151 149 152
184 51 150 151 149 153
185 51 150 156 158 161
186 51 150 156 158 162
187 51 157 158 156 159
188 51 157 158 156 160
189 51 157 163 165 168
190 51 157 163 165 169
191 51 164 165 163 166
192 51 164 165 163 167
193 51 164 170 172 175
194 51 164 170 172 176
195 51 171 172 170 173
196 51 171 172 170 174
197 51 171 177 179 182
198 51 171 177 179 183
199 51 178 179 177 180
200 51 178 179 177 181
201 51 178 184 186 189
202 51 178 184 186 190
203 51 185 186 184 187
204 51 185 186 184 188
205 51 185 191 193 196
206 51 185 191 193 197
207 51 192 193 191 194
208 51 192 193 191 195
209 51 192 198 200 203
210 51 192 198 200 204
211 51 199 200 198 201
212 51 199 200 198 202
213 51 199 205 207 210
214 51 199 205 207 211
215 51 206 207 205 208
216 51 206 207 205 209
217 51 206 212 214 217
218 51 206 212 214 218
219 51 213 214 212 215
220 51 213 214 212 216
221 51 213 219 221 224
222 51 213 219 221 225
223 51 220 221 219 222
224 51 220 221 219 223
225 51 220 226 228 231
226 51 220 226 228 232
227 51 227 228 226 229
228 51 227 228 226 230
229 51 227 233 235 238
230 51 227 233 235 239
231 51 234 235 233 236
232 51 234 235 233 237
233 51 234 240 242 245
234 51 234 240 242 246
235 51 241 242 240 243
236 51 241 242 240 244
237 51 241 247 249 252
238 51 241 247 249 253
239 51 248 249 247 250
240 51 248 249 247 251
241 51 248 254 256 259
242 51 248 254 256 260
243 51 255 256 254 257
244 51 255 256 254 258
245 51 255 261 263 266
246 51 255 261 263 267
247 51 262 263 261 264
248 51 262 263 261 265
249 51 262 268 270 273
250 51 262 268 270 274
251 51 269 270 268 271
252 51 269 270 268 272
253 51 269 275 277 280
254 51 269 275 277 281
255 51 276 277 275 278
256 51 276 277 275 279
257 51 276 282 284 287
258 51 276 282 284 288
259 51 283 284 282 285
260 51 283 284 282 286
261 51 283 289 291 294
262 51 283 289 291 295
263 51 290 291 289 292
264 51 290 291 289 293
265 51 290 296 298 301
266 51 290 296 298 302
267 51 297 298 296 299
268 51 297 298 296 300
269 51 297 303 305 308
270 51 297 303 305 309
271 51 304 305 303 306
272 51 304 305 303 307
273 51 304 310 312 315
274 51 304 310 312 316
275 51 311 312 310 313
276 51 311 312 310 314
277 51 311 317 319 322
278 51 311 317 319 323
279 51 318 319 317 320
280 51 318 319 317 321
281 51 318 324 326 329
282 51 318 324 326 330
283 51 325 326 324 327
284 51 325 326 324 328
285 51 325 331 333 336
286 51 325 331 333 337
287 51 332 333 331 334
288 51 332 333 331 335
289 51 332 338 340 343
290 51 332 338 340 344
291 51 339 340 338 341
292 51 339 340 338 342
293 51 354 361 363 366
294 51 354 361 363 367
295 51 362 363 361 364
296 51 362 363 361 365
297 51 362 368 370 373
298 51 362 368 370 374
299 51 369 370 368 371
300 51 369 370 368 372
301 51 369 375 377 380
302 51 369 375 377 381
303 51 376 377 375 378
304 51 376 377 375 379
305 51 376 382 384 387
306 51 376 382 384 388
307 51 383 384 382 385
308 51 383 384 382 386
309 51 383 389 391 394
310 51 383 389 391 395
311 51 390 391 389 392
312 51 390 391 389 393
313 51 390 396 398 401
314 51 390 396 398 402
315 51 397 398 396 399
316 51 397 398 396 400
317 51 397 403 405 408
318 51 397 403 405 409
319 51 404 405 403 406
320 51 404 405 403 407
321 51 404 410 412 415
322 51 404 410 412 416
323 51 411 412 410 413
324 51 411 412 410 414
325 51 411 417 419 422
326 51 411 417 419 423
327 51 418 419 417 420
328 51 418 419 417 421
329 51 418 424 426 429
330 51 418 424 426 430
331 51 425 426 424 427
332 51 425 426 424 428
333 51 425 431 433 436
334 51 425 431 433 437
335 51 432 433 431 434
336 51 432 433 431 435
337 51 432 438 440 443
338 51 432 438 440 444
339 51 439 440 438 441
340 51 439 440 438 442
341 51 439 445 447 450
342 51 439 445 447 451
343 51 446 447 445 448
344 51 446 447 445 449
345 51 446 452 454 457
346 51 446 452 454 458
347 51 453 454 452 455
348 51 453 454 452 456
349 51 453 459 461 464
350 51 453 459 461 465
351 51 460 461 459 462
352 51 460 461 459 463
353 51 460 466 468 471
354 51 460 466 468 472
355 51 467 468 466 469
356 51 467 468 466 470
357 51 467 473 475 478
358 51 467 473 475 479
359 51 474 475 473 476
360 51 474 475 473 477
361 51 474 480 482 485
362 51 474 480 482 486
363 51 481 482 480 483
364 51 481 482 480 484
365 51 481 487 489 492
366 51 481 487 489 493
367 51 488 489 487 490
368 51 488 489 487 491
369 51 488 494 496 499
370 51 488 494 496 500
371 51 495 496 494 497
372 51 495 496 494 498
373 51 495 501 503 506
374 51 495 501 503 507
375 51 502 503 501 504
376 51 502 503 501 505
377 51 502 508 510 513
378 51 502 508 510 514
379 51 509 510 508 511
380 51 509 510 508 512
381 51 509 515 517 520
382 51 509 515 517 521
383 51 516 517 515 518
384 51 516 517 515 519
385 51 516 522 524 527
386 51 516 522 524 528
387 51 523 524 522 525
388 51 523 524 522 526
389 51 523 529 531 534
390 51 523 529 531 535
391 51 530 531 529 532
392 51 530 531 529 533
393 51 530 536 538 541
394 51 530 536 538 542
395 51 537 538 536 539
396 51 537 538 536 540
397 51 537 543 545 548
398 51 537 543 545 549
399 51 544 545 543 546
400 51 544 545 543 547
401 51 544 550 552 555
402 51 544 550 552 556
403 51 551 552 550 553
404 51 551 552 550 554
405 51 551 557 559 562
406 51 551 557 559 563
407 51 558 559 557 560
408 51 558 559 557 561
409 51 558 564 566 569
410 51 558 564 566 570
411 51 565 566 564 567
412 51 565 566 564 568
413 51 565 571 573 576
414 51 565 571 573 577
415 51 572 573 571 574
416 51 572 573 571 575
417 51 572 578 580 583
418 51 572 578 580 584
419 51 579 580 578 581
420 51 579 580 578 582
421 51 579 585 587 590
422 51 579 585 587 591
423 51 586 587 585 588
424 51 586 587 585 589
425 51 586 592 594 597
426 51 586 592 594 598
427 51 593 594 592 595
428 51 593 594 592 596
429 51 593 599 601 604
430 51 593 599 601 605
431 51 600 601 599 602
432 51 600 601 599 603
433 51 600 606 608 611
434 51 600 606 608 612
435 51 607 608 606 609
436 51 607 608 606 610
437 51 607 613 615 618
438 51 607 613 615 619
439 51 614 615 613 616
440 51 614 615 613 617
441 51 614 620 622 625
442 51 614 620 622 626
443 51 621 622 620 623
444 51 621 622 620 624
445 51 621 627 629 632
446 51 621 627 629 633
447 51 628 629 627 630
448 51 628 629 627 631
449 51 628 634 636 639
450 51 628 634 636 640
451 51 635 636 634 637
452 51 635 636 634 638
453 51 635 641 643 646
454 51 635 641 643 647
455 51 642 643 641 644
456 51 642 643 641 645
457 51 642 648 650 653
458 51 642 648 650 654
459 51 649 650 648 651
460 51 649 650 648 652
461 51 649 655 657 660
462 51 649 655 657 661
463 51 656 657 655 658
464 51 656 657 655 659
465 51 656 662 664 667
466 51 656 662 664 668
467 51 663 664 662 665
468 51 663 664 662 666
469 51 663 669 671 674
470 51 663 669 671 675
471 51 670 671 669 672
472 51 670 671 669 673
473 51 670 676 678 681
474 51 670 676 678 682
475 51 677 678 676 679
476 51 677 678 676 680
477 51 677 683 685 688
478 51 677 683 685 689
479 51 684 685 683 686
480 51 684 685 683 687
481 51 684 690 692 695
482 51 684 690 692 696
483 51 691 692 690 693
484 51 691 692 690 694
485 51 706 713 715 718
486 51 706 713 715 719
487 51 714 715 713 716
488 51 714 715 713 717
489 51 714 720 722 725
490 51 714 720 722 726
491 51 721 722 720 723
492 51 721 722 720 724
493 51 721 727 729 732
494 51 721 727 729 733
495 51 728 729 727 730
496 51 728 729 727 731
497 51 728 734 736 739
498 51 728 734 736 740
499 51 735 736 734 737
500 51 735 736 734 738
501 51 735 741 743 746
502 51 735 741 743 747
503 51 742 743 741 744
504 51 742 743 741 745
505 51 742 748 750 753
506 51 742 748 750 754
507 51 749 750 748 751
508 51 749 750 748 752
509 51 749 755 757 760
510 51 749 755 757 761
511 51 756 757 755 758
512 51 756 757 755 759
513 51 756 762 764 767
514 51 756 762 764 768
515 51 763 764 762 765
516 51 763 764 762 766
517 51 763 769 771 774
518 51 763 769 771 775
519 51 770 771 769 772
520 51 770 771 769 773
521 51 770 776 778 781
522 51 770 776 778 782
523 51 777 778 776 779
524 51 777 778 776 780
525 51 777 783 785 788
526 51 777 783 785 789
527 51 784 785 783 786
528 51 784 785 783 787
529 51 784 790 792 795
530 51 784 790 792 796
531 51 791 792 790 793
532 51 791 792 790 794
533 51 791 797 799 802
534 51 791 797 799 803
535 51 798 799 797 800
536 51 798 799 797 801
537 51 798 804 806 809
538 51 798 804 806 810
539 51 805 806 804 807
540 51 805 806 804 808
541 51 805 811 813 816
542 51 805 811 813 817
543 51 812 813 811 814
544 51 812 813 811 815
545 51 812 818 820 823
546 51 812 818 820 824
547 51 819 820 818 821
548 51 819 820 818 822
549 51 819 825 827 830
550 51 819 825 827 831
551 51 826 827 825 828
552 51 826 827 825 829
553 51 826 832 834 837
554 51 826 832 834 838
555 51 833 834 832 835
556 51 833 834 832 836
557 51 833 839 841 844
558 51 833 839 841 845
559 51 840 841 839 842
560 51 840 841 839 843
561 51 840 846 848 851
562 51 840 846 848 852
563 51 847 848 846 849
564 51 847 848 846 850
565 51 847 853 855 858
566 51 847 853 855 859
567 51 854 855 853 856
568 51 854 855 853 857
569 51 854 860 862 865
570 51 854 860 862 866
571 51 861 862 860 863
572 51 861 862 860 864
573 51 861 867 869 872
574 51 861 867 869 873
575 51 868 869 867 870
576 51 868 869 867 871
577 51 868 874 876 879
578 51 868 874 876 880
579 51 875 876 874 877
580 51 875 876 874 878
581 51 875 881 883 886
582 51 875 881 883 887
583 51 882 883 881 884
584 51 882 883 881 885
585 51 882 888 890 893
586 51 882 888 890 894
587 51 889 890 888 891
588 51 889 890 888 892
589 51 889 895 897 900
590 51 889 895 897 901
591 51 896 897 895 898
592 51 896 897 895 899
593 51 896 902 904 907
594 51 896 902 904 908
595 51 903 904 902 905
596 51 903 904 902 906
597 51 903 909 911 914
598 51 903 909 911 915
599 51 910 911 909 912
600 51 910 911 909 913
601 51 910 916 918 921
602 51 910 916 918 922
603 51 917 918 916 919
604 51 917 918 916 920
605 51 917 923 925 928
606 51 917 923 925 929
607 51 924 925 923 926
608 51 924 925 923 927
609 51 924 930 932 935
610 51 924 930 932 936
611 51 931 932 930 933
612 51 931 932 930 934
613 51 931 937 939 942
614 51 931 937 939 943
615 51 938 939 937 940
616 51 938 939 937 941
617 51 938 944 946 949
618 51 938 944 946 950
619 51 945 946 944 947
620 51 945 946 944 948
621 51 945 951 953 956
622 51 945 951 953 957
623 51 952 953 951 954
624 51 952 953 951 955
625 51 952 958 960 963
626 51 952 958 960 964
627 51 959 960 958 961
628 51 959 960 958 962
629 51 959 965 967 970
630 51 959 965 967 971
631 51 966 967 965 968
632 51 966 967 965 969
633 51 966 972 974 977
634 51 966 972 974 978
635 51 973 974 972 975
636 51 973 974 972 976
637 51 973 979 981 984
638 51 973 979 981 985
639 51 980 981 979 982
640 51 980 981 979 983
641 51 980 986 988 991
642 51 980 986 988 992
643 51 987 988 986 989
644 51 987 988 986 990
645 51 987 993 995 998
646 51 987 993 995 999
647 51 994 995 993 996
648 51 994 995 993 997
649 51 994 1000 1002 1005
650 51 994 1000 1002 1006
651 51 1001 1002 1000 1003
652 51 1001 1002 1000 1004
653 51 1001 1007 1009 1012
654 51 1001 1007 1009 1013
655 51 1008 1009 1007 1010
656 51 1008 1009 1007 1011
657 51 1008 1014 1016 1019
658 51 1008 1014 1016 1020
659 51 1015 1016 1014 1017
660 51 1015 1016 1014 1018
661 51 1015 1021 1023 1026
662 51 1015 1021 1023 1027
663 51 1022 1023 1021 1024
664 51 1022 1023 1021 1025
665 51 1022 1028 1030 1033
666 51 1022 1028 1030 1034
667 51 1029 1030 1028 1031
668 51 1029 1030 1028 1032
669 51 1029 1035 1037 1040
670 51 1029 1035 1037 1041
671 51 1036 1037 1035 1038
672 51 1036 1037 1035 1039
673 51 1036 1042 1044 1047
674 51 1036 1042 1044 1048
675 51 1043 1044 1042 1045
676 51 1043 1044 1042 1046
677 51 1058 1065 1067 1070
678 51 1058 1065 1067 1071
679 51 1066 1067 1065 1068
680 51 1066 1067 1065 1069
681 51 1066 1072 1074 1077
682 51 1066 1072 1074 1078
683 51 1073 1074 1072 1075
684 51 1073 1074 1072 1076
685 51 1073 1079 1081 1084
686 51 1073 1079 1081 1085
687 51 1080 1081 1079 1082
688 51 1080 1081 1079 1083
689 51 1080 1086 1088 1091
690 51 1080 1086 1088 1092
691 51 1087 1088 1086 1089
692 51 1087 1088 1086 1090
693 51 1087 1093 1095 1098
694 51 1087 1093 1095 1099
695 51 1094 1095 1093 1096
696 51 1094 1095 1093 1097
697 51 1094 1100 1102 1105
698 51 1094 1100 1102 1106
699 51 1101 1102 1100 1103
700 51 1101 1102 1100 1104
701 51 1101 1107 1109 1112
702 51 1101 1107 1109 1113
703 51 1108 1109 1107 1110
704 51 1108 1109 1107 1111
705 51 1108 1114 1116 1119
706 51 1108 1114 1116 1120
707 51 1115 1116 1114 1117
708 51 1115 1116 1114 1118
709 51 1115 1121 1123 1126
710 51 1115 1121 1123 1127
711 51 1122 1123 1121 1124
712 51 1122 1123 1121 1125
713 51 1122 1128 1130 1133
714 51 1122 1128 1130 1134
715 51 1129 1130 1128 1131
716 51 1129 1130 1128 1132
717 51 1129 1135 1137 1140
718 51 1129 1135 1137 1141
719 51 1136 1137 1135 1138
720 51 1136 1137 1135 1139
721 51 1136 1142 1144 1147
722 51 1136 1142 1144 1148
723 51 1143 1144 1142 1145
724 51 1143 1144 1142 1146
725 51 1143 1149 1151 1154
726 51 1143 1149 1151 1155
727 51 1150 1151 1149 1152
728 51 1150 1151 1149 1153
729 51 1150 1156 1158 1161
730 51 1150 1156 1158 1162
731 51 1157 1158 1156 1159
732 51 1157 1158 1156 1160
733 51 1157 1163 1165 1168
734 51 1157 1163 1165 1169
735 51 1164 1165 1163 1166
736 51 1164 1165 1163 1167
737 51 1164 1170 1172 1175
738 51 1164 1170 1172 1176
739 51 1171 1172 1170 1173
740 51 1171 1172 1170 1174
741 51 1171 1177 1179 1182
742 51 1171 1177 1179 1183
743 51 1178 1179 1177 1180
744 51 1178 1179 1177 1181
745 51 1178 1184 1186 1189
746 51 1178 1184 1186 1190
747 51 1185 1186 1184 1187
748 51 1185 1186 1184 1188
749 51 1185 1191 1193 1196
750 51 1185 1191 1193 1197
751 51 1192 1193 1191 1194
752 51 1192 1193 1191 1195
753 51 1192 1198 1200 1203
754 51 1192 1198 1200 1204
755 51 1199 1200 1198 1201
756 51 1199 1200 1198 1202
757 51 1199 1205 1207 1210
758 51 1199 1205 1207 1211
759 51 1206 1207 1205 1208
760 51 1206 1207 1205 1209
761 51 1206 1212 1214 1217
762 51 1206 1212 1214 1218
763 51 1213 1214 1212 1215
764 51 1213 1214 1212 1216
765 51 1213 1219 1221 1224
766 51 1213 1219 1221 1225
767 51 1220 1221 1219 1222
768 51 1220 1221 1219 1223
769 51 1220 1226 1228 1231
770 51 1220 1226 1228 1232
771 51 1227 1228 1226 1229
772 51 1227 1228 1226 1230
773 51 1227 1233 1235 1238
774 51 1227 1233 1235 1239
775 51 1234 1235 1233 1236
776 51 1234 1235 1233 1237
777 51 1234 1240 1242 1245
778 51 1234 1240 1242 1246
779 51 1241 1242 1240 1243
780 51 1241 1242 1240 1244
781 51 1241 1247 1249 1252
782 51 1241 1247 1249 1253
783 51 1248 1249 1247 1250
784 51 1248 1249 1247 1251
785 51 1248 1254 1256 1259
786 51 1248 1254 1256 1260
787 51 1255 1256 1254 1257
788 51 1255 1256 1254 1258
789 51 1255 1261 1263 1266
790 51 1255 1261 1263 1267
791 51 1262 1263 1261 1264
792 51 1262 1263 1261 1265
793 51 1262 1268 1270 1273
794 51 1262 1268 1270 1274
795 51 1269 1270 1268 1271
796 51 1269 1270 1268 1272
797 51 1269 1275 1277 1280
798 51 1269 1275 1277 1281
799 51 1276 1277 1275 1278
800 51 1276 1277 1275 1279
801 51 1276 1282 1284 1287
802 51 1276 1282 1284 1288
803 51 1283 1284 1282 1285
804 51 1283 1284 1282 1286
805 51 1283 1289 1291 1294
806 51 1283 1289 1291 1295
807 51 1290 1291 1289 1292
808 51 1290 1291 1289 1293
809 51 1290 1296 1298 1301
810 51 1290 1296 1298 1302
811 51 1297 1298 1296 1299
812 51 1297 1298 1296 1300
813 51 1297 1303 1305 1308
814 51 1297 1303 1305 1309
815 51 1304 1305 1303 1306
816 51 1304 1305 1303 1307
817 51 1304 1310 1312 1315
818 51 1304 1310 1312 1316
819 51 1311 1312 1310 1313
820 51 1311 1312 1310 1314
821 51 1311 1317 1319 1322
822 51 1311 1317 1319 1323
823 51 1318 1319 1317 1320
824 51 1318 1319 1317 1321
825 51 1318 1324 1326 1329
826 51 1318 1324 1326 1330
827 51 1325 1326 1324 1327
828 51 1325 1326 1324 1328
829 51 1325 1331 1333 1336
830 51 1325 1331 1333 1337
831 51 1332 1333 1331 1334
832 51 1332 1333 1331 1335
833 51 1332 1338 1340 1343
834 51 1332 1338 1340 1344
835 51 1339 1340 1338 1341
836 51 1339 1340 1338 1342
837 51 1339 1345 1347 1350
838 51 1339 1345 1347 1351
839 51 1346 1347 1345 1348
840 51 1346 1347 1345 1349
841 51 1346 1352 1354 1357
842 51 1346 1352 1354 1358
843 51 1353 1354 1352 1355
844 51 1353 1354 1352 1356
845 51 1353 1359 1361 1364
846 51 1353 1359 1361 1365
847 51 1360 1361 1359 1362
848 51 1360 1361 1359 1363
849 51 1360 1366 1368 1371
850 51 1360 1366 1368 1372
851 51 1367 1368 1366 1369
852 51 1367 1368 1366 1370
853 51 1367 1373 1375 1378
854 51 1367 1373 1375 1379
855 51 1374 1375 1373 1376
856 51 1374 1375 1373 1377
857 51 1374 1380 1382 1385
858 51 1374 1380 1382 1386
859 51 1381 1382 1380 1383
860 51 1381 1382 1380 1384
861 51 1381 1387 1389 1392
862 51 1381 1387 1389 1393
863 51 1388 1389 1387 1390
864 51 1388 1389 1387 1391
865 51 1388 1394 1396 1399
866 51 1388 1394 1396 1400
867 51 1395 1396 1394 1397
868 51 1395 1396 1394 1398
869 51 1410 1417 1419 1422
870 51 1410 1417 1419 1423
871 51 1418 1419 1417 1420
872 51 1418 1419 1417 1421
873 51 1418 1424 1426 1429
874 51 1418 1424 1426 1430
875 51 1425 1426 1424 1427
876 51 1425 1426 1424 1428
877 51 1425 1431 1433 1436
878 51 1425 1431 1433 1437
879 51 1432 1433 1431 1434
880 51 1432 1433 1431 1435
881 51 1432 1438 1440 1443
882 51 1432 1438 1440 1444
883 51 1439 1440 1438 1441
884 51 1439 1440 1438 1442
885 51 1439 1445 1447 1450
886 51 1439 1445 1447 1451
887 51 1446 1447 1445 1448
888 51 1446 1447 1445 1449
889 51 1446 1452 1454 1457
890 51 1446 1452 1454 1458
891 51 1453 1454 1452 1455
892 51 1453 1454 1452 1456
893 51 1453 1459 1461 1464
894 51 1453 1459 1461 1465
895 51 1460 1461 1459 1462
896 51 1460 1461 1459 1463
897 51 1460 1466 1468 1471
898 51 1460 1466 1468 1472
899 51 1467 1468 1466 1469
900 51 1467 1468 1466 1470
901 51 1467 1473 1475 1478
902 51 1467 1473 1475 1479
903 51 1474 1475 1473 1476
904 51 1474 1475 1473 1477
905 51 1474 1480 1482 1485
906 51 1474 1480 1482 1486
907 51 1481 1482 1480 1483
908 51 1481 1482 1480 1484
909 51 1481 1487 1489 1492
910 51 1481 1487 1489 1493
911 51 1488 1489 1487 1490
912 51 1488 1489 1487 1491
913 51 1488 1494 1496 1499
914 51 1488 1494 1496 1500
915 51 1495 1496 1494 1497
916 51 1495 1496 1494 1498
917 51 1495 1501 1503 1506
918 51 1495 1501 1503 1507
919 51 1502 1503 1501 1504
920 51 1502 1503 1501 1505
921 51 1502 1508 1510 1513
922 51 1502 1508 1510 1514
923 51 1509 1510 1508 1511
924 51 1509 1510 1508 1512
925 51 1509 1515 1517 1520
926 51 1509 1515 1517 1521
927 51 1516 1517 1515 1518
928 51 1516 1517 1515 1519
929 51 1516 1522 1524 1527
930 51 1516 1522 1524 1528
931 51 1523 1524 1522 1525
932 51 1523 1524 1522 1526
933 51 1523 1529 1531 1534
934 51 1523 1529 1531 1535
935 51 1530 1531 1529 1532
936 51 1530 1531 1529 1533
937 51 1530 1536 1538 1541
938 51 1530 1536 1538 1542
939 51 1537 1538 1536 1539
940 51 1537 1538 1536 1540
941 51 1537 1543 1545 1548
942 51 1537 1543 1545 1549
943 51 1544 1545 1543 1546
944 51 1544 1545 1543 1547
945 51 1544 1550 1552 1555
946 51 1544 1550 1552 1556
947 51 1551 1552 1550 1553
948 51 1551 1552 1550 1554
949 51 1551 1557 1559 1562
950 51 1551 1557 1559 1563
951 51 1558 1559 1557 1560
952 51 1558 1559 1557 1561
953 51 1558 1564 1566 1569
954 51 1558 1564 1566 1570
955 51 1565 1566 1564 1567
956 51 1565 1566 1564 1568
957 51 1565 1571 1573 1576
958 51 1565 1571 1573 1577
959 51 1572 1573 1571 1574
960 51 1572 1573 1571 1575
961 51 1572 1578 1580 1583
962 51 1572 1578 1580 1584
963 51 1579 1580 1578 1581
964 51 1579 1580 1578 1582
965 51 1579 1585 1587 1590
966 51 1579 1585 1587 1591
967 51 1586 1587 1585 1588
968 51 1586 1587 1585 1589
969 51 1586 1592 1594 1597
970 51 1586 1592 1594 1598
971 51 1593 1594 1592 1595
972 51 1593 1594 1592 1596
973 51 1593 1599 1601 1604
974 51 1593 1599 1601 1605
975 51 1600 1601 1599 1602
976 51 1600 1601 1599 1603
977 51 1600 1606 1608 1611
978 51 1600 1606 1608 1612
979 51 1607 1608 1606 1609
980 51 1607 1608 1606 1610
981 51 1607 1613 1615 1618
982 51 1607 1613 1615 1619
983 51 1614 1615 1613 1616
984 51 1614 1615 1613 1617
985 51 1614 1620 1622 1625
986 51 1614 1620 1622 1626
987 51 1621 1622 1620 1623
988 51 1621 1622 1620 1624
989 51 1621 1627 1629 1632
990 51 1621 1627 1629 1633
991 51 1628 1629 1627 1630
992 51 1628 1629 1627 1631
993 51 1628 1634 1636 1639
994 51 1628 1634 1636 1640
995 51 1635 1636 1634 1637
996 51 1635 1636 1634 1638
997 51 1635 1641 1643 1646
998 51 1635 1641 1643 1647
999 51 1642 1643 1641 1644
1000 51 1642 1643 1641 1645
1001 51 1642 1648 1650 1653
1002 51 1642 1648 1650 1654
1003 51 1649 1650 1648 1651
1004 51 1649 1650 1648 1652
1005 51 1649 1655 1657 1660
1006 51 1649 1655 1657 1661
1007 51 1656 1657 1655 1658
1008 51 1656 1657 1655 1659
1009 51 1656 1662 1664 1667
1010 51 1656 1662 1664 1668
1011 51 1663 1664 1662 1665
1012 51 1663 1664 1662 1666
1013 51 1663 1669 1671 1674
1014 51 1663 1669 1671 1675
1015 51 1670 1671 1669 1672
1016 51 1670 1671 1669 1673
1017 51 1670 1676 1678 1681
1018 51 1670 1676 1678 1682
1019 51 1677 1678 1676 1679
1020 51 1677 1678 1676 1680
1021 51 1677 1683 1685 1688
1022 51 1677 1683 1685 1689
1023 51 1684 1685 1683 1686
1024 51 1684 1685 1683 1687
1025 51 1684 1690 1692 1695
1026 51 1684 1690 1692 1696
1027 51 1691 1692 1690 1693
1028 51 1691 1692 1690 1694
1029 51 1691 1697 1699 1702
1030 51 1691 1697 1699 1703
1031 51 1698 1699 1697 1700
1032 51 1698 1699 1697 1701
1033 51 1698 1704 1706 1709
1034 51 1698 1704 1706 1710
1035 51 1705 1706 1704 1707
1036 51 1705 1706 1704 1708
1037 51 1705 1711 1713 1716
1038 51 1705 1711 1713 1717
1039 51 1712 1713 1711 1714
1040 51 1712 1713 1711 1715
1041 51 1712 1718 1720 1723
1042 51 1712 1718 1720 1724
1043 51 1719 1720 1718 1721
1044 51 1719 1720 1718 1722
1045 51 1719 1725 1727 1730
1046 51 1719 1725 1727 1731
1047 51 1726 1727 1725 1728
1048 51 1726 1727 1725 1729
1049 51 1726 1732 1734 1737
1050 51 1726 1732 1734 1738
1051 51 1733 1734 1732 1735
1052 51 1733 1734 1732 1736
1053 51 1733 1739 1741 1744
1054 51 1733 1739 1741 1745
1055 51 1740 1741 1739 1742
1056 51 1740 1741 1739 1743
1057 51 1740 1746 1748 1751
1058 51 1740 1746 1748 1752
1059 51 1747 1748 1746 1749
1060 51 1747 1748 1746 1750
1061 51 1762 1769 1771 1774
1062 51 1762 1769 1771 1775
1063 51 1770 1771 1769 1772
1064 51 1770 1771 1769 1773
1065 51 1770 1776 1778 1781
1066 51 1770 1776 1778 1782
1067 51 1777 1778 1776 1779
1068 51 1777 1778 1776 1780
1069 51 1777 1783 1785 1788
1070 51 1777 1783 1785 1789
1071 51 1784 1785 1783 1786
1072 51 1784 1785 1783 1787
1073 51 1784 1790 1792 1795
1074 51 1784 1790 1792 1796
1075 51 1791 1792 1790 1793
1076 51 1791 1792 1790 1794
1077 51 1791 1797 1799 1802
1078 51 1791 1797 1799 1803
1079 51 1798 1799 1797 1800
1080 51 1798 1799 1797 1801
1081 51 1798 1804 1806 1809
1082 51 1798 1804 1806 1810
1083 51 1805 1806 1804 1807
1084 51 1805 1806 1804 1808
1085 51 1805 1811 1813 1816
1086 51 1805 1811 1813 1817
1087 51 1812 1813 1811 1814
1088 51 1812 1813 1811 1815
1089 51 1812 1818 1820 1823
1090 51 1812 1818 1820 1824
1091 51 1819 1820 1818 1821
1092 51 1819 1820 1818 1822
1093 51 1819 1825 1827 1830
1094 51 1819 1825 1827 1831
1095 51 1826 1827 1825 1828
1096 51 1826 1827 1825 1829
1097 51 1826 1832 1834 1837
1098 51 1826 1832 1834 1838
1099 51 1833 1834 1832 1835
1100 51 1833 1834 1832 1836
1101 51 1833 1839 1841 1844
1102 51 1833 1839 1841 1845
1103 51 1840 1841 1839 1842
1104 51 1840 1841 1839 1843
1105 51 1840 1846 1848 1851
1106 51 1840 1846 1848 1852
1107 51 1847 1848 1846 1849
1108 51 1847 1848 1846 1850
1109 51 1847 1853 1855 1858
1110 51 1847 1853 1855 1859
1111 51 1854 1855 1853 1856
1112 51 1854 1855 1853 1857
1113 51 1854 1860 1862 1865
1114 51 1854 1860 1862 1866
1115 51 1861 1862 1860 1863
1116 51 1861 1862 1860 1864
1117 51 1861 1867 1869 1872
1118 51 1861 1867 1869 1873
1119 51 1868 1869 1867 1870
1120 51 1868 1869 1867 1871
1121 51 1868 1874 1876 1879
1122 51 1868 1874 1876 1880
1123 51 1875 1876 1874 1877
1124 51 1875 1876 1874 1878
1125 51 1875 1881 1883 1886
1126 51 1875 1881 1883 1887
1127 51 1882 1883 1881 1884
1128 51 1882 1883 1881 1885
1129 51 1882 1888 1890 1893
1130 51 1882 1888 1890 1894
1131 51 1889 1890 1888 1891
1132 51 1889 1890 1888 1892
1133 51 1889 1895 1897 1900
1134 51 1889 1895 1897 1901
1135 51 1896 1897 1895 1898
1136 51 1896 1897 1895 1899
1137 51 1896 1902 1904 1907
1138 51 1896 1902 1904 1908
1139 51 1903 1904 1902 1905
1140 51 1903 1904 1902 1906
1141 51 1903 1909 1911 1914
1142 51 1903 1909 1911 1915
1143 51 1910 1911 1909 1912
1144 51 1910 1911 1909 1913
1145 51 1910 1916 1918 1921
1146 51 1910 1916 1918 1922
1147 51 1917 1918 1916 1919
1148 51 1917 1918 1916 1920
1149 51 1917 1923 1925 1928
1150 51 1917 1923 1925 1929
1151 51 1924 1925 1923 1926
1152 51 1924 1925 1923 1927
1153 51 1924 1930 1932 1935
1154 51 1924 1930 1932 1936
1155 51 1931 1932 1930 1933
1156 51 1931 1932 1930 1934
1157 51 1931 1937 1939 1942
1158 51 1931 1937 1939 1943
1159 51 1938 1939 1937 1940
1160 51 1938 1939 1937 1941
1161 51 1938 1944 1946 1949
1162 51 1938 1944 1946 1950
1163 51 1945 1946 1944 1947
1164 51 1945 1946 1944 1948
1165 51 1945 1951 1953 1956
1166 51 1945 1951 1953 1957
1167 51 1952 1953 1951 1954
1168 51 1952 1953 1951 1955
1169 51 1952 1958 1960 1963
1170 51 1952 1958 1960 1964
1171 51 1959 1960 1958 1961
1172 51 1959 1960 1958 1962
1173 51 1959 1965 1967 1970
1174 51 1959 1965 1967 1971
1175 51 1966 1967 1965 1968
1176 51 1966 1967 1965 1969
1177 51 1966 1972 1974 1977
1178 51 1966 1972 1974 1978
1179 51 1973 1974 1972 1975
1180 51 1973 1974 1972 1976
1181 51 1973 1979 1981 1984
1182 51 1973 1979 1981 1985
1183 51 1980 1981 1979 1982
1184 51 1980 1981 1979 1983
1185 51 1980 1986 1988 1991
1186 51 1980 1986 1988 1992
1187 51 1987 1988 1986 1989
1188 51 1987 1988 1986 1990
1189 51 1987 1993 1995 1998
1190 51 1987 1993 1995 1999
1191 51 1994 1995 1993 1996
1192 51 1994 1995 1993 1997
1193 51 1994 2000 2002 2005
1194 51 1994 2000 2002 2006
1195 51 2001 2002 2000 2003
1196 51 2001 2002 2000 2004
1197 51 2001 2007 2009 2012
1198 51 2001 2007 2009 2013
1199 51 2008 2009 2007 2010
1200 51 2008 2009 2007 2011
1201 51 2008 2014 2016 2019
1202 51 2008 2014 2016 2020
1203 51 2015 2016 2014 2017
1204 51 2015 2016 2014 2018
1205 51 2015 2021 2023 2026
1206 51 2015 2021 2023 2027
1207 51 2022 2023 2021 2024
1208 51 2022 2023 2021 2025
1209 51 2022 2028 2030 2033
1210 51 2022 2028 2030 2034
1211 51 2029 2030 2028 2031
1212 51 2029 2030 2028 2032
1213 51 2029 2035 2037 2040
1214 51 2029 2035 2037 2041
1215 51 2036 2037 2035 2038
1216 51 2036 2037 2035 2039
1217 51 2036 2042 2044 2047
1218 51 2036 2042 2044 2048
1219 51 2043 2044 2042 2045
1220 51 2043 2044 2042 2046
1221 51 2043 2049 2051 2054
1222 51 2043 2049 2051 2055
1223 51 2050 2051 2049 2052
1224 51 2050 2051 2049 2053
1225 51 2050 2056 2058 2061
1226 51 2050 2056 2058 2062
1227 51 2057 2058 2056 2059
1228 51 2057 2058 2056 2060
1229 51 2057 2063 2065 2068
1230 51 2057 2063 2065 2069
1231 51 2064 2065 2063 2066
1232 51 2064 2065 2063 2067
1233 51 2064 2070 2072 2075
1234 51 2064 2070 2072 2076
1235 51 2071 2072 2070 2073
1236 51 2071 2072 2070 2074
1237 51 2071 2077 2079 2082
1238 51 2071 2077 2079 2083
1239 51 2078 2079 2077 2080
1240 51 2078 2079 2077 2081
1241 51 2078 2084 2086 2089
1242 51 2078 2084 2086 2090
1243 51 2085 2086 2084 2087
1244 51 2085 2086 2084 2088
1245 51 2085 2091 2093 2096
1246 51 2085 2091 2093 2097
1247 51 2092 2093 2091 2094
1248 51 2092 2093 2091 2095
1249 51 2092 2098 2100 2103
1250 51 2092 2098 2100 2104
1251 51 2099 2100 2098 2101
1252 51 2099 2100 2098 2102
1253 51 2114 2121 2123 2126
1254 51 2114 2121 2123 2127
1255 51 2122 2123 2121 2124
1256 51 2122 2123 2121 2125
1257 51 2122 2128 2130 2133
1258 51 2122 2128 2130 2134
1259 51 2129 2130 2128 2131
1260 51 2129 2130 2128 2132
1261 51 2129 2135 2137 2140
1262 51 2129 2135 2137 2141
1263 51 2136 2137 2135 2138
1264 51 2136 2137 2135 2139
1265 51 2136 2142 2144 2147
1266 51 2136 2142 2144 2148
1267 51 2143 2144 2142 2145
1268 51 2143 2144 2142 2146
1269 51 2143 2149 2151 2154
1270 51 2143 2149 2151 2155
1271 51 2150 2151 2149 2152
1272 51 2150 2151 2149 2153
1273 51 2150 2156 2158 2161
1274 51 2150 2156 2158 2162
1275 51 2157 2158 2156 2159
1276 51 2157 2158 2156 2160
1277 51 2157 2163 2165 2168
1278 51 2157 2163 2165 2169
1279 51 2164 2165 2163 2166
1280 51 2164 2165 2163 2167
1281 51 2164 2170 2172 2175
1282 51 2164 2170 2172 2176
1283 51 2171 2172 2170 2173
1284 51 2171 2172 2170 2174
1285 51 2171 2177 2179 2182
1286 51 2171 2177 2179 2183
1287 51 2178 2179 2177 2180
1288 51 2178 2179 2177 2181
1289 51 2178 2184 2186 2189
1290 51 2178 2184 2186 2190
1291 51 2185 2186 2184 2187
1292 51 2185 2186 2184 2188
1293 51 2185 2191 2193 2196
1294 51 2185 2191 2193 2197
1295 51 2192 2193 2191 2194
1296 51 2192 2193 2191 2195
1297 51 2192 2198 2200 2203
1298 51 2192 2198 2200 2204
1299 51 2199 2200 2198 2201
1300 51 2199 2200 2198 2202
1301 51 2199 2205 2207 2210
1302 51 2199 2205 2207 2211
1303 51 2206 2207 2205 2208
1304 51 2206 2207 2205 2209
1305 51 2206 2212 2214 2217
1306 51 2206 2212 2214 2218
1307 51 2213 2214 2212 2215
1308 51 2213 2214 2212 2216
1309 51 2213 2219 2221 2224
1310 51 2213 2219 2221 2225
1311 51 2220 2221 2219 2222
1312 51 2220 2221 2219 2223
1313 51 2220 2226 2228 2231
1314 51 2220 2226 2228 2232
1315 51 2227 2228 2226 2229
1316 51 2227 2228 2226 2230
1317 51 2227 2233 2235 2238
1318 51 2227 2233 2235 2239
1319 51 2234 2235 2233 2236
1320 51 2234 2235 2233 2237
1321 51 2234 2240 2242 2245
1322 51 2234 2240 2242 2246
1323 51 2241 2242 2240 2243
1324 51 2241 2242 2240 2244
1325 51 2241 2247 2249 2252
1326 51 2241 2247 2249 2253
1327 51 2248 2249 2247 2250
1328 51 2248 2249 2247 2251
1329 51 2248 2254 2256 2259
1330 51 2248 2254 2256 2260
1331 51 2255 2256 2254 2257
1332 51 2255 2256 2254 2258
1333 51 2255 2261 2263 2266
1334 51 2255 2261 2263 2267
1335 51 2262 2263 2261 2264
1336 51 2262 2263 2261 2265
1337 51 2262 2268 2270 2273
1338 51 2262 2268 2270 2274
1339 51 2269 2270 2268 2271
1340 51 2269 2270 2268 2272
1341 51 2269 2275 2277 2280
1342 51 2269 2275 2277 2281
1343 51 2276 2277 2275 2278
1344 51 2276 2277 2275 2279
1345 51 2276 2282 2284 2287
1346 51 2276 2282 2284 2288
1347 51 2283 2284 2282 2285
1348 51 2283 2284 2282 2286
1349 51 2283 2289 2291 2294
1350 51 2283 2289 2291 2295
1351 51 2290 2291 2289 2292
1352 51 2290 2291 2289 2293
1353 51 2290 2296 2298 2301
1354 51 2290 2296 2298 2302
1355 51 2297 2298 2296 2299
1356 51 2297 2298 2296 2300
1357 51 2297 2303 2305 2308
1358 51 2297 2303 2305 2309
1359 51 2304 2305 2303 2306
1360 51 2304 2305 2303 2307
1361 51 2304 2310 2312 2315
1362 51 2304 2310 2312 2316
1363 51 2311 2312 2310 2313
1364 51 2311 2312 2310 2314
1365 51 2311 2317 2319 2322
1366 51 2311 2317 2319 2323
1367 51 2318 2319 2317 2320
1368 51 2318 2319 2317 2321
1369 51 2318 2324 2326 2329
1370 51 2318 2324 2326 2330
1371 51 2325 2326 2324 2327
1372 51 2325 2326 2324 2328
1373 51 2325 2331 2333 2336
1374 51 2325 2331 2333 2337
1375 51 2332 2333 2331 2334
1376 51 2332 2333 2331 2335
1377 51 2332 2338 2340 2343
1378 51 2332 2338 2340 2344
1379 51 2339 2340 2338 2341
1380 51 2339 2340 2338 2342
1381 51 2339 2345 2347 2350
1382 51 2339 2345 2347 2351
1383 51 2346 2347 2345 2348
1384 51 2346 2347 2345 2349
1385 51 2346 2352 2354 2357
1386 51 2346 2352 2354 2358
1387 51 2353 2354 2352 2355
1388 51 2353 2354 2352 2356
1389 51 2353 2359 2361 2364
1390 51 2353 2359 2361 2365
1391 51 2360 2361 2359 2362
1392 51 2360 2361 2359 2363
1393 51 2360 2366 2368 2371
1394 51 2360 2366 2368 2372
1395 51 2367 2368 2366 2369
1396 51 2367 2368 2366 2370
1397 51 2367 2373 2375 2378
1398 51 2367 2373 2375 2379
1399 51 2374 2375 2373 2376
1400 51 2374 2375 2373 2377
1401 51 2374 2380 2382 2385
1402 51 2374 2380 2382 2386
1403 51 2381 2382 2380 2383
1404 51 2381 2382 2380 2384
1405 51 2381 2387 2389 2392
1406 51 2381 2387 2389 2393
1407 51 2388 2389 2387 2390
1408 51 2388 2389 2387 2391
1409 51 2388 2394 2396 2399
1410 51 2388 2394 2396 2400
1411 51 2395 2396 2394 2397
1412 51 2395 2396 2394 2398
1413 51 2395 2401 2403 2406
1414 51 2395 2401 2403 2407
1415 51 2402 2403 2401 2404
1416 51 2402 2403 2401 2405
1417 51 2402 2408 2410 2413
1418 51 2402 2408 2410 2414
1419 51 2409 2410 2408 2411
1420 51 2409 2410 2408 2412
1421 51 2409 2415 2417 2420
1422 51 2409 2415 2417 2421
1423 51 2416 2417 2415 2418
1424 51 2416 2417 2415 2419
1425 51 2416 2422 2424 2427
1426 51 2416 2422 2424 2428
1427 51 2423 2424 2422 2425
1428 51 2423 2424 2422 2426
1429 51 2423 2429 2431 2434
1430 51 2423 2429 2431 2435
1431 51 2430 2431 2429 2432
1432 51 2430 2431 2429 2433
1433 51 2430 2436 2438 2441
1434 51 2430 2436 2438 2442
1435 51 2437 2438 2436 2439
1436 51 2437 2438 2436 2440
1437 51 2437 2443 2445 2448
1438 51 2437 2443 2445 2449
1439 51 2444 2445 2443 2446
1440 51 2444 2445 2443 2447
1441 51 2444 2450 2452 2455
1442 51 2444 2450 2452 2456
1443 51 2451 2452 2450 2453
1444 51 2451 2452 2450 2454
1445 51 2466 2473 2475 2478
1446 51 2466 2473 2475 2479
1447 51 2474 2475 2473 2476
1448 51 2474 2475 2473 2477
1449 51 2474 2480 2482 2485
1450 51 2474 2480 2482 2486
1451 51 2481 2482 2480 2483
1452 51 2481 2482 2480 2484
1453 51 2481 2487 2489 2492
1454 51 2481 2487 2489 2493
1455 51 2488 2489 2487 2490
1456 51 2488 2489 2487 2491
1457 51 2488 2494 2496 2499
1458 51 2488 2494 2496 2500
1459 51 2495 2496 2494 2497
1460 51 2495 2496 2494 2498
1461 51 2495 2501 2503 2506
1462 51 2495 2501 2503 2507
1463 51 2502 2503 2501 2504
1464 51 2502 2503 2501 2505
1465 51 2502 2508 2510 2513
1466 51 2502 2508 2510 2514
1467 51 2509 2510 2508 2511
1468 51 2509 2510 2508 2512
1469 51 2509 2515 2517 2520
1470 51 2509 2515 2517 2521
1471 51 2516 2517 2515 2518
1472 51 2516 2517 2515 2519
1473 51 2516 2522 2524 2527
1474 51 2516 2522 2524 2528
1475 51 2523 2524 2522 2525
1476 51 2523 2524 2522 2526
1477 51 2523 2529 2531 2534
1478 51 2523 2529 2531 2535
1479 51 2530 2531 2529 2532
1480 51 2530 2531 2529 2533
1481 51 2530 2536 2538 2541
1482 51 2530 2536 2538 2542
1483 51 2537 2538 2536 2539
1484 51 2537 2538 2536 2540
1485 51 2537 2543 2545 2548
1486 51 2537 2543 2545 2549
1487 51 2544 2545 2543 2546
1488 51 2544 2545 2543 2547
1489 51 2544 2550 2552 2555
1490 51 2544 2550 2552 2556
1491 51 2551 2552 2550 2553
1492 51 2551 2552 2550 2554
1493 51 2551 2557 2559 2562
1494 51 2551 2557 2559 2563
1495 51 2558 2559 2557 2560
1496 51 2558 2559 2557 2561
1497 51 2558 2564 2566 2569
1498 51 2558 2564 2566 2570
1499 51 2565 2566 2564 2567
1500 51 2565 2566 2564 2568
1501 51 2565 2571 2573 2576
1502 51 2565 2571 2573 2577
1503 51 2572 2573 2571 2574
1504 51 2572 2573 2571 2575
1505 51 2572 2578 2580 2583
1506 51 2572 2578 2580 2584
1507 51 2579 2580 2578 2581
1508 51 2579 2580 2578 2582
1509 51 2579 2585 2587 2590
1510 51 2579 2585 2587 2591
1511 51 2586 2587 2585 2588
1512 51 2586 2587 2585 2589
1513 51 2586 2592 2594 2597
1514 51 2586 2592 2594 2598
1515 51 2593 2594 2592 2595
1516 51 2593 2594 2592 2596
1517 51 2593 2599 2601 2604
1518 51 2593 2599 2601 2605
1519 51 2600 2601 2599 2602
1520 51 2600 2601 2599 2603
1521 51 2600 2606 2608 2611
1522 51 2600 2606 2608 2612
1523 51 2607 2608 2606 2609
1524 51 2607 2608 2606 2610
1525 51 2607 2613 2615 2618
1526 51 2607 2613 2615 2619
1527 51 2614 2615 2613 2616
1528 51 2614 2615 2613 2617
1529 51 2614 2620 2622 2625
1530 51 2614 2620 2622 2626
1531 51 2621 2622 2620 2623
1532 51 2621 2622 2620 2624
1533 51 2621 2627 2629 2632
1534 51 2621 2627 2629 2633
1535 51 2628 2629 2627 2630
1536 51 2628 2629 2627 2631
1537 51 2628 2634 2636 2639
1538 51 2628 2634 2636 2640
1539 51 2635 2636 2634 2637
1540 51 2635 2636 2634 2638
1541 51 2635 2641 2643 2646
1542 51 2635 2641 2643 2647
1543 51 2642 2643 2641 2644
1544 51 2642 2643 2641 2645
1545 51 2642 2648 2650 2653
1546 51 2642 2648 2650 2654
1547 51 2649 2650 2648 2651
1548 51 2649 2650 2648 2652
1549 51 2649 2655 2657 2660
1550 51 2649 2655 2657 2661
1551 51 2656 2657 2655 2658
1552 51 2656 2657 2655 2659
1553 51 2656 2662 2664 2667
1554 51 2656 2662 2664 2668
1555 51 2663 2664 2662 2665
1556 51 2663 2664 2662 2666
1557 51 2663 2669 2671 2674
1558 51 2663 2669 2671 2675
1559 51 2670 2671 2669 2672
1560 51 2670 2671 2669 2673
1561 51 2670 2676 2678 2681
1562 51 2670 2676 2678 2682
1563 51 2677 2678 2676 2679
1564 51 2677 2678 2676 2680
1565 51 2677 2683 2685 2688
1566 51 2677 2683 2685 2689
1567 51 2684 2685 2683 2686
1568 51 2684 2685 2683 2687
1569 51 2684 2690 2692 2695
1570 51 2684 2690 2692 2696
1571 51 2691 2692 2690 2693
1572 51 2691 2692 2690 2694
1573 51 2691 2697 2699 2702
1574 51 2691 2697 2699 2703
1575 51 2698 2699 2697 2700
1576 51 2698 2699 2697 2701
1577 51 2698 2704 2706 2709
1578 51 2698 2704 2706 2710
1579 51 2705 2706 2704 2707
1580 51 2705 2706 2704 2708
1581 51 2705 2711 2713 2716
1582 51 2705 2711 2713 2717
1583 51 2712 2713 2711 2714
1584 51 2712 2713 2711 2715
1585 51 2712 2718 2720 2723
1586 51 2712 2718 2720 2724
1587 51 2719 2720 2718 2721
1588 51 2719 2720 2718 2722
1589 51 2719 2725 2727 2730
1590 51 2719 2725 2727 2731
1591 51 2726 2727 2725 2728
1592 51 2726 2727 2725 2729
1593 51 2726 2732 2734 2737
1594 51 2726 2732 2734 2738
1595 51 2733 2734 2732 2735
1596 51 2733 2734 2732 2736
1597 51 2733 2739 2741 2744
1598 51 2733 2739 2741 2745
1599 51 2740 2741 2739 2742
1600 51 2740 2741 2739 2743
1601 51 2740 2746 2748 2751
1602 51 2740 2746 2748 2752
1603 51 2747 2748 2746 2749
1604 51 2747 2748 2746 2750
1605 51 2747 2753 2755 2758
1606 51 2747 2753 2755 2759
1607 51 2754 2755 2753 2756
1608 51 2754 2755 2753 2757
1609 51 2754 2760 2762 2765
1610 51 2754 2760 2762 2766
1611 51 2761 2762 2760 2763
1612 51 2761 2762 2760 2764
1613 51 2761 2767 2769 2772
1614 51 2761 2767 2769 2773
1615 51 2768 2769 2767 2770
1616 51 2768 2769 2767 2771
1617 51 2768 2774 2776 2779
1618 51 2768 2774 2776 2780
1619 51 2775 2776 2774 2777
1620 51 2775 2776 2774 2778
1621 51 2775 2781 2783 2786
1622 51 2775 2781 2783 2787
1623 51 2782 2783 2781 2784
1624 51 2782 2783 2781 2785
1625 51 2782 2788 2790 2793
1626 51 2782 2788 2790 2794
1627 51 2789 2790 2788 2791
1628 51 2789 2790 2788 2792
1629 51 2789 2795 2797 2800
1630 51 2789 2795 2797 2801
1631 51 2796 2797 2795 2798
1632 51 2796 2797 2795 2799
1633 51 2796 2802 2804 2807
1634 51 2796 2802 2804 2808
1635 51 2803 2804 2802 2805
1636 51 2803 2804 2802 2806
1637 51 2818 2825 2827 2830
1638 51 2818 2825 2827 2831
1639 51 2826 2827 2825 2828
1640 51 2826 2827 2825 2829
1641 51 2826 2832 2834 2837
1642 51 2826 2832 2834 2838
1643 51 2833 2834 2832 2835
1644 51 2833 2834 2832 2836
1645 51 2833 2839 2841 2844
1646 51 2833 2839 2841 2845
1647 51 2840 2841 2839 2842
1648 51 2840 2841 2839 2843
1649 51 2840 2846 2848 2851
1650 51 2840 2846 2848 2852
1651 51 2847 2848 2846 2849
1652 51 2847 2848 2846 2850
1653 51 2847 2853 2855 2858
1654 51 2847 2853 2855 2859
1655 51 2854 2855 2853 2856
1656 51 2854 2855 2853 2857
1657 51 2854 2860 2862 2865
1658 51 2854 2860 2862 2866
1659 51 2861 2862 2860 2863
1660 51 2861 2862 2860 2864
1661 51 2861 2867 2869 2872
1662 51 2861 2867 2869 2873
1663 51 2868 2869 2867 2870
1664 51 2868 2869 2867 2871
1665 51 2868 2874 2876 2879
1666 51 2868 2874 2876 2880
1667 51 2875 2876 2874 2877
1668 51 2875 2876 2874 2878
1669 51 2875 2881 2883 2886
1670 51 2875 2881 2883 2887
1671 51 2882 2883 2881 2884
1672 51 2882 2883 2881 2885
1673 51 2882 2888 2890 2893
1674 51 2882 2888 2890 2894
1675 51 2889 2890 2888 2891
1676 51 2889 2890 2888 2892
1677 51 2889 2895 2897 2900
1678 51 2889 2895 2897 2901
1679 51 2896 2897 2895 2898
1680 51 2896 2897 2895 2899
1681 51 2896 2902 2904 2907
1682 51 2896 2902 2904 2908
1683 51 2903 2904 2902 2905
1684 51 2903 2904 2902 2906
1685 51 2903 2909 2911 2914
1686 51 2903 2909 2911 2915
1687 51 2910 2911 2909 2912
1688 51 2910 2911 2909 2913
1689 51 2910 2916 2918 2921
1690 51 2910 2916 2918 2922
1691 51 2917 2918 2916 2919
1692 51 2917 2918 2916 2920
1693 51 2917 2923 2925 2928
1694 51 2917 2923 2925 2929
1695 51 2924 2925 2923 2926
1696 51 2924 2925 2923 2927
1697 51 2924 2930 2932 2935
1698 51 2924 2930 2932 2936
1699 51 2931 2932 2930 2933
1700 51 2931 2932 2930 2934
1701 51 2931 2937 2939 2942
1702 51 2931 2937 2939 2943
1703 51 2938 2939 2937 2940
1704 51 2938 2939 2937 2941
1705 51 2938 2944 2946 2949
1706 51 2938 2944 2946 2950
1707 51 2945 2946 2944 2947
1708 51 2945 2946 2944 2948
1709 51 2945 2951 2953 2956
1710 51 2945 2951 2953 2957
1711 51 2952 2953 2951 2954
1712 51 2952 2953 2951 2955
1713 51 2952 2958 2960 2963
1714 51 2952 2958 2960 2964
1715 51 2959 2960 2958 2961
1716 51 2959 2960 2958 2962
1717 51 2959 2965 2967 2970
1718 51 2959 2965 2967 2971
1719 51 2966 2967 2965 2968
1720 51 2966 2967 2965 2969
1721 51 2966 2972 2974 2977
1722 51 2966 2972 2974 2978
1723 51 2973 2974 2972 2975
1724 51 2973 2974 2972 2976
1725 51 2973 2979 2981 2984
1726 51 2973 2979 2981 2985
1727 51 2980 2981 2979 2982
1728 51 2980 2981 2979 2983
1729 51 2980 2986 2988 2991
1730 51 2980 2986 2988 2992
1731 51 2987 2988 2986 2989
1732 51 2987 2988 2986 2990
1733 51 2987 2993 2995 2998
1734 51 2987 2993 2995 2999
1735 51 2994 2995 2993 2996
1736 51 2994 2995 2993 2997
1737 51 2994 3000 3002 3005
1738 51 2994 3000 3002 3006
1739 51 3001 3002 3000 3003
1740 51 3001 3002 3000 3004
1741 51 3001 3007 3009 3012
1742 51 3001 3007 3009 3013
1743 51 3008 3009 3007 3010
1744 51 3008 3009 3007 3011
1745 51 3008 3014 3016 3019
1746 51 3008 3014 3016 3020
1747 51 3015 3016 3014 3017
1748 51 3015 3016 3014 3018
1749 51 3015 3021 3023 3026
1750 51 3015 3021 3023 3027
1751 51 3022 3023 3021 3024
1752 51 3022 3023 3021 3025
1753 51 3022 3028 3030 3033
1754 51 3022 3028 3030 3034
1755 51 3029 3030 3028 3031
1756 51 3029 3030 3028 3032
1757 51 3029 3035 3037 3040
1758 51 3029 3035 3037 3041
1759 51 3036 3037 3035 3038
1760 51 3036 3037 3035 3039
1761 51 3036 3042 3044 3047
1762 51 3036 3042 3044 3048
1763 51 3043 3044 3042 3045
1764 51 3043 3044 3042 3046
1765 51 3043 3049 3051 3054
1766 51 3043 3049 3051 3055
1767 51 3050 3051 3049 3052
1768 51 3050 3051 3049 3053
1769 51 3050 3056 3058 3061
1770 51 3050 3056 3058 3062
1771 51 3057 3058 3056 3059
1772 51 3057 3058 3056 3060
1773 51 3057 3063 3065 3068
1774 51 3057 3063 3065 3069
1775 51 3064 3065 3063 3066
1776 51 3064 3065 3063 3067
1777 51 3064 3070 3072 3075
1778 51 3064 3070 3072 3076
1779 51 3071 3072 3070 3073
1780 51 3071 3072 3070 3074
1781 51 3071 3077 3079 3082
1782 51 3071 3077 3079 3083
1783 51 3078 3079 3077 3080
1784 51 3078 3079 3077 3081
1785 51 3078 3084 3086 3089
1786 51 3078 3084 3086 3090
1787 51 3085 3086 3084 3087
1788 51 3085 3086 3084 3088
1789 51 3085 3091 3093 3096
1790 51 3085 3091 3093 3097
1791 51 3092 3093 3091 3094
1792 51 3092 3093 3091 3095
1793 51 3092 3098 3100 3103
1794 51 3092 3098 3100 3104
1795 51 3099 3100 3098 3101
1796 51 3099 3100 3098 3102
1797 51 3099 3105 3107 3110
1798 51 3099 3105 3107 3111
1799 51 3106 3107 3105 3108
1800 51 3106 3107 3105 3109
1801 51 3106 3112 3114 3117
1802 51 3106 3112 3114 3118
1803 51 3113 3114 3112 3115
1804 51 3113 3114 3112 3116
1805 51 3113 3119 3121 3124
1806 51 3113 3119 3121 3125
1807 51 3120 3121 3119 3122
1808 51 3120 3121 3119 3123
1809 51 3120 3126 3128 3131
1810 51 3120 3126 3128 3132
1811 51 3127 3128 3126 3129
1812 51 3127 3128 3126 3130
1813 51 3127 3133 3135 3138
1814 51 3127 3133 3135 3139
1815 51 3134 3135 3133 3136
1816 51 3134 3135 3133 3137
1817 51 3134 3140 3142 3145
1818 51 3134 3140 3142 3146
1819 51 3141 3142 3140 3143
1820 51 3141 3142 3140 3144
1821 51 3141 3147 3149 3152
1822 51 3141 3147 3149 3153
1823 51 3148 3149 3147 3150
1824 51 3148 3149 3147 3151
1825 51 3148 3154 3156 3159
1826 51 3148 3154 3156 3160
1827 51 3155 3156 3154 3157
1828 51 3155 3156 3154 3158
1829 51 3170 3177 3179 3182
1830 51 3170 3177 3179 3183
1831 51 3178 3179 3177 3180
1832 51 3178 3179 3177 3181
1833 51 3178 3184 3186 3189
1834 51 3178 3184 3186 3190
1835 51 3185 3186 3184 3187
1836 51 3185 3186 3184 3188
1837 51 3185 3191 3193 3196
1838 51 3185 3191 3193 3197
1839 51 3192 3193 3191 3194
1840 51 3192 3193 3191 3195
1841 51 3192 3198 3200 3203
1842 51 3192 3198 3200 3204
1843 51 3199 3200 3198 3201
1844 51 3199 3200 3198 3202
1845 51 3199 3205 3207 3210
1846 51 3199 3205 3207 3211
1847 51 3206 3207 3205 3208
1848 51 3206 3207 3205 3209
1849 51 3206 3212 3214 3217
1850 51 3206 3212 3214 3218
1851 51 3213 3214 3212 3215
1852 51 3213 3214 3212 3216
1853 51 3213 3219 3221 3224
1854 51 3213 3219 3221 3225
1855 51 3220 3221 3219 3222
1856 51 3220 3221 3219 3223
1857 51 3220 3226 3228 3231
1858 51 3220 3226 3228 3232
1859 51 3227 3228 3226 3229
1860 51 3227 3228 3226 3230
1861 51 3227 3233 3235 3238
1862 51 3227 3233 3235 3239
1863 51 3234 3235 3233 3236
1864 51 3234 3235 3233 3237
1865 51 3234 3240 3242 3245
1866 51 3234 3240 3242 3246
1867 51 3241 3242 3240 3243
1868 51 3241 3242 3240 3244
1869 51 3241 3247 3249 3252
1870 51 3241 3247 3249 3253
1871 51 3248 3249 3247 3250
1872 51 3248 3249 3247 3251
1873 51 3248 3254 3256 3259
1874 51 3248 3254 3256 3260
1875 51 3255 3256 3254 3257
1876 51 3255 3256 3254 3258
1877 51 3255 3261 3263 3266
1878 51 3255 3261 3263 3267
1879 51 3262 3263 3261 3264
1880 51 3262 3263 3261 3265
1881 51 3262 3268 3270 3273
1882 51 3262 3268 3270 3274
1883 51 3269 3270 3268 3271
1884 51 3269 3270 3268 3272
1885 51 3269 3275 3277 3280
1886 51 3269 3275 3277 3281
1887 51 3276 3277 3275 3278
1888 51 3276 3277 3275 3279
1889 51 3276 3282 3284 3287
1890 51 3276 3282 3284 3288
1891 51 3283 3284 3282 3285
1892 51 3283 3284 3282 3286
1893 51 3283 3289 3291 3294
1894 51 3283 3289 3291 3295
1895 51 3290 3291 3289 3292
1896 51 3290 3291 3289 3293
1897 51 3290 3296 3298 3301
1898 51 3290 3296 3298 3302
1899 51 3297 3298 3296 3299
1900 51 3297 3298 3296 3300
1901 51 3297 3303 3305 3308
1902 51 3297 3303 3305 3309
1903 51 3304 3305 3303 3306
1904 51 3304 3305 3303 3307
1905 51 3304 3310 3312 3315
1906 51 3304 3310 3312 3316
1907 51 3311 3312 3310 3313
1908 51 3311 3312 3310 3314
1909 51 3311 3317 3319 3322
1910 51 3311 3317 3319 3323
1911 51 3318 3319 3317 3320
1912 51 3318 3319 3317 3321
1913 51 3318 3324 3326 3329
1914 51 3318 3324 3326 3330
1915 51 3325 3326 3324 3327
1916 51 3325 3326 3324 3328
1917 51 3325 3331 3333 3336
1918 51 3325 3331 3333 3337
1919 51 3332 3333 3331 3334
1920 51 3332 3333 3331 3335
1921 51 3332 3338 3340 3343
1922 51 3332 3338 3340 3344
1923 51 3339 3340 3338 3341
1924 51 3339 3340 3338 3342
1925 51 3339 3345 3347 3350
1926 51 3339 3345 3347 3351
1927 51 3346 3347 3345 3348
1928 51 3346 3347 3345 3349
1929 51 3346 3352 3354 3357
1930 51 3346 3352 3354 3358
1931 51 3353 3354 3352 3355
1932 51 3353 3354 3352 3356
1933 51 3353 3359 3361 3364
1934 51 3353 3359 3361 3365
1935 51 3360 3361 3359 3362
1936 51 3360 3361 3359 3363
1937 51 3360 3366 3368 3371
1938 51 3360 3366 3368 3372
1939 51 3367 3368 3366 3369
1940 51 3367 3368 3366 3370
1941 51 3367 3373 3375 3378
1942 51 3367 3373 3375 3379
1943 51 3374 3375 3373 3376
1944 51 3374 3375 3373 3377
1945 51 3374 3380 3382 3385
1946 51 3374 3380 3382 3386
1947 51 3381 3382 3380 3383
1948 51 3381 3382 3380 3384
1949 51 3381 3387 3389 3392
1950 51 3381 3387 3389 3393
1951 51 3388 3389 3387 3390
1952 51 3388 3389 3387 3391
1953 51 3388 3394 3396 3399
1954 51 3388 3394 3396 3400
1955 51 3395 3396 3394 3397
1956 51 3395 3396 3394 3398
1957 51 3395 3401 3403 3406
1958 51 3395 3401 3403 3407
1959 51 3402 3403 3401 3404
1960 51 3402 3403 3401 3405
1961 51 3402 3408 3410 3413
1962 51 3402 3408 3410 3414
1963 51 3409 3410 3408 3411
1964 51 3409 3410 3408 3412
1965 51 3409 3415 3417 3420
1966 51 3409 3415 3417 3421
1967 51 3416 3417 3415 3418
1968 51 3416 3417 3415 3419
1969 51 3416 3422 3424 3427
1970 51 3416 3422 3424 3428
1971 51 3423 3424 3422 3425
1972 51 3423 3424 3422 3426
1973 51 3423 3429 3431 3434
1974 51 3423 3429 3431 3435
1975 51 3430 3431 3429 3432
1976 51 3430 3431 3429 3433
1977 51 3430 3436 3438 3441
1978 51 3430 3436 3438 3442
1979 51 3437 3438 3436 3439
1980 51 3437 3438 3436 3440
1981 51 3437 3443 3445 3448
1982 51 3437 3443 3445 3449
1983 51 3444 3445 3443 3446
1984 51 3444 3445 3443 3447
1985 51 3444 3450 3452 3455
1986 51 3444 3450 3452 3456
1987 51 3451 3452 3450 3453
1988 51 3451 3452 3450 3454
1989 51 3451 3457 3459 3462
1990 51 3451 3457 3459 3463
1991 51 3458 3459 3457 3460
1992 51 3458 3459 3457 3461
1993 51 3458 3464 3466 3469
1994 51 3458 3464 3466 3470
1995 51 3465 3466 3464 3467
1996 51 3465 3466 3464 3468
1997 51 3465 3471 3473 3476
1998 51 3465 3471 3473 3477
1999 51 3472 3473 3471 3474
2000 51 3472 3473 3471 3475
2001 51 3472 3478 3480 3483
2002 51 3472 3478 3480 3484
2003 51 3479 3480 3478 3481
2004 51 3479 3480 3478 3482
2005 51 3479 3485 3487 3490
2006 51 3479 3485 3487 3491
2007 51 3486 3487 3485 3488
2008 51 3486 3487 3485 3489
2009 51 3486 3492 3494 3497
2010 51 3486 3492 3494 3498
2011 51 3493 3494 3492 3495
2012 51 3493 3494 3492 3496
2013 51 3493 3499 3501 3504
2014 51 3493 3499 3501 3505
2015 51 3500 3501 3499 3502
2016 51 3500 3501 3499 3503
2017 51 3500 3506 3508 3511
2018 51 3500 3506 3508 3512
2019 51 3507 3508 3506 3509
2020 51 3507 3508 3506 3510
2021 66 348 345 346 350
2022 66 348 345 346 351
2023 66 349 345 346 350
2024 66 349 345 346 351
2025 66 700 697 698 702
2026 66 700 697 698 703
2027 66 701 697 698 702
2028 66 701 697 698 703
2029 66 1052 1049 1050 1054
2030 66 1052 1049 1050 1055
2031 66 1053 1049 1050 1054
2032 66 1053 1049 1050 1055
2033 66 1404 1401 1402 1406
2034 66 1404 1401 1402 1407
2035 66 1405 1401 1402 1406
2036 66 1405 1401 1402 1407
2037 66 1756 1753 1754 1758
2038 66 1756 1753 1754 1759
2039 66 1757 1753 1754 1758
2040 66 1757 1753 1754 1759
2041 66 2108 2105 2106 2110
2042 66 2108 2105 2106 2111
2043 66 2109 2105 2106 2110
2044 66 2109 2105 2106 2111
2045 66 2460 2457 2458 2462
2046 66 2460 2457 2458 2463
2047 66 2461 2457 2458 2462
2048 66 2461 2457 2458 2463
2049 66 2812 2809 2810 2814
2050 66 2812 2809 2810 2815
2051 66 2813 2809 2810 2814
2052 66 2813 2809 2810 2815
2053 66 3164 3161 3162 3166
2054 66 3164 3161 3162 3167
2055 66 3165 3161 3162 3166
2056 66 3165 3161 3162 3167
2057 66 3516 3513 3514 3518
2058 66 3516 3513 3514 3519
2059 66 3517 3513 3514 3518
2060 66 3517 3513 3514 3519
2061 82 4 1 3 7
2062 82 5 1 3 7
2063 82 6 1 3 7
2064 82 4 1 3 8
2065 82 5 1 3 8
2066 82 6 1 3 8
2067 82 356 353 355 359
2068 82 357 353 355 359
2069 82 358 353 355 359
2070 82 356 353 355 360
2071 82 357 353 355 360
2072 82 358 353 355 360
2073 82 708 705 707 711
2074 82 709 705 707 711
2075 82 710 705 707 711
2076 82 708 705 707 712
2077 82 709 705 707 712
2078 82 710 705 707 712
2079 82 1060 1057 1059 1063
2080 82 1061 1057 1059 1063
2081 82 1062 1057 1059 1063
2082 82 1060 1057 1059 1064
2083 82 1061 1057 1059 1064
2084 82 1062 1057 1059 1064
2085 82 1412 1409 1411 1415
2086 82 1413 1409 1411 1415
2087 82 1414 1409 1411 1415
2088 82 1412 1409 1411 1416
2089 82 1413 1409 1411 1416
2090 82 1414 1409 1411 1416
2091 82 1764 1761 1763 1767
2092 82 1765 1761 1763 1767
2093 82 1766 1761 1763 1767
2094 82 1764 1761 1763 1768
2095 82 1765 1761 1763 1768
2096 82 1766 1761 1763 1768
2097 82 2116 2113 2115 2119
2098 82 2117 2113 2115 2119
2099 82 2118 2113 2115 2119
2100 82 2116 2113 2115 2120
2101 82 2117 2113 2115 2120
2102 82 2118 2113 2115 2120
2103 82 2468 2465 2467 2471
2104 82 2469 2465 2467 2471
2105 82 2470 2465 2467 2471
2106 82 2468 2465 2467 2472
2107 82 2469 2465 2467 2472
2108 82 2470 2465 2467 2472
2109 82 2820 2817 2819 2823
2110 82 2821 2817 2819 2823
2111 82 2822 2817 2819 2823
2112 82 2820 2817 2819 2824
2113 82 2821 2817 2819 2824
2114 82 2822 2817 2819 2824
2115 82 3172 3169 3171 3175
2116 82 3173 3169 3171 3175
2117 82 3174 3169 3171 3175
2118 82 3172 3169 3171 3176
2119 82 3173 3169 3171 3176
2120 82 3174 3169 3171 3176
2121 87 12 9 11 14
2122 87 12 9 11 15
2123 87 13 9 11 14
2124 87 13 9 11 15
2125 87 19 16 18 21
2126 87 19 16 18 22
2127 87 20 16 18 21
2128 87 20 16 18 22
2129 87 26 23 25 28
2130 87 26 23 25 29
2131 87 27 23 25 28
2132 87 27 23 25 29
2133 87 33 30 32 35
2134 87 33 30 32 36
2135 87 34 30 32 35
2136 87 34 30 32 36
2137 87 40 37 39 42
2138 87 40 37 39 43
2139 87 41 37 39 42
2140 87 41 37 39 43
2141 87 47 44 46 49
2142 87 47 44 46 50
2143 87 48 44 46 49
2144 87 48 44 46 50
2145 87 54 51 53 56
2146 87 54 51 53 57
2147 87 55 51 53 56
2148 87 55 51 53 57
2149 87 61 58 60 63
2150 87 61 58 60 64
2151 87 62 58 60 63
2152 87 62 58 60 64
2153 87 68 65 67 70
2154 87 68 65 67 71
2155 87 69 65 67 70
2156 87 69 65 67 71
2157 87 75 72 74 77
2158 87 75 72 74 78
2159 87 76 72 74 77
2160 87 76 72 74 78
2161 87 82 79 81 84
2162 87 82 79 81 85
2163 87 83 79 81 84
2164 87 83 79 81 85
2165 87 89 86 88 91
2166 87 89 86 88 92
2167 87 90 86 88 91
2168 87 90 86 88 92
2169 87 96 93 95 98
2170 87 96 93 95 99
2171 87 97 93 95 98
2172 87 97 93 95 99
2173 87 103 100 102 105
2174 87 103 100 102 106
2175 87 104 100 102 105
2176 87 104 100 102 106
2177 87 110 107 109 112
2178 87 110 107 109 113
2179 87 111 107 109 112
2180 87 111 107 109 113
2181 87 117 114 116 119
2182 87 117 114 116 120
2183 87 118 114 116 119
2184 87 118 114 116 120
2185 87 124 121 123 126
2186 87 124 121 123 127
2187 87 125 121 123 126
2188 87 125 121 123 127
2189 87 131 128 130 133
2190 87 131 128 130 134
2191 87 132 128 130 133
2192 87 132 128 130 134
2193 87 138 135 137 140
2194 87 138 135 137 141
2195 87 139 135 137 140
2196 87 139 135 137 141
2197 87 145 142 144 147
2198 87 145 142 144 148
2199 87 146 142 144 147
2200 87 146 142 144 148
2201 87 152 149 151 154
2202 87 152 149 151 155
2203 87 153 149 151 154
2204 87 153 149 151 155
2205 87 159 156 158 161
2206 87 159 156 158 162
2207 87 160 156 158 161
2208 87 160 156 158 162
2209 87 166 163 165 168
2210 87 166 163 165 169
2211 87 167 163 165 168
2212 87 167 163 165 169
2213 87 173 170 172 175
2214 87 173 170 172 176
2215 87 174 170 172 175
2216 87 174 170 172 176
2217 87 180 177 179 182
2218 87 180 177 179 183
2219 87 181 177 179 182
2220 87 181 177 179 183
2221 87 187 184 186 189
2222 87 187 184 186 190
2223 87 188 184 186 189
2224 87 188 184 186 190
2225 87 194 191 193 196
2226 87 194 191 193 197
2227 87 195 191 193 196
2228 87 195 191 193 197
2229 87 201 198 200 203
2230 87 201 198 200 204
2231 87 202 198 200 203
2232 87 202 198 200 204
2233 87 208 205 207 210
2234 87 208 205 207 211
2235 87 209 205 207 210
2236 87 209 205 207 211
2237 87 215 212 214 217
2238 87 215 212 214 218
2239 87 216 212 214 217
2240 87 216 212 214 218
2241 87 222 219 221 224
2242 87 222 219 221 225
2243 87 223 219 221 224
2244 87 223 219 221 225
2245 87 229 226 228 231
2246 87 229 226 228 232
2247 87 230 226 228 231
2248 87 230 226 228 232
2249 87 236 233 235 238
2250 87 236 233 235 239
2251 87 237 233 235 238
2252 87 237 233 235 239
2253 87 243 240 242 245
2254 87 243 240 242 246
2255 87 244 240 242 245
2256 87 244 240 242 246
2257 87 250 247 249 252
2258 87 250 247 249 253
2259 87 251 247 249 252
2260 87 251 247 249 253
2261 87 257 254 256 259
2262 87 257 254 256 260
2263 87 258 254 256 259
2264 87 258 254 256 260
2265 87 264 261 263 266
2266 87 264 261 263 267
2267 87 265 261 263 266
2268 87 265 261 263 267
2269 87 271 268 270 273
2270 87 271 268 270 274
2271 87 272 268 270 273
2272 87 272 268 270 274
2273 87 278 275 277 280
2274 87 278 275 277 281
2275 87 279 275 277 280
2276 87 279 275 277 281
2277 87 285 282 284 287
2278 87 285 282 284 288
2279 87 286 282 284 287
2280 87 286 282 284 288
2281 87 292 289 291 294
2282 87 292 289 291 295
2283 87 293 289 291 294
2284 87 293 289 291 295
2285 87 299 296 298 301
2286 87 299 296 298 302
2287 87 300 296 298 301
2288 87 300 296 298 302
2289 87 306 303 305 308
2290 87 306 303 305 309
2291 87 307 303 305 308
2292 87 307 303 305 309
2293 87 313 310 312 315
2294 87 313 310 312 316
2295 87 314 310 312 315
2296 87 314 310 312 316
2297 87 320 317 319 322
2298 87 320 317 319 323
2299 87 321 317 319 322
2300 87 321 317 319 323
2301 87 327 324 326 329
2302 87 327 324 326 330
2303 87 328 324 326 329
2304 87 328 324 326 330
2305 87 334 331 333 336
2306 87 334 331 333 337
2307 87 335 331 333 336
2308 87 335 331 333 337
2309 87 341 338 340 343
2310 87 341 338 340 344
2311 87 342 338 340 343
2312 87 342 338 340 344
2313 87 364 361 363 366
2314 87 364 361 363 367
2315 87 365 361 363 366
2316 87 365 361 363 367
2317 87 371 368 370 373
2318 87 371 368 370 374
2319 87 372 368 370 373
2320 87 372 368 370 374
2321 87 378 375 377 380
2322 87 378 375 377 381
2323 87 379 375 377 380
2324 87 379 375 377 381
2325 87 385 382 384 387
2326 87 385 382 384 388
2327 87 386 382 384 387
2328 87 386 382 384 388
2329 87 392 389 391 394
2330 87 392 389 391 395
2331 87 393 389 391 394
2332 87 393 389 391 395
2333 87 399 396 398 401
2334 87 399 396 398 402
2335 87 400 396 398 401
2336 87 400 396 398 402
2337 87 406 403 405 408
2338 87 406 403 405 409
2339 87 407 403 405 408
2340 87 407 403 405 409
2341 87 413 410 412 415
2342 87 413 410 412 416
2343 87 414 410 412 415
2344 87 414 410 412 416
2345 87 420 417 419 422
2346 87 420 417 419 423
2347 87 421 417 419 422
2348 87 421 417 419 423
2349 87 427 424 426 429
2350 87 427 424 426 430
2351 87 428 424 426 429
2352 87 428 424 426 430
2353 87 434 431 433 436
2354 87 434 431 433 437
2355 87 435 431 433 436
2356 87 435 431 433 437
2357 87 441 438 440 443
2358 87 441 438 440 444
2359 87 442 438 440 443
2360 87 442 438 440 444
2361 87 448 445 447 450
2362 87 448 445 447 451
2363 87 449 445 447 450
2364 87 449 445 447 451
2365 87 455 452 454 457
2366 87 455 452 454 458
2367 87 456 452 454 457
2368 87 456 452 454 458
2369 87 462 459 461 464
2370 87 462 459 461 465
2371 87 463 459 461 464
2372 87 463 459 461 465
2373 87 469 466 468 471
2374 87 469 466 468 472
2375 87 470 466 468 471
2376 87 470 466 468 472
2377 87 476 473 475 478
2378 87 476 473 475 479
2379 87 477 473 475 478
2380 87 477 473 475 479
2381 87 483 480 482 485
2382 87 483 480 482 486
2383 87 484 480 482 485
2384 87 484 480 482 486
2385 87 490 487 489 492
2386 87 490 487 489 493
2387 87 491 487 489 492
2388 87 491 487 489 493
2389 87 497 494 496 499
2390 87 497 494 496 500
2391 87 498 494 496 499
2392 87 498 494 496 500
2393 87 504 501 503 506
2394 87 504 501 503 507
2395 87 505 501 503 506
2396 87 505 501 503 507
2397 87 511 508 510 513
2398 87 511 508 510 514
2399 87 512 508 510 513
2400 87 512 508 510 514
2401 87 518 515 517 520
2402 87 518 515 517 521
2403 87 519 515 517 520
2404 87 519 515 517 521
2405 87 525 522 524 527
2406 87 525 522 524 528
2407 87 526 522 524 527
2408 87 526 522 524 528
2409 87 532 529 531 534
2410 87 532 529 531 535
2411 87 533 529 531 534
2412 87 533 529 531 535
2413 87 539 536 538 541
2414 87 539 536 538 542
2415 87 540 536 538 541
2416 87 540 536 538 542
2417 87 546 543 545 548
2418 87 546 543 545 549
2419 87 547 543 545 548
2420 87 547 543 545 549
2421 87 553 550 552 555
2422 87 553 550 552 556
2423 87 554 550 552 555
2424 87 554 550 552 556
2425 87 560 557 559 562
2426 87 560 557 559 563
2427 87 561 557 559 562
2428 87 561 557 559 563
2429 87 567 564 566 569
2430 87 567 564 566 570
2431 87 568 564 566 569
2432 87 568 564 566 570
2433 87 574 571 573 576
2434 87 574 571 573 577
2435 87 575 571 573 576
2436 87 575 571 573 577
2437 87 581 578 580 583
2438 87 581 578 580 584
2439 87 582 578 580 583
2440 87 582 578 580 584
2441 87 588 585 587 590
2442 87 588 585 587 591
2443 87 589 585 587 590
2444 87 589 585 587 591
2445 87 595 592 594 597
2446 87 595 592 594 598
2447 87 596 592 594 597
2448 87 596 592 594 598
2449 87 602 599 601 604
2450 87 602 599 601 605
2451 87 603 599 601 604
2452 87 603 599 601 605
2453 87 609 606 608 611
2454 87 609 606 608 612
2455 87 610 606 608 611
2456 87 610 606 608 612
2457 87 616 613 615 618
2458 87 616 613 615 619
2459 87 617 613 615 618
2460 87 617 613 615 619
2461 87 623 620 622 625
2462 87 623 620 622 626
2463 87 624 620 622 625
2464 87 624 620 622 626
2465 87 630 627 629 632
2466 87 630 627 629 633
2467 87 631 627 629 632
2468 87 631 627 629 633
2469 87 637 634 636 639
2470 87 637 634 636 640
2471 87 638 634 636 639
2472 87 638 634 636 640
2473 87 644 641 643 646
2474 87 644 641 643 647
2475 87 645 641 643 646
2476 87 645 641 643 647
2477 87 651 648 650 653
2478 87 651 648 650 654
2479 87 652 648 650 653
2480 87 652 648 650 654
2481 87 658 655 657 660
2482 87 658 655 657 661
2483 87 659 655 657 660
2484 87 659 655 657 661
2485 87 665 662 664 667
2486 87 665 662 664 668
2487 87 666 662 664 667
2488 87 666 662 664 668
2489 87 672 669 671 674
2490 87 672 669 671 675
2491 87 673 669 671 674
2492 87 673 669 671 675
2493 87 679 676 678 681
2494 87 679 676 678 682
2495 87 680 676 678 681
2496 87 680 676 678 682
2497 87 686 683 685 688
2498 87 686 683 685 689
2499 87 687 683 685 688
2500 87 687 683 685 689
2501 87 693 690 692 695
2502 87 693 690 692 696
2503 87 694 690 692 695
2504 87 694 690 692 696
2505 87 716 713 715 718
2506 87 716 713 715 719
2507 87 717 713 715 718
2508 87 717 713 715 719
2509 87 723 720 722 725
2510 87 723 720 722 726
2511 87 724 720 722 725
2512 87 724 720 722 726
2513 87 730 727 729 732
2514 87 730 727 729 733
2515 87 731 727 729 732
2516 87 731 727 729 733
2517 87 737 734 736 739
2518 87 737 734 736 740
2519 87 738 734 736 739
2520 87 738 734 736 740
2521 87 744 741 743 746
2522 87 744 741 743 747
2523 87 745 741 743 746
2524 87 745 741 743 747
2525 87 751 748 750 753
2526 87 751 748 750 754
2527 87 752 748 750 753
2528 87 752 748 750 754
2529 87 758 755 757 760
2530 87 758 755 757 761
2531 87 759 755 757 760
2532 87 759 755 757 761
2533 87 765 762 764 767
2534 87 765 762 764 768
2535 87 766 762 764 767
2536 87 766 762 764 768
2537 87 772 769 771 774
2538 87 772 769 771 775
2539 87 773 769 771 774
2540 87 773 769 771 775
2541 87 779 776 778 781
2542 87 779 776 778 782
2543 87 780 776 778 781
2544 87 780 776 778 782
2545 87 786 783 785 788
2546 87 786 783 785 789
2547 87 787 783 785 788
2548 87 787 783 785 789
2549 87 793 790 792 795
2550 87 793 790 792 796
2551 87 794 790 792 795
2552 87 794 790 792 796
2553 87 800 797 799 802
2554 87 800 797 799 803
2555 87 801 797 799 802
2556 87 801 797 799 803
2557 87 807 804 806 809
2558 87 807 804 806 810
2559 87 808 804 806 809
2560 87 808 804 806 810
2561 87 814 811 813 816
2562 87 814 811 813 817
2563 87 815 811 813 816
2564 87 815 811 813 817
2565 87 821 818 820 823
2566 87 821 818 820 824
2567 87 822 818 820 823
2568 87 822 818 820 824
2569 87 828 825 827 830
2570 87 828 825 827 831
2571 87 829 825 827 830
2572 87 829 825 827 831
2573 87 835 832 834 837
2574 87 835 832 834 838
2575 87 836 832 834 837
2576 87 836 832 834 838
2577 87 842 839 841 844
2578 87 842 839 841 845
2579 87 843 839 841 844
2580 87 843 839 841 845
2581 87 849 846 848 851
2582 87 849 846 848 852
2583 87 850 846 848 851
2584 87 850 846 848 852
2585 87 856 853 855 858
2586 87 856 853 855 859
2587 87 857 853 855 858
2588 87 857 853 855 859
2589 87 863 860 862 865
2590 87 863 860 862 866
2591 87 864 860 862 865
2592 87 864 860 862 866
2593 87 870 867 869 872
2594 87 870 867 869 873
2595 87 871 867 869 872
2596 87 871 867 869 873
2597 87 877 874 876 879
2598 87 877 874 876 880
2599 87 878 874 876 879
2600 87 878 874 876 880
2601 87 884 881 883 886
2602 87 884 881 883 887
2603 87 885 881 883 886
2604 87 885 881 883 887
2605 87 891 888 890 893
2606 87 891 888 890 894
2607 87 892 888 890 893
2608 87 892 888 890 894
2609 87 898 895 897 900
2610 87 898 895 897 901
2611 87 899 895 897 900
2612 87 899 895 897 901
2613 87 905 902 904 907
2614 87 905 902 904 908
2615 87 906 902 904 907
2616 87 906 902 904 908
2617 87 912 909 911 914
2618 87 912 909 911 915
2619 87 913 909 911 914
2620 87 913 909 911 915
2621 87 919 916 918 921
2622 87 919 916 918 922
2623 87 920 916 918 921
2624 87 920 916 918 922
2625 87 926 923 925 928
2626 87 926 923 925 929
2627 87 927 923 925 928
2628 87 927 923 925 929
2629 87 933 930 932 935
2630 87 933 930 932 936
2631 87 934 930 932 935
2632 87 934 930 932 936
2633 87 940 937 939 942
2634 87 940 937 939 943
2635 87 941 937 939 942
2636 87 941 937 939 943
2637 87 947 944 946 949
2638 87 947 944 946 950
2639 87 948 944 946 949
2640 87 948 944 946 950
2641 87 954 951 953 956
2642 87 954 951 953 957
2643 87 955 951 953 956
2644 87 955 951 953 957
2645 87 961 958 960 963
2646 87 961 958 960 964
2647 87 962 958 960 963
2648 87 962 958 960 964
2649 87 968 965 967 970
2650 87 968 965 967 971
2651 87 969 965 967 970
2652 87 969 965 967 971
2653 87 975 972 974 977
2654 87 975 972 974 978
2655 87 976 972 974 977
2656 87 976 972 974 978
2657 87 982 979 981 984
2658 87 982 979 981 985
2659 87 983 979 981 984
2660 87 983 979 981 985
2661 87 989 986 988 991
2662 87 989 986 988 992
2663 87 990 986 988 991
2664 87 990 986 988 992
2665 87 996 993 995 998
2666 87 996 993 995 999
2667 87 997 993 995 998
2668 87 997 993 995 999
2669 87 1003 1000 1002 1005
2670 87 1003 1000 1002 1006
2671 87 1004 1000 1002 1005
2672 87 1004 1000 1002 1006
2673 87 1010 1007 1009 1012
2674 87 1010 1007 1009 1013
2675 87 1011 1007 1009 1012
2676 87 1011 1007 1009 1013
2677 87 1017 1014 1016 1019
2678 87 1017 1014 1016 1020
2679 87 1018 1014 1016 1019
2680 87 1018 1014 1016 1020
2681 87 1024 1021 1023 1026
2682 87 1024 1021 1023 1027
2683 87 1025 1021 1023 1026
2684 87 1025 1021 1023 1027
2685 87 1031 1028 1030 1033
2686 87 1031 1028 1030 1034
2687 87 1032 1028 1030 1033
2688 87 1032 1028 1030 1034
2689 87 1038 1035 1037 1040
2690 87 1038 1035 1037 1041
2691 87 1039 1035 1037 1040
2692 87 1039 1035 1037 1041
2693 87 1045 1042 1044 1047
2694 87 1045 1042 1044 1048
2695 87 1046 1042 1044 1047
2696 87 1046 1042 1044 1048
2697 87 1068 1065 1067 1070
2698 87 1068 1065 1067 1071
2699 87 1069 1065 1067 1070
2700 87 1069 1065 1067 1071
2701 87 1075 1072 1074 1077
2702 87 1075 1072 1074 1078
2703 87 1076 1072 1074 1077
2704 87 1076 1072 1074 1078
2705 87 1082 1079 1081 1084
2706 87 1082 1079 1081 1085
2707 87 1083 1079 1081 1084
2708 87 1083 1079 1081 1085
2709 87 1089 1086 1088 1091
2710 87 1089 1086 1088 1092
2711 87 1090 1086 1088 1091
2712 87 1090 1086 1088 1092
2713 87 1096 1093 1095 1098
2714 87 1096 1093 1095 1099
2715 87 1097 1093 1095 1098
2716 87 1097 1093 1095 1099
2717 87 1103 1100 1102 1105
2718 87 1103 1100 1102 1106
2719 87 1104 1100 1102 1105
2720 87 1104 1100 1102 1106
2721 87 1110 1107 1109 1112
2722 87 1110 1107 1109 1113
2723 87 1111 1107 1109 1112
2724 87 1111 1107 1109 1113
2725 87 1117 1114 1116 1119
2726 87 1117 1114 1116 1120
2727 87 1118 1114 1116 1119
2728 87 1118 1114 1116 1120
2729 87 1124 1121 1123 1126
2730 87 1124 1121 1123 1127
2731 87 1125 1121 1123 1126
2732 87 1125 1121 1123 1127
2733 87 1131 1128 1130 1133
2734 87 1131 1128 1130 1134
2735 87 1132 1128 1130 1133
2736 87 1132 1128 1130 1134
2737 87 1138 1135 1137 1140
2738 87 1138 1135 1137 1141
2739 87 1139 1135 1137 1140
2740 87 1139 1135 1137 1141
2741 87 1145 1142 1144 1147
2742 87 1145 1142 1144 1148
2743 87 1146 1142 1144 1147
2744 87 1146 1142 1144 1148
2745 87 1152 1149 1151 1154
2746 87 1152 1149 1151 1155
2747 87 1153 1149 1151 1154
2748 87 1153 1149 1151 1155
2749 87 1159 1156 1158 1161
2750 87 1159 1156 1158 1162
2751 87 1160 1156 1158 1161
2752 87 1160 1156 1158 1162
2753 87 1166 1163 1165 1168
2754 87 1166 1163 1165 1169
2755 87 1167 1163 1165 1168
2756 87 1167 1163 1165 1169
2757 87 1173 1170 1172 1175
2758 87 1173 1170 1172 1176
2759 87 1174 1170 1172 1175
2760 87 1174 1170 1172 1176
2761 87 1180 1177 1179 1182
2762 87 1180 1177 1179 1183
2763 87 1181 1177 1179 1182
2764 87 1181 1177 1179 1183
2765 87 1187 1184 1186 1189
2766 87 1187 1184 1186 1190
2767 87 1188 1184 1186 1189
2768 87 1188 1184 1186 1190
2769 87 1194 1191 1193 1196
2770 87 1194 1191 1193 1197
2771 87 1195 1191 1193 1196
2772 87 1195 1191 1193 1197
2773 87 1201 1198 1200 1203
2774 87 1201 1198 1200 1204
2775 87 1202 1198 1200 1203
2776 87 1202 1198 1200 1204
2777 87 1208 1205 1207 1210
2778 87 1208 1205 1207 1211
2779 87 1209 1205 1207 1210
2780 87 1209 1205 1207 1211
2781 87 1215 1212 1214 1217
2782 87 1215 1212 1214 1218
2783 87 1216 1212 1214 1217
2784 87 1216 1212 1214 1218
2785 87 1222 1219 1221 1224
2786 87 1222 1219 1221 1225
2787 87 1223 1219 1221 1224
2788 87 1223 1219 1221 1225
2789 87 1229 1226 1228 1231
2790 87 1229 1226 1228 1232
2791 87 1230 1226 1228 1231
2792 87 1230 1226 1228 1232
2793 87 1236 1233 1235 1238
2794 87 1236 1233 1235 1239
2795 87 1237 1233 1235 1238
2796 87 1237 1233 1235 1239
2797 87 1243 1240 1242 1245
2798 87 1243 1240 1242 1246
2799 87 1244 1240 1242 1245
2800 87 1244 1240 1242 1246
2801 87 1250 1247 1249 1252
2802 87 1250 1247 1249 1253
2803 87 1251 1247 1249 1252
2804 87 1251 1247 1249 1253
2805 87 1257 1254 1256 1259
2806 87 1257 1254 1256 1260
2807 87 1258 1254 1256 1259
2808 87 1258 1254 1256 1260
2809 87 1264 1261 1263 1266
2810 87 1264 1261 1263 1267
2811 87 1265 1261 1263 1266
2812 87 1265 1261 1263 1267
2813 87 1271 1268 1270 1273
2814 87 1271 1268 1270 1274
2815 87 1272 1268 1270 1273
2816 87 1272 1268 1270 1274
2817 87 1278 1275 1277 1280
2818 87 1278 1275 1277 1281
2819 87 1279 1275 1277 1280
2820 87 1279 1275 1277 1281
2821 87 1285 1282 1284 1287
2822 87 1285 1282 1284 1288
2823 87 1286 1282 1284 1287
2824 87 1286 1282 1284 1288
2825 87 1292 1289 1291 1294
2826 87 1292 1289 1291 1295
2827 87 1293 1289 1291 1294
2828 87 1293 1289 1291 1295
2829 87 1299 1296 1298 1301
2830 87 1299 1296 1298 1302
2831 87 1300 1296 1298 1301
2832 87 1300 1296 1298 1302
2833 87 1306 1303 1305 1308
2834 87 1306 1303 1305 1309
2835 87 1307 1303 1305 1308
2836 87 1307 1303 1305 1309
2837 87 1313 1310 1312 1315
2838 87 1313 1310 1312 1316
2839 87 1314 1310 1312 1315
2840 87 1314 1310 1312 1316
2841 87 1320 1317 1319 1322
2842 87 1320 1317 1319 1323
2843 87 1321 1317 1319 1322
2844 87 1321 1317 1319 1323
2845 87 1327 1324 1326 1329
2846 87 1327 1324 1326 1330
2847 87 1328 1324 1326 1329
2848 87 1328 1324 1326 1330
2849 87 1334 1331 1333 1336
2850 87 1334 1331 1333 1337
2851 87 1335 1331 1333 1336
2852 87 1335 1331 1333 1337
2853 87 1341 1338 1340 1343
2854 87 1341 1338 1340 1344
2855 87 1342 1338 1340 1343
2856 87 1342 1338 1340 1344
2857 87 1348 1345 1347 1350
2858 87 1348 1345 1347 1351
2859 87 1349 1345 1347 1350
2860 87 1349 1345 1347 1351
2861 87 1355 1352 1354 1357
2862 87 1355 1352 1354 1358
2863 87 1356 1352 1354 1357
2864 87 1356 1352 1354 1358
2865 87 1362 1359 1361 1364
2866 87 1362 1359 1361 1365
2867 87 1363 1359 1361 1364
2868 87 1363 1359 1361 1365
2869 87 1369 1366 1368 1371
2870 87 1369 1366 1368 1372
2871 87 1370 1366 1368 1371
2872 87 1370 1366 1368 1372
2873 87 1376 1373 1375 1378
2874 87 1376 1373 1375 1379
2875 87 1377 1373 1375 1378
2876 87 1377 1373 1375 1379
2877 87 1383 1380 1382 1385
2878 87 1383 1380 1382 1386
2879 87 1384 1380 1382 1385
2880 87 1384 1380 1382 1386
2881 87 1390 1387 1389 1392
2882 87 1390 1387 1389 1393
2883 87 1391 1387 1389 1392
2884 87 1391 1387 1389 1393
2885 87 1397 1394 1396 1399
2886 87 1397 1394 1396 1400
2887 87 1398 1394 1396 1399
2888 87 1398 1394 1396 1400
2889 87 1420 1417 1419 1422
2890 87 1420 1417 1419 1423
2891 87 1421 1417 1419 1422
2892 87 1421 1417 1419 1423
2893 87 1427 1424 1426 1429
2894 87 1427 1424 1426 1430
2895 87 1428 1424 1426 1429
2896 87 1428 1424 1426 1430
2897 87 1434 1431 1433 1436
2898 87 1434 1431 1433 1437
2899 87 1435 1431 1433 1436
2900 87 1435 1431 1433 1437
2901 87 1441 1438 1440 1443
2902 87 1441 1438 1440 1444
2903 87 1442 1438 1440 1443
2904 87 1442 1438 1440 1444
2905 87 1448 1445 1447 1450
2906 87 1448 1445 1447 1451
2907 87 1449 1445 1447 1450
2908 87 1449 1445 1447 1451
2909 87 1455 1452 1454 1457
2910 87 1455 1452 1454 1458
2911 87 1456 1452 1454 1457
2912 87 1456 1452 1454 1458
2913 87 1462 1459 1461 1464
2914 87 1462 1459 1461 1465
2915 87 1463 1459 1461 1464
2916 87 1463 1459 1461 1465
2917 87 1469 1466 1468 1471
2918 87 1469 1466 1468 1472
2919 87 1470 1466 1468 1471
2920 87 1470 1466 1468 1472
2921 87 1476 1473 1475 1478
2922 87 1476 1473 1475 1479
2923 87 1477 1473 1475 1478
2924 87 1477 1473 1475 1479
2925 87 1483 1480 1482 1485
2926 87 1483 1480 1482 1486
2927 87 1484 1480 1482 1485
2928 87 1484 1480 1482 1486
2929 87 1490 1487 1489 1492
2930 87 1490 1487 1489 1493
2931 87 1491 1487 1489 1492
2932 87 1491 1487 1489 1493
2933 87 1497 1494 1496 1499
2934 87 1497 1494 1496 1500
2935 87 1498 1494 1496 1499
2936 87 1498 1494 1496 1500
2937 87 1504 1501 1503 1506
2938 87 1504 1501 1503 1507
2939 87 1505 1501 1503 1506
2940 87 1505 1501 1503 1507
2941 87 1511 1508 1510 1513
2942 87 1511 1508 1510 1514
2943 87 1512 1508 1510 1513
2944 87 1512 1508 1510 1514
2945 87 1518 1515 1517 1520
2946 87 1518 1515 1517 1521
2947 87 1519 1515 1517 1520
2948 87 1519 1515 1517 1521
2949 87 1525 1522 1524 1527
2950 87 1525 1522 1524 1528
2951 87 1526 1522 1524 1527
2952 87 1526 1522 1524 1528
2953 87 1532 1529 1531 1534
2954 87 1532 1529 1531 1535
2955 87 1533 1529 1531 1534
2956 87 1533 1529 1531 1535
2957 87 1539 1536 1538 1541
2958 87 1539 1536 1538 1542
2959 87 1540 1536 1538 1541
2960 87 1540 1536 1538 1542
2961 87 1546 1543 1545 1548
2962 87 1546 1543 1545 1549
2963 87 1547 1543 1545 1548
2964 87 1547 1543 1545 1549
2965 87 1553 1550 1552 1555
2966 87 1553 1550 1552 1556
2967 87 1554 1550 1552 1555
2968 87 1554 1550 1552 1556
2969 87 1560 1557 1559 1562
2970 87 1560 1557 1559 1563
2971 87 1561 1557 1559 1562
2972 87 1561 1557 1559 1563
2973 87 1567 1564 1566 1569
2974 87 1567 1564 1566 1570
2975 87 1568 1564 1566 1569
2976 87 1568 1564 1566 1570
2977 87 1574 1571 1573 1576
2978 87 1574 1571 1573 1577
2979 87 1575 1571 1573 1576
2980 87 1575 1571 1573 1577
2981 87 1581 1578 1580 1583
2982 87 1581 1578 1580 1584
2983 87 1582 1578 1580 1583
2984 87 1582 1578 1580 1584
2985 87 1588 1585 1587 1590
2986 87 1588 1585 1587 1591
2987 87 1589 1585 1587 1590
2988 87 1589 1585 1587 1591
2989 87 1595 1592 1594 1597
2990 87 1595 1592 1594 1598
2991 87 1596 1592 1594 1597
2992 87 1596 1592 1594 1598
2993 87 1602 1599 1601 1604
2994 87 1602 1599 1601 1605
2995 87 1603 1599 1601 1604
2996 87 1603 1599 1601 1605
2997 87 1609 1606 1608 1611
2998 87 1609 1606 1608 1612
2999 87 1610 1606 1608 1611
3000 87 1610 1606 1608 1612
3001 87 1616 1613 1615 1618
3002 87 1616 1613 1615 1619
3003 87 1617 1613 1615 1618
3004 87 1617 1613 1615 1619
3005 87 1623 1620 1622 1625
3006 87 1623 1620 1622 1626
3007 87 1624 1620 1622 1625
3008 87 1624 1620 1622 1626
3009 87 1630 1627 1629 1632
3010 87 1630 1627 1629 1633
3011 87 1631 1627 1629 1632
3012 87 1631 1627 1629 1633
3013 87 1637 1634 1636 1639
3014 87 1637 1634 1636 1640
3015 87 1638 1634 1636 1639
3016 87 1638 1634 1636 1640
3017 87 1644 1641 1643 1646
3018 87 1644 1641 1643 1647
3019 87 1645 1641 1643 1646
3020 87 1645 1641 1643 1647
3021 87 1651 1648 1650 1653
3022 87 1651 1648 1650 1654
3023 87 1652 1648 1650 1653
3024 87 1652 1648 1650 1654
3025 87 1658 1655 1657 1660
3026 87 1658 1655 1657 1661
3027 87 1659 1655 1657 1660
3028 87 1659 1655 1657 1661
3029 87 1665 1662 1664 1667
3030 87 1665 1662 1664 1668
3031 87 1666 1662 1664 1667
3032 87 1666 1662 1664 1668
3033 87 1672 1669 1671 1674
3034 87 1672 1669 1671 1675
3035 87 1673 1669 1671 1674
3036 87 1673 1669 1671 1675
3037 87 1679 1676 1678 1681
3038 87 1679 1676 1678 1682
3039 87 1680 1676 1678 1681
3040 87 1680 1676 1678 1682
3041 87 1686 1683 1685 1688
3042 87 1686 1683 1685 1689
3043 87 1687 1683 1685 1688
3044 87 1687 1683 1685 1689
3045 87 1693 1690 1692 1695
3046 87 1693 1690 1692 1696
3047 87 1694 1690 1692 1695
3048 87 1694 1690 1692 1696
3049 87 1700 1697 1699 1702
3050 87 1700 1697 1699 1703
3051 87 1701 1697 1699 1702
3052 87 1701 1697 1699 1703
3053 87 1707 1704 1706 1709
3054 87 1707 1704 1706 1710
3055 87 1708 1704 1706 1709
3056 87 1708 1704 1706 1710
3057 87 1714 1711 1713 1716
3058 87 1714 1711 1713 1717
3059 87 1715 1711 1713 1716
3060 87 1715 1711 1713 1717
3061 87 1721 1718 1720 1723
3062 87 1721 1718 1720 1724
3063 87 1722 1718 1720 1723
3064 87 1722 1718 1720 1724
3065 87 1728 1725 1727 1730
3066 87 1728 1725 1727 1731
3067 87 1729 1725 1727 1730
3068 87 1729 1725 1727 1731
3069 87 1735 1732 1734 1737
3070 87 1735 1732 1734 1738
3071 87 1736 1732 1734 1737
3072 87 1736 1732 1734 1738
3073 87 1742 1739 1741 1744
3074 87 1742 1739 1741 1745
3075 87 1743 1739 1741 1744
3076 87 1743 1739 1741 1745
3077 87 1749 1746 1748 1751
3078 87 1749 1746 1748 1752
3079 87 1750 1746 1748 1751
3080 87 1750 1746 1748 1752
3081 87 1772 1769 1771 1774
3082 87 1772 1769 1771 1775
3083 87 1773 1769 1771 1774
3084 87 1773 1769 1771 1775
3085 87 1779 1776 1778 1781
3086 87 1779 1776 1778 1782
3087 87 1780 1776 1778 1781
3088 87 1780 1776 1778 1782
3089 87 1786 1783 1785 1788
3090 87 1786 1783 1785 1789
3091 87 1787 1783 1785 1788
3092 87 1787 1783 1785 1789
3093 87 1793 1790 1792 1795
3094 87 1793 1790 1792 1796
3095 87 1794 1790 1792 1795
3096 87 1794 1790 1792 1796
3097 87 1800 1797 1799 1802
3098 87 1800 1797 1799 1803
3099 87 1801 1797 1799 1802
3100 87 1801 1797 1799 1803
3101 87 1807 1804 1806 1809
3102 87 1807 1804 1806 1810
3103 87 1808 1804 1806 1809
3104 87 1808 1804 1806 1810
3105 87 1814 1811 1813 1816
3106 87 1814 1811 1813 1817
3107 87 1815 1811 1813 1816
3108 87 1815 1811 1813 1817
3109 87 1821 1818 1820 1823
3110 87 1821 1818 1820 1824
3111 87 1822 1818 1820 1823
3112 87 1822 1818 1820 1824
3113 87 1828 1825 1827 1830
3114 87 1828 1825 1827 1831
3115 87 1829 1825 1827 1830
3116 87 1829 1825 1827 1831
3117 87 1835 1832 1834 1837
3118 87 1835 1832 1834 1838
3119 87 1836 1832 1834 1837
3120 87 1836 1832 1834 1838
3121 87 1842 1839 1841 1844
3122 87 1842 1839 1841 1845
3123 87 1843 1839 1841 1844
3124 87 1843 1839 1841 1845
3125 87 1849 1846 1848 1851
3126 87 1849 1846 1848 1852
3127 87 1850 1846 1848 1851
3128 87 1850 1846 1848 1852
3129 87 1856 1853 1855 1858
3130 87 1856 1853 1855 1859
3131 87 1857 1853 1855 1858
3132 87 1857 1853 1855 1859
3133 87 1863 1860 1862 1865
3134 87 1863 1860 1862 1866
3135 87 1864 1860 1862 1865
3136 87 1864 1860 1862 1866
3137 87 1870 1867 1869 1872
3138 87 1870 1867 1869 1873
3139 87 1871 1867 1869 1872
3140 87 1871 1867 1869 1873
3141 87 1877 1874 1876 1879
3142 87 1877 1874 1876 1880
3143 87 1878 1874 1876 1879
3144 87 1878 1874 1876 1880
3145 87 1884 1881 1883 1886
3146 87 1884 1881 1883 1887
3147 87 1885 1881 1883 1886
3148 87 1885 1881 1883 1887
3149 87 1891 1888 1890 1893
3150 87 1891 1888 1890 1894
3151 87 1892 1888 1890 1893
3152 87 1892 1888 1890 1894
3153 87 1898 1895 1897 1900
3154 87 1898 1895 1897 1901
3155 87 1899 1895 1897 1900
3156 87 1899 1895 1897 1901
3157 87 1905 1902 1904 1907
3158 87 1905 1902 1904 1908
3159 87 1906 1902 1904 1907
3160 87 1906 1902 1904 1908
3161 87 1912 1909 1911 1914
3162 87 1912 1909 1911 1915
3163 87 1913 1909 1911 1914
3164 87 1913 1909 1911 1915
3165 87 1919 1916 1918 1921
3166 87 1919 1916 1918 1922
3167 87 1920 1916 1918 1921
3168 87 1920 1916 1918 1922
3169 87 1926 1923 1925 1928
3170 87 1926 1923 1925 1929
3171 87 1927 1923 1925 1928
3172 87 1927 1923 1925 1929
3173 87 1933 1930 1932 1935
3174 87 1933 1930 1932 1936
3175 87 1934 1930 1932 1935
3176 87 1934 1930 1932 1936
3177 87 1940 1937 1939 1942
3178 87 1940 1937 1939 1943
3179 87 1941 1937 1939 1942
3180 87 1941 1937 1939 1943
3181 87 1947 1944 1946 1949
3182 87 1947 1944 1946 1950
3183 87 1948 1944 1946 1949
3184 87 1948 1944 1946 1950
3185 87 1954 1951 1953 1956
3186 87 1954 1951 1953 1957
3187 87 1955 1951 1953 1956
3188 87 1955 1951 1953 1957
3189 87 1961 1958 1960 1963
3190 87 1961 1958 1960 1964
3191 87 1962 1958 1960 1963
3192 87 1962 1958 1960 1964
3193 87 1968 1965 1967 1970
3194 87 1968 1965 1967 1971
3195 87 1969 1965 1967 1970
3196 87 1969 1965 1967 1971
3197 87 1975 1972 1974 1977
3198 87 1975 1972 1974 1978
3199 87 1976 1972 1974 1977
3200 87 1976 1972 1974 1978
3201 87 1982 1979 1981 1984
3202 87 1982 1979 1981 1985
3203 87 1983 1979 1981 1984
3204 87 1983 1979 1981 1985
3205 87 1989 1986 1988 1991
3206 87 1989 1986 1988 1992
3207 87 1990 1986 1988 1991
3208 87 1990 1986 1988 1992
3209 87 1996 1993 1995 1998
3210 87 1996 1993 1995 1999
3211 87 1997 1993 1995 1998
3212 87 1997 1993 1995 1999
3213 87 2003 2000 2002 2005
3214 87 2003 2000 2002 2006
3215 87 2004 2000 2002 2005
3216 87 2004 2000 2002 2006
3217 87 2010 2007 2009 2012
3218 87 2010 2007 2009 2013
3219 87 2011 2007 2009 2012
3220 87 2011 2007 2009 2013
3221 87 2017 2014 2016 2019
3222 87 2017 2014 2016 2020
3223 87 2018 2014 2016 2019
3224 87 2018 2014 2016 2020
3225 87 2024 2021 2023 2026
3226 87 2024 2021 2023 2027
3227 87 2025 2021 2023 2026
3228 87 2025 2021 2023 2027
3229 87 2031 2028 2030 2033
3230 87 2031 2028 2030 2034
3231 87 2032 2028 2030 2033
3232 87 2032 2028 2030 2034
3233 87 2038 2035 2037 2040
3234 87 2038 2035 2037 2041
3235 87 2039 2035 2037 2040
3236 87 2039 2035 2037 2041
3237 87 2045 2042 2044 2047
3238 87 2045 2042 2044 2048
3239 87 2046 2042 2044 2047
3240 87 2046 2042 2044 2048
3241 87 2052 2049 2051 2054
3242 87 2052 2049 2051 2055
3243 87 2053 2049 2051 2054
3244 87 2053 2049 2051 2055
3245 87 2059 2056 2058 2061
3246 87 2059 2056 2058 2062
3247 87 2060 2056 2058 2061
3248 87 2060 2056 2058 2062
3249 87 2066 2063 2065 2068
3250 87 2066 2063 2065 2069
3251 87 2067 2063 2065 2068
3252 87 2067 2063 2065 2069
3253 87 2073 2070 2072 2075
3254 87 2073 2070 2072 2076
3255 87 2074 2070 2072 2075
3256 87 2074 2070 2072 2076
3257 87 2080 2077 2079 2082
3258 87 2080 2077 2079 2083
3259 87 2081 2077 2079 2082
3260 87 2081 2077 2079 2083
3261 87 2087 2084 2086 2089
3262 87 2087 2084 2086 2090
3263 87 2088 2084 2086 2089
3264 87 2088 2084 2086 2090
3265 87 2094 2091 2093 2096
3266 87 2094 2091 2093 2097
3267 87 2095 2091 2093 2096
3268 87 2095 2091 2093 2097
3269 87 2101 2098 2100 2103
3270 87 2101 2098 2100 2104
3271 87 2102 2098 2100 2103
3272 87 2102 2098 2100 2104
3273 87 2124 2121 2123 2126
3274 87 2124 2121 2123 2127
3275 87 2125 2121 2123 2126
3276 87 2125 2121 2123 2127
3277 87 2131 2128 2130 2133
3278 87 2131 2128 2130 2134
3279 87 2132 2128 2130 2133
3280 87 2132 2128 2130 2134
3281 87 2138 2135 2137 2140
3282 87 2138 2135 2137 2141
3283 87 2139 2135 2137 2140
3284 87 2139 2135 2137 2141
3285 87 2145 2142 2144 2147
3286 87 2145 2142 2144 2148
3287 87 2146 2142 2144 2147
3288 87 2146 2142 2144 2148
3289 87 2152 2149 2151 2154
3290 87 2152 2149 2151 2155
3291 87 2153 2149 2151 2154
3292 87 2153 2149 2151 2155
3293 87 2159 2156 2158 2161
3294 87 2159 2156 2158 2162
3295 87 2160 2156 2158 2161
3296 87 2160 2156 2158 2162
3297 87 2166 2163 2165 2168
3298 87 2166 2163 2165 2169
3299 87 2167 2163 2165 2168
3300 87 2167 2163 2165 2169
3301 87 2173 2170 2172 2175
3302 87 2173 2170 2172 2176
3303 87 2174 2170 2172 2175
3304 87 2174 2170 2172 2176
3305 87 2180 2177 2179 2182
3306 87 2180 2177 2179 2183
3307 87 2181 2177 2179 2182
3308 87 2181 2177 2179 2183
3309 87 2187 2184 2186 2189
3310 87 2187 2184 2186 2190
3311 87 2188 2184 2186 2189
3312 87 2188 2184 2186 2190
3313 87 2194 2191 2193 2196
3314 87 2194 2191 2193 2197
3315 87 2195 2191 2193 2196
3316 87 2195 2191 2193 2197
3317 87 2201 2198 2200 2203
3318 87 2201 2198 2200 2204
3319 87 2202 2198 2200 2203
3320 87 2202 2198 2200 2204
3321 87 2208 2205 2207 2210
3322 87 2208 2205 2207 2211
3323 87 2209 2205 2207 2210
3324 87 2209 2205 2207 2211
3325 87 2215 2212 2214 2217
3326 87 2215 2212 2214 2218
3327 87 2216 2212 2214 2217
3328 87 2216 2212 2214 2218
3329 87 2222 2219 2221 2224
3330 87 2222 2219 2221 2225
3331 87 2223 2219 2221 2224
3332 87 2223 2219 2221 2225
3333 87 2229 2226 2228 2231
3334 87 2229 2226 2228 2232
3335 87 2230 2226 2228 2231
3336 87 2230 2226 2228 2232
3337 87 2236 2233 2235 2238
3338 87 2236 2233 2235 2239
3339 87 2237 2233 2235 2238
3340 87 2237 2233 2235 2239
3341 87 2243 2240 2242 2245
3342 87 2243 2240 2242 2246
3343 87 2244 2240 2242 2245
3344 87 2244 2240 2242 2246
3345 87 2250 2247 2249 2252
3346 87 2250 2247 2249 2253
3347 87 2251 2247 2249 2252
3348 87 2251 2247 2249 2253
3349 87 2257 2254 2256 2259
3350 87 2257 2254 2256 2260
3351 87 2258 2254 2256 2259
3352 87 2258 2254 2256 2260
3353 87 2264 2261 2263 2266
3354 87 2264 2261 2263 2267
3355 87 2265 2261 2263 2266
3356 87 2265 2261 2263 2267
3357 87 2271 2268 2270 2273
3358 87 2271 2268 2270 2274
3359 87 2272 2268 2270 2273
3360 87 2272 2268 2270 2274
3361 87 2278 2275 2277 2280
3362 87 2278 2275 2277 2281
3363 87 2279 2275 2277 2280
3364 87 2279 2275 2277 2281
3365 87 2285 2282 2284 2287
3366 87 2285 2282 2284 2288
3367 87 2286 2282 2284 2287
3368 87 2286 2282 2284 2288
3369 87 2292 2289 2291 2294
3370 87 2292 2289 2291 2295
3371 87 2293 2289 2291 2294
3372 87 2293 2289 2291 2295
3373 87 2299 2296 2298 2301
3374 87 2299 2296 2298 2302
3375 87 2300 2296 2298 2301
3376 87 2300 2296 2298 2302
3377 87 2306 2303 2305 2308
3378 87 2306 2303 2305 2309
3379 87 2307 2303 2305 2308
3380 87 2307 2303 2305 2309
3381 87 2313 2310 2312 2315
3382 87 2313 2310 2312 2316
3383 87 2314 2310 2312 2315
3384 87 2314 2310 2312 2316
3385 87 2320 2317 2319 2322
3386 87 2320 2317 2319 2323
3387 87 2321 2317 2319 2322
3388 87 2321 2317 2319 2323
3389 87 2327 2324 2326 2329
3390 87 2327 2324 2326 2330
3391 87 2328 2324 2326 2329
3392 87 2328 2324 2326 2330
3393 87 2334 2331 2333 2336
3394 87 2334 2331 2333 2337
3395 87 2335 2331 2333 2336
3396 87 2335 2331 2333 2337
3397 87 2341 2338 2340 2343
3398 87 2341 2338 2340 2344
3399 87 2342 2338 2340 2343
3400 87 2342 2338 2340 2344
3401 87 2348 2345 2347 2350
3402 87 2348 2345 2347 2351
3403 87 2349 2345 2347 2350
3404 87 2349 2345 2347 2351
3405 87 2355 2352 2354 2357
3406 87 2355 2352 2354 2358
3407 87 2356 2352 2354 2357
3408 87 2356 2352 2354 2358
3409 87 2362 2359 2361 2364
3410 87 2362 2359 2361 2365
3411 87 2363 2359 2361 2364
3412 87 2363 2359 2361 2365
3413 87 2369 2366 2368 2371
3414 87 2369 2366 2368 2372
3415 87 2370 2366 2368 2371
3416 87 2370 2366 2368 2372
3417 87 2376 2373 2375 2378
3418 87 2376 2373 2375 2379
3419 87 2377 2373 2375 2378
3420 87 2377 2373 2375 2379
3421 87 2383 2380 2382 2385
3422 87 2383 2380 2382 2386
3423 87 2384 2380 2382 2385
3424 87 2384 2380 2382 2386
3425 87 2390 2387 2389 2392
3426 87 2390 2387 2389 2393
3427 87 2391 2387 2389 2392
3428 87 2391 2387 2389 2393
3429 87 2397 2394 2396 2399
3430 87 2397 2394 2396 2400
3431 87 2398 2394 2396 2399
3432 87 2398 2394 2396 2400
3433 87 2404 2401 2403 2406
3434 87 2404 2401 2403 2407
3435 87 2405 2401 2403 2406
3436 87 2405 2401 2403 2407
3437 87 2411 2408 2410 2413
3438 87 2411 2408 2410 2414
3439 87 2412 2408 2410 2413
3440 87 2412 2408 2410 2414
3441 87 2418 2415 2417 2420
3442 87 2418 2415 2417 2421
3443 87 2419 2415 2417 2420
3444 87 2419 2415 2417 2421
3445 87 2425 2422 2424 2427
3446 87 2425 2422 2424 2428
3447 87 2426 2422 2424 2427
3448 87 2426 2422 2424 2428
3449 87 2432 2429 2431 2434
3450 87 2432 2429 2431 2435
3451 87 2433 2429 2431 2434
3452 87 2433 2429 2431 2435
3453 87 2439 2436 2438 2441
3454 87 2439 2436 2438 2442
3455 87 2440 2436 2438 2441
3456 87 2440 2436 2438 2442
3457 87 2446 2443 2445 2448
3458 87 2446 2443 2445 2449
3459 87 2447 2443 2445 2448
3460 87 2447 2443 2445 2449
3461 87 2453 2450 2452 2455
3462 87 2453 2450 2452 2456
3463 87 2454 2450 2452 2455
3464 87 2454 2450 2452 2456
3465 87 2476 2473 2475 2478
3466 87 2476 2473 2475 2479
3467 87 2477 2473 2475 2478
3468 87 2477 2473 2475 2479
3469 87 2483 2480 2482 2485
3470 87 2483 2480 2482 2486
3471 87 2484 2480 2482 2485
3472 87 2484 2480 2482 2486
3473 87 2490 2487 2489 2492
3474 87 2490 2487 2489 2493
3475 87 2491 2487 2489 2492
3476 87 2491 2487 2489 2493
3477 87 2497 2494 2496 2499
3478 87 2497 2494 2496 2500
3479 87 2498 2494 2496 2499
3480 87 2498 2494 2496 2500
3481 87 2504 2501 2503 2506
3482 87 2504 2501 2503 2507
3483 87 2505 2501 2503 2506
3484 87 2505 2501 2503 2507
3485 87 2511 2508 2510 2513
3486 87 2511 2508 2510 2514
3487 87 2512 2508 2510 2513
3488 87 2512 2508 2510 2514
3489 87 2518 2515 2517 2520
3490 87 2518 2515 2517 2521
3491 87 2519 2515 2517 2520
3492 87 2519 2515 2517 2521
3493 87 2525 2522 2524 2527
3494 87 2525 2522 2524 2528
3495 87 2526 2522 2524 2527
3496 87 2526 2522 2524 2528
3497 87 2532 2529 2531 2534
3498 87 2532 2529 2531 2535
3499 87 2533 2529 2531 2534
3500 87 2533 2529 2531 2535
3501 87 2539 2536 2538 2541
3502 87 2539 2536 2538 2542
3503 87 2540 2536 2538 2541
3504 87 2540 2536 2538 2542
3505 87 2546 2543 2545 2548
3506 87 2546 2543 2545 2549
3507 87 2547 2543 2545 2548
3508 87 2547 2543 2545 2549
3509 87 2553 2550 2552 2555
3510 87 2553 2550 2552 2556
3511 87 2554 2550 2552 2555
3512 87 2554 2550 2552 2556
3513 87 2560 2557 2559 2562
3514 87 2560 2557 2559 2563
3515 87 2561 2557 2559 2562
3516 87 2561 2557 2559 2563
3517 87 2567 2564 2566 2569
3518 87 2567 2564 2566 2570
3519 87 2568 2564 2566 2569
3520 87 2568 2564 2566 2570
3521 87 2574 2571 2573 2576
3522 87 2574 2571 2573 2577
3523 87 2575 2571 2573 2576
3524 87 2575 2571 2573 2577
3525 87 2581 2578 2580 2583
3526 87 2581 2578 2580 2584
3527 87 2582 2578 2580 2583
3528 87 2582 2578 2580 2584
3529 87 2588 2585 2587 2590
3530 87 2588 2585 2587 2591
3531 87 2589 2585 2587 2590
3532 87 2589 2585 2587 2591
3533 87 2595 2592 2594 2597
3534 87 2595 2592 2594 2598
3535 87 2596 2592 2594 2597
3536 87 2596 2592 2594 2598
3537 87 2602 2599 2601 2604
3538 87 2602 2599 2601 2605
3539 87 2603 2599 2601 2604
3540 87 2603 2599 2601 2605
3541 87 2609 2606 2608 2611
3542 87 2609 2606 2608 2612
3543 87 2610 2606 2608 2611
3544 87 2610 2606 2608 2612
3545 87 2616 2613 2615 2618
3546 87 2616 2613 2615 2619
3547 87 2617 2613 2615 2618
3548 87 2617 2613 2615 2619
3549 87 2623 2620 2622 2625
3550 87 2623 2620 2622 2626
3551 87 2624 2620 2622 2625
3552 87 2624 2620 2622 2626
3553 87 2630 2627 2629 2632
3554 87 2630 2627 2629 2633
3555 87 2631 2627 2629 2632
3556 87 2631 2627 2629 2633
3557 87 2637 2634 2636 2639
3558 87 2637 2634 2636 2640
3559 87 2638 2634 2636 2639
3560 87 2638 2634 2636 2640
3561 87 2644 2641 2643 2646
3562 87 2644 2641 2643 2647
3563 87 2645 2641 2643 2646
3564 87 2645 2641 2643 2647
3565 87 2651 2648 2650 2653
3566 87 2651 2648 2650 2654
3567 87 2652 2648 2650 2653
3568 87 2652 2648 2650 2654
3569 87 2658 2655 2657 2660
3570 87 2658 2655 2657 2661
3571 87 2659 2655 2657 2660
3572 87 2659 2655 2657 2661
3573 87 2665 2662 2664 2667
3574 87 2665 2662 2664 2668
3575 87 2666 2662 2664 2667
3576 87 2666 2662 2664 2668
3577 87 2672 2669 2671 2674
3578 87 2672 2669 2671 2675
3579 87 2673 2669 2671 2674
3580 87 2673 2669 2671 2675
3581 87 2679 2676 2678 2681
3582 87 2679 2676 2678 2682
3583 87 2680 2676 2678 2681
3584 87 2680 2676 2678 2682
3585 87 2686 2683 2685 2688
3586 87 2686 2683 2685 2689
3587 87 2687 2683 2685 2688
3588 87 2687 2683 2685 2689
3589 87 2693 2690 2692 2695
3590 87 2693 2690 2692 2696
3591 87 2694 2690 2692 2695
3592 87 2694 2690 2692 2696
3593 87 2700 2697 2699 2702
3594 87 2700 2697 2699 2703
3595 87 2701 2697 2699 2702
3596 87 2701 2697 2699 2703
3597 87 2707 2704 2706 2709
3598 87 2707 2704 2706 2710
3599 87 2708 2704 2706 2709
3600 87 2708 2704 2706 2710
3601 87 2714 2711 2713 2716
3602 87 2714 2711 2713 2717
3603 87 2715 2711 2713 2716
3604 87 2715 2711 2713 2717
3605 87 2721 2718 2720 2723
3606 87 2721 2718 2720 2724
3607 87 2722 2718 2720 2723
3608 87 2722 2718 2720 2724
3609 87 2728 2725 2727 2730
3610 87 2728 2725 2727 2731
3611 87 2729 2725 2727 2730
3612 87 2729 2725 2727 2731
3613 87 2735 2732 2734 2737
3614 87 2735 2732 2734 2738
3615 87 2736 2732 2734 2737
3616 87 2736 2732 2734 2738
3617 87 2742 2739 2741 2744
3618 87 2742 2739 2741 2745
3619 87 2743 2739 2741 2744
3620 87 2743 2739 2741 2745
3621 87 2749 2746 2748 2751
3622 87 2749 2746 2748 2752
3623 87 2750 2746 2748 2751
3624 87 2750 2746 2748 2752
3625 87 2756 2753 2755 2758
3626 87 2756 2753 2755 2759
3627 87 2757 2753 2755 2758
3628 87 2757 2753 2755 2759
3629 87 2763 2760 2762 2765
3630 87 2763 2760 2762 2766
3631 87 2764 2760 2762 2765
3632 87 2764 2760 2762 2766
3633 87 2770 2767 2769 2772
3634 87 2770 2767 2769 2773
3635 87 2771 2767 2769 2772
3636 87 2771 2767 2769 2773
3637 87 2777 2774 2776 2779
3638 87 2777 2774 2776 2780
3639 87 2778 2774 2776 2779
3640 87 2778 2774 2776 2780
3641 87 2784 2781 2783 2786
3642 87 2784 2781 2783 2787
3643 87 2785 2781 2783 2786
3644 87 2785 2781 2783 2787
3645 87 2791 2788 2790 2793
3646 87 2791 2788 2790 2794
3647 87 2792 2788 2790 2793
3648 87 2792 2788 2790 2794
3649 87 2798 2795 2797 2800
3650 87 2798 2795 2797 2801
3651 87 2799 2795 2797 2800
3652 87 2799 2795 2797 2801
3653 87 2805 2802 2804 2807
3654 87 2805 2802 2804 2808
3655 87 2806 2802 2804 2807
3656 87 2806 2802 2804 2808
3657 87 2828 2825 2827 2830
3658 87 2828 2825 2827 2831
3659 87 2829 2825 2827 2830
3660 87 2829 2825 2827 2831
3661 87 2835 2832 2834 2837
3662 87 2835 2832 2834 2838
3663 87 2836 2832 2834 2837
3664 87 2836 2832 2834 2838
3665 87 2842 2839 2841 2844
3666 87 2842 2839 2841 2845
3667 87 2843 2839 2841 2844
3668 87 2843 2839 2841 2845
3669 87 2849 2846 2848 2851
3670 87 2849 2846 2848 2852
3671 87 2850 2846 2848 2851
3672 87 2850 2846 2848 2852
3673 87 2856 2853 2855 2858
3674 87 2856 2853 2855 2859
3675 87 2857 2853 2855 2858
3676 87 2857 2853 2855 2859
3677 87 2863 2860 2862 2865
3678 87 2863 2860 2862 2866
3679 87 2864 2860 2862 2865
3680 87 2864 2860 2862 2866
3681 87 2870 2867 2869 2872
3682 87 2870 2867 2869 2873
3683 87 2871 2867 2869 2872
3684 87 2871 2867 2869 2873
3685 87 2877 2874 2876 2879
3686 87 2877 2874 2876 2880
3687 87 2878 2874 2876 2879
3688 87 2878 2874 2876 2880
3689 87 2884 2881 2883 2886
3690 87 2884 2881 2883 2887
3691 87 2885 2881 2883 2886
3692 87 2885 2881 2883 2887
3693 87 2891 2888 2890 2893
3694 87 2891 2888 2890 2894
3695 87 2892 2888 2890 2893
3696 87 2892 2888 2890 2894
3697 87 2898 2895 2897 2900
3698 87 2898 2895 2897 2901
3699 87 2899 2895 2897 2900
3700 87 2899 2895 2897 2901
3701 87 2905 2902 2904 2907
3702 87 2905 2902 2904 2908
3703 87 2906 2902 2904 2907
3704 87 2906 2902 2904 2908
3705 87 2912 2909 2911 2914
3706 87 2912 2909 2911 2915
3707 87 2913 2909 2911 2914
3708 87 2913 2909 2911 2915
3709 87 2919 2916 2918 2921
3710 87 2919 2916 2918 2922
3711 87 2920 2916 2918 2921
3712 87 2920 2916 2918 2922
3713 87 2926 2923 2925 2928
3714 87 2926 2923 2925 2929
3715 87 2927 2923 2925 2928
3716 87 2927 2923 2925 2929
3717 87 2933 2930 2932 2935
3718 87 2933 2930 2932 2936
3719 87 2934 2930 2932 2935
3720 87 2934 2930 2932 2936
3721 87 2940 2937 2939 2942
3722 87 2940 2937 2939 2943
3723 87 2941 2937 2939 2942
3724 87 2941 2937 2939 2943
3725 87 2947 2944 2946 2949
3726 87 2947 2944 2946 2950
3727 87 2948 2944 2946 2949
3728 87 2948 2944 2946 2950
3729 87 2954 2951 2953 2956
3730 87 2954 2951 2953 2957
3731 87 2955 2951 2953 2956
3732 87 2955 2951 2953 2957
3733 87 2961 2958 2960 2963
3734 87 2961 2958 2960 2964
3735 87 2962 2958 2960 2963
3736 87 2962 2958 2960 2964
3737 87 2968 2965 2967 2970
3738 87 2968 2965 2967 2971
3739 87 2969 2965 2967 2970
3740 87 2969 2965 2967 2971
3741 87 2975 2972 2974 2977
3742 87 2975 2972 2974 2978
3743 87 2976 2972 2974 2977
3744 87 2976 2972 2974 2978
3745 87 2982 2979 2981 2984
3746 87 2982 2979 2981 2985
3747 87 2983 2979 2981 2984
3748 87 2983 2979 2981 2985
3749 87 2989 2986 2988 2991
3750 87 2989 2986 2988 2992
3751 87 2990 2986 2988 2991
3752 87 2990 2986 2988 2992
3753 87 2996 2993 2995 2998
3754 87 2996 2993 2995 2999
3755 87 2997 2993 2995 2998
3756 87 2997 2993 2995 2999
3757 87 3003 3000 3002 3005
3758 87 3003 3000 3002 3006
3759 87 3004 3000 3002 3005
3760 87 3004 3000 3002 3006
3761 87 3010 3007 3009 3012
3762 87 3010 3007 3009 3013
3763 87 3011 3007 3009 3012
3764 87 3011 3007 3009 3013
3765 87 3017 3014 3016 3019
3766 87 3017 3014 3016 3020
3767 87 3018 3014 3016 3019
3768 87 3018 3014 3016 3020
3769 87 3024 3021 3023 3026
3770 87 3024 3021 3023 3027
3771 87 3025 3021 3023 3026
3772 87 3025 3021 3023 3027
3773 87 3031 3028 3030 3033
3774 87 3031 3028 3030 3034
3775 87 3032 3028 3030 3033
3776 87 3032 3028 3030 3034
3777 87 3038 3035 3037 3040
3778 87 3038 3035 3037 3041
3779 87 3039 3035 3037 3040
3780 87 3039 3035 3037 3041
3781 87 3045 3042 3044 3047
3782 87 3045 3042 3044 3048
3783 87 3046 3042 3044 3047
3784 87 3046 3042 3044 3048
3785 87 3052 3049 3051 3054
3786 87 3052 3049 3051 3055
3787 87 3053 3049 3051 3054
3788 87 3053 3049 3051 3055
3789 87 3059 3056 3058 3061
3790 87 3059 3056 3058 3062
3791 87 3060 3056 3058 3061
3792 87 3060 3056 3058 3062
3793 87 3066 3063 3065 3068
3794 87 3066 3063 3065 3069
3795 87 3067 3063 3065 3068
3796 87 3067 3063 3065 3069
3797 87 3073 3070 3072 3075
3798 87 3073 3070 3072 3076
3799 87 3074 3070 3072 3075
3800 87 3074 3070 3072 3076
3801 87 3080 3077 3079 3082
3802 87 3080 3077 3079 3083
3803 87 3081 3077 3079 3082
3804 87 3081 3077 3079 3083
3805 87 3087 3084 3086 3089
3806 87 3087 3084 3086 3090
3807 87 3088 3084 3086 3089
3808 87 3088 3084 3086 3090
3809 87 3094 3091 3093 3096
3810 87 3094 3091 3093 3097
3811 87 3095 3091 3093 3096
3812 87 3095 3091 3093 3097
3813 87 3101 3098 3100 3103
3814 87 3101 3098 3100 3104
3815 87 3102 3098 3100 3103
3816 87 3102 3098 3100 3104
3817 87 3108 3105 3107 3110
3818 87 3108 3105 3107 3111
3819 87 3109 3105 3107 3110
3820 87 3109 3105 3107 3111
3821 87 3115 3112 3114 3117
3822 87 3115 3112 3114 3118
3823 87 3116 3112 3114 3117
3824 87 3116 3112 3114 3118
3825 87 3122 3119 3121 3124
3826 87 3122 3119 3121 3125
3827 87 3123 3119 3121 3124
3828 87 3123 3119 3121 3125
3829 87 3129 3126 3128 3131
3830 87 3129 3126 3128 3132
3831 87 3130 3126 3128 3131
3832 87 3130 3126 3128 3132
3833 87 3136 3133 3135 3138
3834 87 3136 3133 3135 3139
3835 87 3137 3133 3135 3138
3836 87 3137 3133 3135 3139
3837 87 3143 3140 3142 3145
3838 87 3143 3140 3142 3146
3839 87 3144 3140 3142 3145
3840 87 3144 3140 3142 3146
3841 87 3150 3147 3149 3152
3842 87 3150 3147 3149 3153
3843 87 3151 3147 3149 3152
3844 87 3151 3147 3149 3153
3845 87 3157 3154 3156 3159
3846 87 3157 3154 3156 3160
3847 87 3158 3154 3156 3159
3848 87 3158 3154 3156 3160
3849 87 3180 3177 3179 3182
3850 87 3180 3177 3179 3183
3851 87 3181 3177 3179 3182
3852 87 3181 3177 3179 3183
3853 87 3187 3184 3186 3189
3854 87 3187 3184 3186 3190
3855 87 3188 3184 3186 3189
3856 87 3188 3184 3186 3190
3857 87 3194 3191 3193 3196
3858 87 3194 3191 3193 3197
3859 87 3195 3191 3193 3196
3860 87 3195 3191 3193 3197
3861 87 3201 3198 3200 3203
3862 87 3201 3198 3200 3204
3863 87 3202 3198 3200 3203
3864 87 3202 3198 3200 3204
3865 87 3208 3205 3207 3210
3866 87 3208 3205 3207 3211
3867 87 3209 3205 3207 3210
3868 87 3209 3205 3207 3211
3869 87 3215 3212 3214 3217
3870 87 3215 3212 3214 3218
3871 87 3216 3212 3214 3217
3872 87 3216 3212 3214 3218
3873 87 3222 3219 3221 3224
3874 87 3222 3219 3221 3225
3875 87 3223 3219 3221 3224
3876 87 3223 3219 3221 3225
3877 87 3229 3226 3228 3231
3878 87 3229 3226 3228 3232
3879 87 3230 3226 3228 3231
3880 87 3230 3226 3228 3232
3881 87 3236 3233 3235 3238
3882 87 3236 3233 3235 3239
3883 87 3237 3233 3235 3238
3884 87 3237 3233 3235 3239
3885 87 3243 3240 3242 3245
3886 87 3243 3240 3242 3246
3887 87 3244 3240 3242 3245
3888 87 3244 3240 3242 3246
3889 87 3250 3247 3249 3252
3890 87 3250 3247 3249 3253
3891 87 3251 3247 3249 3252
3892 87 3251 3247 3249 3253
3893 87 3257 3254 3256 3259
3894 87 3257 3254 3256 3260
3895 87 3258 3254 3256 3259
3896 87 3258 3254 3256 3260
3897 87 3264 3261 3263 3266
3898 87 3264 3261 3263 3267
3899 87 3265 3261 3263 3266
3900 87 3265 3261 3263 3267
3901 87 3271 3268 3270 3273
3902 87 3271 3268 3270 3274
3903 87 3272 3268 3270 3273
3904 87 3272 3268 3270 3274
3905 87 3278 3275 3277 3280
3906 87 3278 3275 3277 3281
3907 87 3279 3275 3277 3280
3908 87 3279 3275 3277 3281
3909 87 3285 3282 3284 3287
3910 87 3285 3282 3284 3288
3911 87 3286 3282 3284 3287
3912 87 3286 3282 3284 3288
3913 87 3292 3289 3291 3294
3914 87 3292 3289 3291 3295
3915 87 3293 3289 3291 3294
3916 87 3293 3289 3291 3295
3917 87 3299 3296 3298 3301
3918 87 3299 3296 3298 3302
3919 87 3300 3296 3298 3301
3920 87 3300 3296 3298 3302
3921 87 3306 3303 3305 3308
3922 87 3306 3303 3305 3309
3923 87 3307 3303 3305 3308
3924 87 3307 3303 3305 3309
3925 87 3313 3310 3312 3315
3926 87 3313 3310 3312 3316
3927 87 3314 3310 3312 3315
3928 87 3314 3310 3312 3316
3929 87 3320 3317 3319 3322
3930 87 3320 3317 3319 3323
3931 87 3321 3317 3319 3322
3932 87 3321 3317 3319 3323
3933 87 3327 3324 3326 3329
3934 87 3327 3324 3326 3330
3935 87 3328 3324 3326 3329
3936 87 3328 3324 3326 3330
3937 87 3334 3331 3333 3336
3938 87 3334 3331 3333 3337
3939 87 3335 3331 3333 3336
3940 87 3335 3331 3333 3337
3941 87 3341 3338 3340 3343
3942 87 3341 3338 3340 3344
3943 87 3342 3338 3340 3343
3944 87 3342 3338 3340 3344
3945 87 3348 3345 3347 3350
3946 87 3348 3345 3347 3351
3947 87 3349 3345 3347 3350
3948 87 3349 3345 3347 3351
3949 87 3355 3352 3354 3357
3950 87 3355 3352 3354 3358
3951 87 3356 3352 3354 3357
3952 87 3356 3352 3354 3358
3953 87 3362 3359 3361 3364
3954 87 3362 3359 3361 3365
3955 87 3363 3359 3361 3364
3956 87 3363 3359 3361 3365
3957 87 3369 3366 3368 3371
3958 87 3369 3366 3368 3372
3959 87 3370 3366 3368 3371
3960 87 3370 3366 3368 3372
3961 87 3376 3373 3375 3378
3962 87 3376 3373 3375 3379
3963 87 3377 3373 3375 3378
3964 87 3377 3373 3375 3379
3965 87 3383 3380 3382 3385
3966 87 3383 3380 3382 3386
3967 87 3384 3380 3382 3385
3968 87 3384 3380 3382 3386
3969 87 3390 3387 3389 3392
3970 87 3390 3387 3389 3393
3971 87 3391 3387 3389 3392
3972 87 3391 3387 3389 3393
3973 87 3397 3394 3396 3399
3974 87 3397 3394 3396 3400
3975 87 3398 3394 3396 3399
3976 87 3398 3394 3396 3400
3977 87 3404 3401 3403 3406
3978 87 3404 3401 3403 3407
3979 87 3405 3401 3403 3406
3980 87 3405 3401 3403 3407
3981 87 3411 3408 3410 3413
3982 87 3411 3408 3410 3414
3983 87 3412 3408 3410 3413
3984 87 3412 3408 3410 3414
3985 87 3418 3415 3417 3420
3986 87 3418 3415 3417 3421
3987 87 3419 3415 3417 3420
3988 87 3419 3415 3417 3421
3989 87 3425 3422 3424 3427
3990 87 3425 3422 3424 3428
3991 87 3426 3422 3424 3427
3992 87 3426 3422 3424 3428
3993 87 3432 3429 3431 3434
3994 87 3432 3429 3431 3435
3995 87 3433 3429 3431 3434
3996 87 3433 3429 3431 3435
3997 87 3439 3436 3438 3441
3998 87 3439 3436 3438 3442
3999 87 3440 3436 3438 3441
4000 87 3440 3436 3438 3442
4001 87 3446 3443 3445 3448
4002 87 3446 3443 3445 3449
4003 87 3447 3443 3445 3448
4004 87 3447 3443 3445 3449
4005 87 3453 3450 3452 3455
4006 87 3453 3450 3452 3456
4007 87 3454 3450 3452 3455
4008 87 3454 3450 3452 3456
4009 87 3460 3457 3459 3462
4010 87 3460 3457 3459 3463
4011 87 3461 3457 3459 3462
4012 87 3461 3457 3459 3463
4013 87 3467 3464 3466 3469
4014 87 3467 3464 3466 3470
4015 87 3468 3464 3466 3469
4016 87 3468 3464 3466 3470
4017 87 3474 3471 3473 3476
4018 87 3474 3471 3473 3477
4019 87 3475 3471 3473 3476
4020 87 3475 3471 3473 3477
4021 87 3481 3478 3480 3483
4022 87 3481 3478 3480 3484
4023 87 3482 3478 3480 3483
4024 87 3482 3478 3480 3484
4025 87 3488 3485 3487 3490
4026 87 3488 3485 3487 3491
4027 87 3489 3485 3487 3490
4028 87 3489 3485 3487 3491
4029 87 3495 3492 3494 3497
4030 87 3495 3492 3494 3498
4031 87 3496 3492 3494 3497
4032 87 3496 3492 3494 3498
4033 87 3502 3499 3501 3504
4034 87 3502 3499 3501 3505
4035 87 3503 3499 3501 3504
4036 87 3503 3499 3501 3505
4037 87 3509 3506 3508 3511
4038 87 3509 3506 3508 3512
4039 87 3510 3506 3508 3511
4040 87 3510 3506 3508 3512

