LAMMPS Description

     4520  atoms
     4510  bonds
     9000  angles
     13410  dihedrals
     0  impropers

     4  atom types
     12  bond types
     39  angle types
     63  dihedral types

  -436.8376 436.8376 xlo xhi
  -436.8376 436.8376 ylo yhi
  -436.8376 436.8376 zlo zhi

Masses

    1 12.011 #CT "Alkane CH3-" 6 partial charge=-0.18
    2 12.011 #CT "Alkane -CH2-" 6 partial charge=-0.12
    3 12.011 #CT "Alkane >CH-" 6 partial charge=-0.06
    4 1.008 #HC "Alkane H-C" 1 partial charge=0.06

Atoms # full

1 1 1 -0.1800 -0.742 0.0 0.0
2 1 3 -0.0600 0.742 0.0 0.0
3 1 1 -0.1800 1.388 -0.424 1.258
4 1 4 0.0600 -1.219 -0.948 0.325
5 1 4 0.0600 -1.121 0.773 0.716
6 1 4 0.0600 -1.079 0.291 -1.017
7 1 4 0.0600 1.231 -0.292 -0.93
8 1 4 0.0600 2.311 0.202 1.4
9 1 4 0.0600 1.704 -1.499 1.29
10 1 4 0.0600 0.684 -0.259 2.096
11 1 2 -0.1200 2.74 0.0 0.0
12 1 3 -0.0600 4.228 0.0 0.0
13 1 1 -0.1800 4.872 1.276 -0.40700000000000003
14 1 4 0.0600 2.424 -0.95 0.5150000000000001
15 1 4 0.0600 2.2729999999999997 -0.06000000000000006 -0.999
16 1 4 0.0600 4.643 -0.869 -0.506
17 1 4 0.0600 5.96 1.067 -0.5140000000000001
18 1 4 0.0600 4.816 2.075 0.3429999999999999
19 1 4 0.0600 4.559 1.652 -1.413
20 1 2 -0.1200 6.228000000000001 0.0 0.0
21 1 3 -0.0600 7.716 0.0 0.0
22 1 1 -0.1800 8.36 -0.407 -1.276
23 1 4 0.0600 5.912000000000001 0.515 0.95
24 1 4 0.0600 5.761 -0.999 0.06
25 1 4 0.0600 8.131 -0.506 0.869
26 1 4 0.0600 9.448 -0.514 -1.067
27 1 4 0.0600 8.304 0.343 -2.075
28 1 4 0.0600 8.047 -1.413 -1.652
29 1 2 -0.1200 9.716000000000001 0.0 0.0
30 1 3 -0.0600 11.204 0.0 0.0
31 1 1 -0.1800 11.848 1.276 -0.40700000000000003
32 1 4 0.0600 9.4 -0.95 0.5150000000000001
33 1 4 0.0600 9.249 -0.06000000000000006 -0.999
34 1 4 0.0600 11.619000000000002 -0.869 -0.506
35 1 4 0.0600 12.936 1.067 -0.5140000000000001
36 1 4 0.0600 11.792000000000002 2.075 0.3429999999999999
37 1 4 0.0600 11.535 1.652 -1.413
38 1 2 -0.1200 13.204 0.0 0.0
39 1 3 -0.0600 14.692 0.0 0.0
40 1 1 -0.1800 15.336 -0.407 1.276
41 1 4 0.0600 12.888 0.515 -0.95
42 1 4 0.0600 12.737 -0.999 -0.06
43 1 4 0.0600 15.107000000000001 -0.506 -0.869
44 1 4 0.0600 16.424 -0.514 1.067
45 1 4 0.0600 15.280000000000001 0.343 2.075
46 1 4 0.0600 15.023 -1.413 1.652
47 1 2 -0.1200 16.692 0.0 0.0
48 1 3 -0.0600 18.18 0.0 0.0
49 1 1 -0.1800 18.823999999999998 -1.276 -0.4069999999999999
50 1 4 0.0600 16.376 0.95 0.5149999999999999
51 1 4 0.0600 16.225 0.059999999999999935 -0.999
52 1 4 0.0600 18.595 0.869 -0.506
53 1 4 0.0600 19.912 -1.067 -0.5139999999999999
54 1 4 0.0600 18.768 -2.075 0.34300000000000014
55 1 4 0.0600 18.511 -1.652 -1.413
56 1 2 -0.1200 20.18 0.0 0.0
57 1 3 -0.0600 21.668 0.0 0.0
58 1 1 -0.1800 22.311999999999998 -0.407 -1.276
59 1 4 0.0600 19.864 0.515 0.95
60 1 4 0.0600 19.713 -0.999 0.06
61 1 4 0.0600 22.083 -0.506 0.869
62 1 4 0.0600 23.4 -0.514 -1.067
63 1 4 0.0600 22.256 0.343 -2.075
64 1 4 0.0600 21.999 -1.413 -1.652
65 1 2 -0.1200 23.668 0.0 0.0
66 1 3 -0.0600 25.156 0.0 0.0
67 1 1 -0.1800 25.799999999999997 1.276 -0.40700000000000003
68 1 4 0.0600 23.352 -0.95 0.5150000000000001
69 1 4 0.0600 23.201 -0.06000000000000006 -0.999
70 1 4 0.0600 25.570999999999998 -0.869 -0.506
71 1 4 0.0600 26.887999999999998 1.067 -0.5140000000000001
72 1 4 0.0600 25.744 2.075 0.3429999999999999
73 1 4 0.0600 25.487 1.652 -1.413
74 1 2 -0.1200 27.156 0.0 0.0
75 1 3 -0.0600 28.644 0.0 0.0
76 1 1 -0.1800 29.287999999999997 -0.407 -1.276
77 1 4 0.0600 26.84 0.515 0.95
78 1 4 0.0600 26.689 -0.999 0.06
79 1 4 0.0600 29.058999999999997 -0.506 0.869
80 1 4 0.0600 30.375999999999998 -0.514 -1.067
81 1 4 0.0600 29.232 0.343 -2.075
82 1 4 0.0600 28.974999999999998 -1.413 -1.652
83 1 2 -0.1200 30.644000000000002 0.0 0.0
84 1 3 -0.0600 32.132000000000005 0.0 0.0
85 1 1 -0.1800 32.776 1.276 -0.40700000000000003
86 1 4 0.0600 30.328000000000003 -0.95 0.5150000000000001
87 1 4 0.0600 30.177000000000003 -0.06000000000000006 -0.999
88 1 4 0.0600 32.547000000000004 -0.869 -0.506
89 1 4 0.0600 33.864000000000004 1.067 -0.5140000000000001
90 1 4 0.0600 32.72 2.075 0.3429999999999999
91 1 4 0.0600 32.463 1.652 -1.413
92 1 2 -0.1200 34.132 0.0 0.0
93 1 3 -0.0600 35.62 0.0 0.0
94 1 1 -0.1800 36.263999999999996 -0.407 1.276
95 1 4 0.0600 33.815999999999995 0.515 -0.95
96 1 4 0.0600 33.665 -0.999 -0.06
97 1 4 0.0600 36.035 -0.506 -0.869
98 1 4 0.0600 37.352 -0.514 1.067
99 1 4 0.0600 36.208 0.343 2.075
100 1 4 0.0600 35.951 -1.413 1.652
101 1 2 -0.1200 37.62 0.0 0.0
102 1 3 -0.0600 39.108 0.0 0.0
103 1 1 -0.1800 39.751999999999995 1.276 -0.40700000000000003
104 1 4 0.0600 37.303999999999995 -0.95 0.5150000000000001
105 1 4 0.0600 37.153 -0.06000000000000006 -0.999
106 1 4 0.0600 39.522999999999996 -0.869 -0.506
107 1 4 0.0600 40.839999999999996 1.067 -0.5140000000000001
108 1 4 0.0600 39.696 2.075 0.3429999999999999
109 1 4 0.0600 39.439 1.652 -1.413
110 1 2 -0.1200 41.108 0.0 0.0
111 1 3 -0.0600 42.596 0.0 0.0
112 1 1 -0.1800 43.239999999999995 -0.407 -1.276
113 1 4 0.0600 40.791999999999994 0.515 0.95
114 1 4 0.0600 40.641 -0.999 0.06
115 1 4 0.0600 43.010999999999996 -0.506 0.869
116 1 4 0.0600 44.327999999999996 -0.514 -1.067
117 1 4 0.0600 43.184 0.343 -2.075
118 1 4 0.0600 42.927 -1.413 -1.652
119 1 2 -0.1200 44.596000000000004 0.0 0.0
120 1 3 -0.0600 46.084 0.0 0.0
121 1 1 -0.1800 46.728 1.276 -0.40700000000000003
122 1 4 0.0600 44.28 -0.95 0.5150000000000001
123 1 4 0.0600 44.129000000000005 -0.06000000000000006 -0.999
124 1 4 0.0600 46.499 -0.869 -0.506
125 1 4 0.0600 47.816 1.067 -0.5140000000000001
126 1 4 0.0600 46.672000000000004 2.075 0.3429999999999999
127 1 4 0.0600 46.415000000000006 1.652 -1.413
128 1 2 -0.1200 48.084 0.0 0.0
129 1 3 -0.0600 49.572 0.0 0.0
130 1 1 -0.1800 50.216 -0.407 1.276
131 1 4 0.0600 47.768 0.515 -0.95
132 1 4 0.0600 47.617000000000004 -0.999 -0.06
133 1 4 0.0600 49.987 -0.506 -0.869
134 1 4 0.0600 51.304 -0.514 1.067
135 1 4 0.0600 50.160000000000004 0.343 2.075
136 1 4 0.0600 49.903000000000006 -1.413 1.652
137 1 2 -0.1200 51.572 0.0 0.0
138 1 3 -0.0600 53.06 0.0 0.0
139 1 1 -0.1800 53.704 1.276 -0.40700000000000003
140 1 4 0.0600 51.256 -0.95 0.5150000000000001
141 1 4 0.0600 51.105000000000004 -0.06000000000000006 -0.999
142 1 4 0.0600 53.475 -0.869 -0.506
143 1 4 0.0600 54.792 1.067 -0.5140000000000001
144 1 4 0.0600 53.648 2.075 0.3429999999999999
145 1 4 0.0600 53.391000000000005 1.652 -1.413
146 1 2 -0.1200 55.06 0.0 0.0
147 1 3 -0.0600 56.548 0.0 0.0
148 1 1 -0.1800 57.192 -0.407 -1.276
149 1 4 0.0600 54.744 0.515 0.95
150 1 4 0.0600 54.593 -0.999 0.06
151 1 4 0.0600 56.963 -0.506 0.869
152 1 4 0.0600 58.28 -0.514 -1.067
153 1 4 0.0600 57.136 0.343 -2.075
154 1 4 0.0600 56.879000000000005 -1.413 -1.652
155 1 2 -0.1200 58.548 0.0 0.0
156 1 3 -0.0600 60.036 0.0 0.0
157 1 1 -0.1800 60.68 -1.276 -0.4069999999999999
158 1 4 0.0600 58.232 0.95 0.5149999999999999
159 1 4 0.0600 58.081 0.059999999999999935 -0.999
160 1 4 0.0600 60.451 0.869 -0.506
161 1 4 0.0600 61.768 -1.067 -0.5139999999999999
162 1 4 0.0600 60.624 -2.075 0.34300000000000014
163 1 4 0.0600 60.367000000000004 -1.652 -1.413
164 1 2 -0.1200 62.036 0.0 0.0
165 1 3 -0.0600 63.524 0.0 0.0
166 1 1 -0.1800 64.168 -0.407 -1.276
167 1 4 0.0600 61.72 0.515 0.95
168 1 4 0.0600 61.569 -0.999 0.06
169 1 4 0.0600 63.939 -0.506 0.869
170 1 4 0.0600 65.256 -0.514 -1.067
171 1 4 0.0600 64.112 0.343 -2.075
172 1 4 0.0600 63.855000000000004 -1.413 -1.652
173 1 2 -0.1200 65.524 0.0 0.0
174 1 3 -0.0600 67.012 0.0 0.0
175 1 1 -0.1800 67.656 1.276 -0.40700000000000003
176 1 4 0.0600 65.208 -0.95 0.5150000000000001
177 1 4 0.0600 65.057 -0.06000000000000006 -0.999
178 1 4 0.0600 67.427 -0.869 -0.506
179 1 4 0.0600 68.744 1.067 -0.5140000000000001
180 1 4 0.0600 67.6 2.075 0.3429999999999999
181 1 4 0.0600 67.343 1.652 -1.413
182 1 2 -0.1200 69.012 0.0 0.0
183 1 3 -0.0600 70.5 0.0 0.0
184 1 1 -0.1800 71.144 -0.407 -1.276
185 1 4 0.0600 68.696 0.515 0.95
186 1 4 0.0600 68.545 -0.999 0.06
187 1 4 0.0600 70.915 -0.506 0.869
188 1 4 0.0600 72.232 -0.514 -1.067
189 1 4 0.0600 71.088 0.343 -2.075
190 1 4 0.0600 70.831 -1.413 -1.652
191 1 2 -0.1200 72.5 0.0 0.0
192 1 3 -0.0600 73.988 0.0 0.0
193 1 1 -0.1800 74.632 1.276 -0.40700000000000003
194 1 4 0.0600 72.184 -0.95 0.5150000000000001
195 1 4 0.0600 72.033 -0.06000000000000006 -0.999
196 1 4 0.0600 74.403 -0.869 -0.506
197 1 4 0.0600 75.72 1.067 -0.5140000000000001
198 1 4 0.0600 74.576 2.075 0.3429999999999999
199 1 4 0.0600 74.319 1.652 -1.413
200 1 2 -0.1200 75.988 0.0 0.0
201 1 3 -0.0600 77.476 0.0 0.0
202 1 1 -0.1800 78.12 -0.407 1.276
203 1 4 0.0600 75.672 0.515 -0.95
204 1 4 0.0600 75.521 -0.999 -0.06
205 1 4 0.0600 77.891 -0.506 -0.869
206 1 4 0.0600 79.208 -0.514 1.067
207 1 4 0.0600 78.064 0.343 2.075
208 1 4 0.0600 77.807 -1.413 1.652
209 1 2 -0.1200 79.476 0.0 0.0
210 1 3 -0.0600 80.964 0.0 0.0
211 1 1 -0.1800 81.608 -1.276 -0.4069999999999999
212 1 4 0.0600 79.16 0.95 0.5149999999999999
213 1 4 0.0600 79.009 0.059999999999999935 -0.999
214 1 4 0.0600 81.379 0.869 -0.506
215 1 4 0.0600 82.696 -1.067 -0.5139999999999999
216 1 4 0.0600 81.55199999999999 -2.075 0.34300000000000014
217 1 4 0.0600 81.295 -1.652 -1.413
218 1 2 -0.1200 82.964 0.0 0.0
219 1 3 -0.0600 84.452 0.0 0.0
220 1 1 -0.1800 85.096 -0.407 -1.276
221 1 4 0.0600 82.648 0.515 0.95
222 1 4 0.0600 82.497 -0.999 0.06
223 1 4 0.0600 84.867 -0.506 0.869
224 1 4 0.0600 86.184 -0.514 -1.067
225 1 4 0.0600 85.03999999999999 0.343 -2.075
226 1 4 0.0600 84.783 -1.413 -1.652
227 1 2 -0.1200 86.452 0.0 0.0
228 1 3 -0.0600 87.94 0.0 0.0
229 1 1 -0.1800 88.584 -1.276 -0.4069999999999999
230 1 4 0.0600 86.136 0.95 0.5149999999999999
231 1 4 0.0600 85.985 0.059999999999999935 -0.999
232 1 4 0.0600 88.355 0.869 -0.506
233 1 4 0.0600 89.672 -1.067 -0.5139999999999999
234 1 4 0.0600 88.52799999999999 -2.075 0.34300000000000014
235 1 4 0.0600 88.271 -1.652 -1.413
236 1 2 -0.1200 89.94 0.0 0.0
237 1 3 -0.0600 91.428 0.0 0.0
238 1 1 -0.1800 92.072 -0.407 1.276
239 1 4 0.0600 89.624 0.515 -0.95
240 1 4 0.0600 89.473 -0.999 -0.06
241 1 4 0.0600 91.843 -0.506 -0.869
242 1 4 0.0600 93.16 -0.514 1.067
243 1 4 0.0600 92.01599999999999 0.343 2.075
244 1 4 0.0600 91.759 -1.413 1.652
245 1 2 -0.1200 93.428 0.0 0.0
246 1 3 -0.0600 94.916 0.0 0.0
247 1 1 -0.1800 95.56 1.276 -0.40700000000000003
248 1 4 0.0600 93.112 -0.95 0.5150000000000001
249 1 4 0.0600 92.961 -0.06000000000000006 -0.999
250 1 4 0.0600 95.331 -0.869 -0.506
251 1 4 0.0600 96.648 1.067 -0.5140000000000001
252 1 4 0.0600 95.50399999999999 2.075 0.3429999999999999
253 1 4 0.0600 95.247 1.652 -1.413
254 1 2 -0.1200 96.916 0.0 0.0
255 1 3 -0.0600 98.404 0.0 0.0
256 1 1 -0.1800 99.048 -0.407 -1.276
257 1 4 0.0600 96.6 0.515 0.95
258 1 4 0.0600 96.449 -0.999 0.06
259 1 4 0.0600 98.819 -0.506 0.869
260 1 4 0.0600 100.136 -0.514 -1.067
261 1 4 0.0600 98.99199999999999 0.343 -2.075
262 1 4 0.0600 98.735 -1.413 -1.652
263 1 2 -0.1200 100.404 0.0 0.0
264 1 3 -0.0600 101.892 0.0 0.0
265 1 1 -0.1800 102.536 -1.276 -0.4069999999999999
266 1 4 0.0600 100.088 0.95 0.5149999999999999
267 1 4 0.0600 99.937 0.059999999999999935 -0.999
268 1 4 0.0600 102.307 0.869 -0.506
269 1 4 0.0600 103.624 -1.067 -0.5139999999999999
270 1 4 0.0600 102.47999999999999 -2.075 0.34300000000000014
271 1 4 0.0600 102.223 -1.652 -1.413
272 1 2 -0.1200 103.892 0.0 0.0
273 1 3 -0.0600 105.38 0.0 0.0
274 1 1 -0.1800 106.024 -0.407 1.276
275 1 4 0.0600 103.576 0.515 -0.95
276 1 4 0.0600 103.425 -0.999 -0.06
277 1 4 0.0600 105.795 -0.506 -0.869
278 1 4 0.0600 107.112 -0.514 1.067
279 1 4 0.0600 105.96799999999999 0.343 2.075
280 1 4 0.0600 105.711 -1.413 1.652
281 1 2 -0.1200 107.38 0.0 0.0
282 1 3 -0.0600 108.868 0.0 0.0
283 1 1 -0.1800 109.512 -1.276 -0.4069999999999999
284 1 4 0.0600 107.064 0.95 0.5149999999999999
285 1 4 0.0600 106.913 0.059999999999999935 -0.999
286 1 4 0.0600 109.283 0.869 -0.506
287 1 4 0.0600 110.6 -1.067 -0.5139999999999999
288 1 4 0.0600 109.45599999999999 -2.075 0.34300000000000014
289 1 4 0.0600 109.199 -1.652 -1.413
290 1 2 -0.1200 110.868 0.0 0.0
291 1 3 -0.0600 112.356 0.0 0.0
292 1 1 -0.1800 113.0 -0.407 1.276
293 1 4 0.0600 110.55199999999999 0.515 -0.95
294 1 4 0.0600 110.401 -0.999 -0.06
295 1 4 0.0600 112.771 -0.506 -0.869
296 1 4 0.0600 114.088 -0.514 1.067
297 1 4 0.0600 112.94399999999999 0.343 2.075
298 1 4 0.0600 112.687 -1.413 1.652
299 1 2 -0.1200 114.356 0.0 0.0
300 1 3 -0.0600 115.844 0.0 0.0
301 1 1 -0.1800 116.488 -1.276 -0.4069999999999999
302 1 4 0.0600 114.03999999999999 0.95 0.5149999999999999
303 1 4 0.0600 113.889 0.059999999999999935 -0.999
304 1 4 0.0600 116.259 0.869 -0.506
305 1 4 0.0600 117.576 -1.067 -0.5139999999999999
306 1 4 0.0600 116.43199999999999 -2.075 0.34300000000000014
307 1 4 0.0600 116.175 -1.652 -1.413
308 1 2 -0.1200 117.844 0.0 0.0
309 1 3 -0.0600 119.332 0.0 0.0
310 1 1 -0.1800 119.976 -0.407 1.276
311 1 4 0.0600 117.52799999999999 0.515 -0.95
312 1 4 0.0600 117.377 -0.999 -0.06
313 1 4 0.0600 119.747 -0.506 -0.869
314 1 4 0.0600 121.064 -0.514 1.067
315 1 4 0.0600 119.91999999999999 0.343 2.075
316 1 4 0.0600 119.663 -1.413 1.652
317 1 2 -0.1200 121.332 0.0 0.0
318 1 3 -0.0600 122.82 0.0 0.0
319 1 1 -0.1800 123.464 -1.276 -0.4069999999999999
320 1 4 0.0600 121.01599999999999 0.95 0.5149999999999999
321 1 4 0.0600 120.865 0.059999999999999935 -0.999
322 1 4 0.0600 123.235 0.869 -0.506
323 1 4 0.0600 124.55199999999999 -1.067 -0.5139999999999999
324 1 4 0.0600 123.40799999999999 -2.075 0.34300000000000014
325 1 4 0.0600 123.151 -1.652 -1.413
326 1 2 -0.1200 124.82 0.0 0.0
327 1 3 -0.0600 126.30799999999999 0.0 0.0
328 1 1 -0.1800 126.952 -0.407 1.276
329 1 4 0.0600 124.50399999999999 0.515 -0.95
330 1 4 0.0600 124.353 -0.999 -0.06
331 1 4 0.0600 126.723 -0.506 -0.869
332 1 4 0.0600 128.04 -0.514 1.067
333 1 4 0.0600 126.89599999999999 0.343 2.075
334 1 4 0.0600 126.639 -1.413 1.652
335 1 2 -0.1200 128.308 0.0 0.0
336 1 3 -0.0600 129.796 0.0 0.0
337 1 1 -0.1800 130.44 1.276 -0.40700000000000003
338 1 4 0.0600 127.99199999999999 -0.95 0.5150000000000001
339 1 4 0.0600 127.841 -0.06000000000000006 -0.999
340 1 4 0.0600 130.21099999999998 -0.869 -0.506
341 1 4 0.0600 131.528 1.067 -0.5140000000000001
342 1 4 0.0600 130.384 2.075 0.3429999999999999
343 1 4 0.0600 130.12699999999998 1.652 -1.413
344 1 2 -0.1200 131.796 0.0 0.0
345 1 3 -0.0600 133.284 0.0 0.0
346 1 1 -0.1800 133.928 -0.407 -1.276
347 1 4 0.0600 131.48 0.515 0.95
348 1 4 0.0600 131.32899999999998 -0.999 0.06
349 1 4 0.0600 133.69899999999998 -0.506 0.869
350 1 4 0.0600 135.016 -0.514 -1.067
351 1 4 0.0600 133.87199999999999 0.343 -2.075
352 1 4 0.0600 133.61499999999998 -1.413 -1.652
353 1 2 -0.1200 135.284 0.0 0.0
354 1 3 -0.0600 136.772 0.0 0.0
355 1 1 -0.1800 137.416 1.276 -0.40700000000000003
356 1 4 0.0600 134.968 -0.95 0.5150000000000001
357 1 4 0.0600 134.81699999999998 -0.06000000000000006 -0.999
358 1 4 0.0600 137.18699999999998 -0.869 -0.506
359 1 4 0.0600 138.504 1.067 -0.5140000000000001
360 1 4 0.0600 137.35999999999999 2.075 0.3429999999999999
361 1 4 0.0600 137.10299999999998 1.652 -1.413
362 1 2 -0.1200 138.772 0.0 0.0
363 1 3 -0.0600 140.26 0.0 0.0
364 1 1 -0.1800 140.904 -0.407 -1.276
365 1 4 0.0600 138.456 0.515 0.95
366 1 4 0.0600 138.30499999999998 -0.999 0.06
367 1 4 0.0600 140.67499999999998 -0.506 0.869
368 1 4 0.0600 141.992 -0.514 -1.067
369 1 4 0.0600 140.84799999999998 0.343 -2.075
370 1 4 0.0600 140.59099999999998 -1.413 -1.652
371 1 2 -0.1200 142.26 0.0 0.0
372 1 3 -0.0600 143.748 0.0 0.0
373 1 1 -0.1800 144.392 -1.276 -0.4069999999999999
374 1 4 0.0600 141.944 0.95 0.5149999999999999
375 1 4 0.0600 141.79299999999998 0.059999999999999935 -0.999
376 1 4 0.0600 144.16299999999998 0.869 -0.506
377 1 4 0.0600 145.48 -1.067 -0.5139999999999999
378 1 4 0.0600 144.33599999999998 -2.075 0.34300000000000014
379 1 4 0.0600 144.07899999999998 -1.652 -1.413
380 1 2 -0.1200 145.748 0.0 0.0
381 1 3 -0.0600 147.236 0.0 0.0
382 1 1 -0.1800 147.88 -0.407 -1.276
383 1 4 0.0600 145.432 0.515 0.95
384 1 4 0.0600 145.28099999999998 -0.999 0.06
385 1 4 0.0600 147.65099999999998 -0.506 0.869
386 1 4 0.0600 148.968 -0.514 -1.067
387 1 4 0.0600 147.82399999999998 0.343 -2.075
388 1 4 0.0600 147.56699999999998 -1.413 -1.652
389 1 2 -0.1200 149.236 0.0 0.0
390 1 3 -0.0600 150.724 0.0 0.0
391 1 1 -0.1800 151.368 -1.276 -0.4069999999999999
392 1 4 0.0600 148.92 0.95 0.5149999999999999
393 1 4 0.0600 148.76899999999998 0.059999999999999935 -0.999
394 1 4 0.0600 151.13899999999998 0.869 -0.506
395 1 4 0.0600 152.456 -1.067 -0.5139999999999999
396 1 4 0.0600 151.31199999999998 -2.075 0.34300000000000014
397 1 4 0.0600 151.05499999999998 -1.652 -1.413
398 1 2 -0.1200 152.724 0.0 0.0
399 1 3 -0.0600 154.212 0.0 0.0
400 1 1 -0.1800 154.856 -0.407 -1.276
401 1 4 0.0600 152.408 0.515 0.95
402 1 4 0.0600 152.25699999999998 -0.999 0.06
403 1 4 0.0600 154.62699999999998 -0.506 0.869
404 1 4 0.0600 155.944 -0.514 -1.067
405 1 4 0.0600 154.79999999999998 0.343 -2.075
406 1 4 0.0600 154.54299999999998 -1.413 -1.652
407 1 2 -0.1200 156.212 0.0 0.0
408 1 3 -0.0600 157.7 0.0 0.0
409 1 1 -0.1800 158.344 1.276 -0.40700000000000003
410 1 4 0.0600 155.896 -0.95 0.5150000000000001
411 1 4 0.0600 155.74499999999998 -0.06000000000000006 -0.999
412 1 4 0.0600 158.11499999999998 -0.869 -0.506
413 1 4 0.0600 159.432 1.067 -0.5140000000000001
414 1 4 0.0600 158.28799999999998 2.075 0.3429999999999999
415 1 4 0.0600 158.03099999999998 1.652 -1.413
416 1 2 -0.1200 159.7 0.0 0.0
417 1 3 -0.0600 161.188 0.0 0.0
418 1 1 -0.1800 161.832 -0.407 -1.276
419 1 4 0.0600 159.384 0.515 0.95
420 1 4 0.0600 159.23299999999998 -0.999 0.06
421 1 4 0.0600 161.60299999999998 -0.506 0.869
422 1 4 0.0600 162.92 -0.514 -1.067
423 1 4 0.0600 161.77599999999998 0.343 -2.075
424 1 4 0.0600 161.51899999999998 -1.413 -1.652
425 1 2 -0.1200 163.188 0.0 0.0
426 1 3 -0.0600 164.676 0.0 0.0
427 1 1 -0.1800 165.32 1.276 -0.40700000000000003
428 1 4 0.0600 162.87199999999999 -0.95 0.5150000000000001
429 1 4 0.0600 162.72099999999998 -0.06000000000000006 -0.999
430 1 4 0.0600 165.09099999999998 -0.869 -0.506
431 1 4 0.0600 166.408 1.067 -0.5140000000000001
432 1 4 0.0600 165.26399999999998 2.075 0.3429999999999999
433 1 4 0.0600 165.00699999999998 1.652 -1.413
434 1 2 -0.1200 166.676 0.0 0.0
435 1 3 -0.0600 168.164 0.0 0.0
436 1 1 -0.1800 168.808 -0.407 -1.276
437 1 4 0.0600 166.35999999999999 0.515 0.95
438 1 4 0.0600 166.20899999999997 -0.999 0.06
439 1 4 0.0600 168.57899999999998 -0.506 0.869
440 1 4 0.0600 169.896 -0.514 -1.067
441 1 4 0.0600 168.75199999999998 0.343 -2.075
442 1 4 0.0600 168.49499999999998 -1.413 -1.652
443 1 2 -0.1200 169.237 0.0 0.0
444 1 2 -0.1200 170.58499999999998 -0.32999999999999996 0.57
445 1 1 -0.1800 171.606 0.457 -0.24500000000000002
446 1 4 0.0600 168.47 -0.3549999999999999 0.703
447 1 4 0.0600 169.17399999999998 -0.43900000000000006 -1.008
448 1 4 0.0600 170.742 -1.417 0.5030000000000001
449 1 4 0.0600 170.71599999999998 -0.0249999999999999 1.618
450 1 4 0.0600 171.43699999999998 0.36199999999999993 -1.33
451 1 4 0.0600 171.5 1.506 0.05699999999999991
452 1 4 0.0600 172.57899999999998 0.0 0.0
453 2 1 -0.1800 181.27370000000002 0.0 0.0
454 2 3 -0.0600 182.7577 0.0 0.0
455 2 1 -0.1800 183.40370000000001 -0.424 1.258
456 2 4 0.0600 180.79670000000002 -0.948 0.325
457 2 4 0.0600 180.8947 0.773 0.716
458 2 4 0.0600 180.9367 0.291 -1.017
459 2 4 0.0600 183.2467 -0.292 -0.93
460 2 4 0.0600 184.32670000000002 0.202 1.4
461 2 4 0.0600 183.71970000000002 -1.499 1.29
462 2 4 0.0600 182.6997 -0.259 2.096
463 2 2 -0.1200 184.75570000000002 0.0 0.0
464 2 3 -0.0600 186.24370000000002 0.0 0.0
465 2 1 -0.1800 186.88770000000002 1.276 -0.40700000000000003
466 2 4 0.0600 184.43970000000002 -0.95 0.5150000000000001
467 2 4 0.0600 184.2887 -0.06000000000000006 -0.999
468 2 4 0.0600 186.6587 -0.869 -0.506
469 2 4 0.0600 187.97570000000002 1.067 -0.5140000000000001
470 2 4 0.0600 186.8317 2.075 0.3429999999999999
471 2 4 0.0600 186.5747 1.652 -1.413
472 2 2 -0.1200 188.24370000000002 0.0 0.0
473 2 3 -0.0600 189.73170000000002 0.0 0.0
474 2 1 -0.1800 190.37570000000002 -0.407 -1.276
475 2 4 0.0600 187.92770000000002 0.515 0.95
476 2 4 0.0600 187.7767 -0.999 0.06
477 2 4 0.0600 190.1467 -0.506 0.869
478 2 4 0.0600 191.46370000000002 -0.514 -1.067
479 2 4 0.0600 190.3197 0.343 -2.075
480 2 4 0.0600 190.0627 -1.413 -1.652
481 2 2 -0.1200 191.73170000000002 0.0 0.0
482 2 3 -0.0600 193.21970000000002 0.0 0.0
483 2 1 -0.1800 193.86370000000002 1.276 -0.40700000000000003
484 2 4 0.0600 191.41570000000002 -0.95 0.5150000000000001
485 2 4 0.0600 191.2647 -0.06000000000000006 -0.999
486 2 4 0.0600 193.6347 -0.869 -0.506
487 2 4 0.0600 194.95170000000002 1.067 -0.5140000000000001
488 2 4 0.0600 193.8077 2.075 0.3429999999999999
489 2 4 0.0600 193.5507 1.652 -1.413
490 2 2 -0.1200 195.21970000000002 0.0 0.0
491 2 3 -0.0600 196.70770000000002 0.0 0.0
492 2 1 -0.1800 197.35170000000002 -0.407 -1.276
493 2 4 0.0600 194.90370000000001 0.515 0.95
494 2 4 0.0600 194.7527 -0.999 0.06
495 2 4 0.0600 197.1227 -0.506 0.869
496 2 4 0.0600 198.43970000000002 -0.514 -1.067
497 2 4 0.0600 197.2957 0.343 -2.075
498 2 4 0.0600 197.0387 -1.413 -1.652
499 2 2 -0.1200 198.70770000000002 0.0 0.0
500 2 3 -0.0600 200.19570000000002 0.0 0.0
501 2 1 -0.1800 200.83970000000002 1.276 -0.40700000000000003
502 2 4 0.0600 198.39170000000001 -0.95 0.5150000000000001
503 2 4 0.0600 198.2407 -0.06000000000000006 -0.999
504 2 4 0.0600 200.6107 -0.869 -0.506
505 2 4 0.0600 201.92770000000002 1.067 -0.5140000000000001
506 2 4 0.0600 200.7837 2.075 0.3429999999999999
507 2 4 0.0600 200.5267 1.652 -1.413
508 2 2 -0.1200 202.19570000000002 0.0 0.0
509 2 3 -0.0600 203.68370000000002 0.0 0.0
510 2 1 -0.1800 204.32770000000002 -0.407 1.276
511 2 4 0.0600 201.8797 0.515 -0.95
512 2 4 0.0600 201.7287 -0.999 -0.06
513 2 4 0.0600 204.0987 -0.506 -0.869
514 2 4 0.0600 205.41570000000002 -0.514 1.067
515 2 4 0.0600 204.2717 0.343 2.075
516 2 4 0.0600 204.0147 -1.413 1.652
517 2 2 -0.1200 205.68370000000002 0.0 0.0
518 2 3 -0.0600 207.17170000000002 0.0 0.0
519 2 1 -0.1800 207.81570000000002 1.276 -0.40700000000000003
520 2 4 0.0600 205.3677 -0.95 0.5150000000000001
521 2 4 0.0600 205.2167 -0.06000000000000006 -0.999
522 2 4 0.0600 207.5867 -0.869 -0.506
523 2 4 0.0600 208.90370000000001 1.067 -0.5140000000000001
524 2 4 0.0600 207.7597 2.075 0.3429999999999999
525 2 4 0.0600 207.5027 1.652 -1.413
526 2 2 -0.1200 209.17170000000002 0.0 0.0
527 2 3 -0.0600 210.65970000000002 0.0 0.0
528 2 1 -0.1800 211.30370000000002 -0.407 -1.276
529 2 4 0.0600 208.8557 0.515 0.95
530 2 4 0.0600 208.7047 -0.999 0.06
531 2 4 0.0600 211.0747 -0.506 0.869
532 2 4 0.0600 212.39170000000001 -0.514 -1.067
533 2 4 0.0600 211.2477 0.343 -2.075
534 2 4 0.0600 210.9907 -1.413 -1.652
535 2 2 -0.1200 212.65970000000002 0.0 0.0
536 2 3 -0.0600 214.14770000000001 0.0 0.0
537 2 1 -0.1800 214.79170000000002 1.276 -0.40700000000000003
538 2 4 0.0600 212.3437 -0.95 0.5150000000000001
539 2 4 0.0600 212.1927 -0.06000000000000006 -0.999
540 2 4 0.0600 214.5627 -0.869 -0.506
541 2 4 0.0600 215.8797 1.067 -0.5140000000000001
542 2 4 0.0600 214.7357 2.075 0.3429999999999999
543 2 4 0.0600 214.4787 1.652 -1.413
544 2 2 -0.1200 216.14770000000001 0.0 0.0
545 2 3 -0.0600 217.6357 0.0 0.0
546 2 1 -0.1800 218.27970000000002 -0.407 1.276
547 2 4 0.0600 215.8317 0.515 -0.95
548 2 4 0.0600 215.6807 -0.999 -0.06
549 2 4 0.0600 218.0507 -0.506 -0.869
550 2 4 0.0600 219.3677 -0.514 1.067
551 2 4 0.0600 218.2237 0.343 2.075
552 2 4 0.0600 217.9667 -1.413 1.652
553 2 2 -0.1200 219.6357 0.0 0.0
554 2 3 -0.0600 221.1237 0.0 0.0
555 2 1 -0.1800 221.76770000000002 -1.276 -0.4069999999999999
556 2 4 0.0600 219.3197 0.95 0.5149999999999999
557 2 4 0.0600 219.1687 0.059999999999999935 -0.999
558 2 4 0.0600 221.5387 0.869 -0.506
559 2 4 0.0600 222.8557 -1.067 -0.5139999999999999
560 2 4 0.0600 221.7117 -2.075 0.34300000000000014
561 2 4 0.0600 221.4547 -1.652 -1.413
562 2 2 -0.1200 223.1237 0.0 0.0
563 2 3 -0.0600 224.6117 0.0 0.0
564 2 1 -0.1800 225.25570000000002 -0.407 -1.276
565 2 4 0.0600 222.8077 0.515 0.95
566 2 4 0.0600 222.6567 -0.999 0.06
567 2 4 0.0600 225.0267 -0.506 0.869
568 2 4 0.0600 226.3437 -0.514 -1.067
569 2 4 0.0600 225.1997 0.343 -2.075
570 2 4 0.0600 224.9427 -1.413 -1.652
571 2 2 -0.1200 226.6117 0.0 0.0
572 2 3 -0.0600 228.0997 0.0 0.0
573 2 1 -0.1800 228.74370000000002 1.276 -0.40700000000000003
574 2 4 0.0600 226.2957 -0.95 0.5150000000000001
575 2 4 0.0600 226.1447 -0.06000000000000006 -0.999
576 2 4 0.0600 228.5147 -0.869 -0.506
577 2 4 0.0600 229.8317 1.067 -0.5140000000000001
578 2 4 0.0600 228.6877 2.075 0.3429999999999999
579 2 4 0.0600 228.4307 1.652 -1.413
580 2 2 -0.1200 230.0997 0.0 0.0
581 2 3 -0.0600 231.5877 0.0 0.0
582 2 1 -0.1800 232.23170000000002 -0.407 -1.276
583 2 4 0.0600 229.7837 0.515 0.95
584 2 4 0.0600 229.6327 -0.999 0.06
585 2 4 0.0600 232.0027 -0.506 0.869
586 2 4 0.0600 233.3197 -0.514 -1.067
587 2 4 0.0600 232.1757 0.343 -2.075
588 2 4 0.0600 231.9187 -1.413 -1.652
589 2 2 -0.1200 233.5877 0.0 0.0
590 2 3 -0.0600 235.0757 0.0 0.0
591 2 1 -0.1800 235.71970000000002 -1.276 -0.4069999999999999
592 2 4 0.0600 233.2717 0.95 0.5149999999999999
593 2 4 0.0600 233.1207 0.059999999999999935 -0.999
594 2 4 0.0600 235.4907 0.869 -0.506
595 2 4 0.0600 236.8077 -1.067 -0.5139999999999999
596 2 4 0.0600 235.6637 -2.075 0.34300000000000014
597 2 4 0.0600 235.4067 -1.652 -1.413
598 2 2 -0.1200 237.0757 0.0 0.0
599 2 3 -0.0600 238.5637 0.0 0.0
600 2 1 -0.1800 239.20770000000002 -0.407 -1.276
601 2 4 0.0600 236.7597 0.515 0.95
602 2 4 0.0600 236.6087 -0.999 0.06
603 2 4 0.0600 238.9787 -0.506 0.869
604 2 4 0.0600 240.2957 -0.514 -1.067
605 2 4 0.0600 239.1517 0.343 -2.075
606 2 4 0.0600 238.8947 -1.413 -1.652
607 2 2 -0.1200 240.5637 0.0 0.0
608 2 3 -0.0600 242.0517 0.0 0.0
609 2 1 -0.1800 242.69570000000002 -1.276 -0.4069999999999999
610 2 4 0.0600 240.2477 0.95 0.5149999999999999
611 2 4 0.0600 240.0967 0.059999999999999935 -0.999
612 2 4 0.0600 242.4667 0.869 -0.506
613 2 4 0.0600 243.7837 -1.067 -0.5139999999999999
614 2 4 0.0600 242.6397 -2.075 0.34300000000000014
615 2 4 0.0600 242.3827 -1.652 -1.413
616 2 2 -0.1200 244.0517 0.0 0.0
617 2 3 -0.0600 245.5397 0.0 0.0
618 2 1 -0.1800 246.18370000000002 -0.407 1.276
619 2 4 0.0600 243.7357 0.515 -0.95
620 2 4 0.0600 243.5847 -0.999 -0.06
621 2 4 0.0600 245.9547 -0.506 -0.869
622 2 4 0.0600 247.2717 -0.514 1.067
623 2 4 0.0600 246.1277 0.343 2.075
624 2 4 0.0600 245.8707 -1.413 1.652
625 2 2 -0.1200 247.5397 0.0 0.0
626 2 3 -0.0600 249.0277 0.0 0.0
627 2 1 -0.1800 249.67170000000002 -1.276 -0.4069999999999999
628 2 4 0.0600 247.2237 0.95 0.5149999999999999
629 2 4 0.0600 247.0727 0.059999999999999935 -0.999
630 2 4 0.0600 249.4427 0.869 -0.506
631 2 4 0.0600 250.7597 -1.067 -0.5139999999999999
632 2 4 0.0600 249.6157 -2.075 0.34300000000000014
633 2 4 0.0600 249.3587 -1.652 -1.413
634 2 2 -0.1200 251.0277 0.0 0.0
635 2 3 -0.0600 252.5157 0.0 0.0
636 2 1 -0.1800 253.15970000000002 -0.407 -1.276
637 2 4 0.0600 250.7117 0.515 0.95
638 2 4 0.0600 250.5607 -0.999 0.06
639 2 4 0.0600 252.9307 -0.506 0.869
640 2 4 0.0600 254.2477 -0.514 -1.067
641 2 4 0.0600 253.1037 0.343 -2.075
642 2 4 0.0600 252.8467 -1.413 -1.652
643 2 2 -0.1200 254.5157 0.0 0.0
644 2 3 -0.0600 256.00370000000004 0.0 0.0
645 2 1 -0.1800 256.6477 1.276 -0.40700000000000003
646 2 4 0.0600 254.1997 -0.95 0.5150000000000001
647 2 4 0.0600 254.0487 -0.06000000000000006 -0.999
648 2 4 0.0600 256.4187 -0.869 -0.506
649 2 4 0.0600 257.7357 1.067 -0.5140000000000001
650 2 4 0.0600 256.5917 2.075 0.3429999999999999
651 2 4 0.0600 256.3347 1.652 -1.413
652 2 2 -0.1200 258.0037 0.0 0.0
653 2 3 -0.0600 259.49170000000004 0.0 0.0
654 2 1 -0.1800 260.1357 -0.407 1.276
655 2 4 0.0600 257.6877 0.515 -0.95
656 2 4 0.0600 257.5367 -0.999 -0.06
657 2 4 0.0600 259.9067 -0.506 -0.869
658 2 4 0.0600 261.2237 -0.514 1.067
659 2 4 0.0600 260.0797 0.343 2.075
660 2 4 0.0600 259.8227 -1.413 1.652
661 2 2 -0.1200 261.4917 0.0 0.0
662 2 3 -0.0600 262.97970000000004 0.0 0.0
663 2 1 -0.1800 263.6237 -1.276 -0.4069999999999999
664 2 4 0.0600 261.1757 0.95 0.5149999999999999
665 2 4 0.0600 261.0247 0.059999999999999935 -0.999
666 2 4 0.0600 263.3947 0.869 -0.506
667 2 4 0.0600 264.7117 -1.067 -0.5139999999999999
668 2 4 0.0600 263.5677 -2.075 0.34300000000000014
669 2 4 0.0600 263.3107 -1.652 -1.413
670 2 2 -0.1200 264.9797 0.0 0.0
671 2 3 -0.0600 266.46770000000004 0.0 0.0
672 2 1 -0.1800 267.1117 -0.407 -1.276
673 2 4 0.0600 264.6637 0.515 0.95
674 2 4 0.0600 264.5127 -0.999 0.06
675 2 4 0.0600 266.8827 -0.506 0.869
676 2 4 0.0600 268.1997 -0.514 -1.067
677 2 4 0.0600 267.0557 0.343 -2.075
678 2 4 0.0600 266.7987 -1.413 -1.652
679 2 2 -0.1200 268.4677 0.0 0.0
680 2 3 -0.0600 269.95570000000004 0.0 0.0
681 2 1 -0.1800 270.5997 1.276 -0.40700000000000003
682 2 4 0.0600 268.1517 -0.95 0.5150000000000001
683 2 4 0.0600 268.0007 -0.06000000000000006 -0.999
684 2 4 0.0600 270.3707 -0.869 -0.506
685 2 4 0.0600 271.6877 1.067 -0.5140000000000001
686 2 4 0.0600 270.5437 2.075 0.3429999999999999
687 2 4 0.0600 270.2867 1.652 -1.413
688 2 2 -0.1200 271.9557 0.0 0.0
689 2 3 -0.0600 273.44370000000004 0.0 0.0
690 2 1 -0.1800 274.0877 -0.407 -1.276
691 2 4 0.0600 271.6397 0.515 0.95
692 2 4 0.0600 271.4887 -0.999 0.06
693 2 4 0.0600 273.8587 -0.506 0.869
694 2 4 0.0600 275.1757 -0.514 -1.067
695 2 4 0.0600 274.0317 0.343 -2.075
696 2 4 0.0600 273.7747 -1.413 -1.652
697 2 2 -0.1200 275.4437 0.0 0.0
698 2 3 -0.0600 276.93170000000003 0.0 0.0
699 2 1 -0.1800 277.5757 -1.276 -0.4069999999999999
700 2 4 0.0600 275.1277 0.95 0.5149999999999999
701 2 4 0.0600 274.9767 0.059999999999999935 -0.999
702 2 4 0.0600 277.3467 0.869 -0.506
703 2 4 0.0600 278.6637 -1.067 -0.5139999999999999
704 2 4 0.0600 277.5197 -2.075 0.34300000000000014
705 2 4 0.0600 277.2627 -1.652 -1.413
706 2 2 -0.1200 278.9317 0.0 0.0
707 2 3 -0.0600 280.41970000000003 0.0 0.0
708 2 1 -0.1800 281.0637 -0.407 1.276
709 2 4 0.0600 278.6157 0.515 -0.95
710 2 4 0.0600 278.4647 -0.999 -0.06
711 2 4 0.0600 280.8347 -0.506 -0.869
712 2 4 0.0600 282.1517 -0.514 1.067
713 2 4 0.0600 281.0077 0.343 2.075
714 2 4 0.0600 280.7507 -1.413 1.652
715 2 2 -0.1200 282.4197 0.0 0.0
716 2 3 -0.0600 283.90770000000003 0.0 0.0
717 2 1 -0.1800 284.5517 -1.276 -0.4069999999999999
718 2 4 0.0600 282.1037 0.95 0.5149999999999999
719 2 4 0.0600 281.9527 0.059999999999999935 -0.999
720 2 4 0.0600 284.3227 0.869 -0.506
721 2 4 0.0600 285.6397 -1.067 -0.5139999999999999
722 2 4 0.0600 284.4957 -2.075 0.34300000000000014
723 2 4 0.0600 284.2387 -1.652 -1.413
724 2 2 -0.1200 285.9077 0.0 0.0
725 2 3 -0.0600 287.39570000000003 0.0 0.0
726 2 1 -0.1800 288.0397 -0.407 1.276
727 2 4 0.0600 285.5917 0.515 -0.95
728 2 4 0.0600 285.4407 -0.999 -0.06
729 2 4 0.0600 287.8107 -0.506 -0.869
730 2 4 0.0600 289.1277 -0.514 1.067
731 2 4 0.0600 287.9837 0.343 2.075
732 2 4 0.0600 287.7267 -1.413 1.652
733 2 2 -0.1200 289.3957 0.0 0.0
734 2 3 -0.0600 290.88370000000003 0.0 0.0
735 2 1 -0.1800 291.5277 -1.276 -0.4069999999999999
736 2 4 0.0600 289.0797 0.95 0.5149999999999999
737 2 4 0.0600 288.9287 0.059999999999999935 -0.999
738 2 4 0.0600 291.2987 0.869 -0.506
739 2 4 0.0600 292.6157 -1.067 -0.5139999999999999
740 2 4 0.0600 291.4717 -2.075 0.34300000000000014
741 2 4 0.0600 291.2147 -1.652 -1.413
742 2 2 -0.1200 292.8837 0.0 0.0
743 2 3 -0.0600 294.37170000000003 0.0 0.0
744 2 1 -0.1800 295.0157 -0.407 -1.276
745 2 4 0.0600 292.5677 0.515 0.95
746 2 4 0.0600 292.4167 -0.999 0.06
747 2 4 0.0600 294.7867 -0.506 0.869
748 2 4 0.0600 296.1037 -0.514 -1.067
749 2 4 0.0600 294.9597 0.343 -2.075
750 2 4 0.0600 294.7027 -1.413 -1.652
751 2 2 -0.1200 296.3717 0.0 0.0
752 2 3 -0.0600 297.85970000000003 0.0 0.0
753 2 1 -0.1800 298.5037 -1.276 -0.4069999999999999
754 2 4 0.0600 296.0557 0.95 0.5149999999999999
755 2 4 0.0600 295.9047 0.059999999999999935 -0.999
756 2 4 0.0600 298.2747 0.869 -0.506
757 2 4 0.0600 299.5917 -1.067 -0.5139999999999999
758 2 4 0.0600 298.4477 -2.075 0.34300000000000014
759 2 4 0.0600 298.1907 -1.652 -1.413
760 2 2 -0.1200 299.8597 0.0 0.0
761 2 3 -0.0600 301.34770000000003 0.0 0.0
762 2 1 -0.1800 301.9917 -0.407 1.276
763 2 4 0.0600 299.5437 0.515 -0.95
764 2 4 0.0600 299.3927 -0.999 -0.06
765 2 4 0.0600 301.7627 -0.506 -0.869
766 2 4 0.0600 303.0797 -0.514 1.067
767 2 4 0.0600 301.9357 0.343 2.075
768 2 4 0.0600 301.6787 -1.413 1.652
769 2 2 -0.1200 303.3477 0.0 0.0
770 2 3 -0.0600 304.83570000000003 0.0 0.0
771 2 1 -0.1800 305.4797 -1.276 -0.4069999999999999
772 2 4 0.0600 303.0317 0.95 0.5149999999999999
773 2 4 0.0600 302.8807 0.059999999999999935 -0.999
774 2 4 0.0600 305.2507 0.869 -0.506
775 2 4 0.0600 306.5677 -1.067 -0.5139999999999999
776 2 4 0.0600 305.4237 -2.075 0.34300000000000014
777 2 4 0.0600 305.1667 -1.652 -1.413
778 2 2 -0.1200 306.8357 0.0 0.0
779 2 3 -0.0600 308.32370000000003 0.0 0.0
780 2 1 -0.1800 308.9677 -0.407 -1.276
781 2 4 0.0600 306.5197 0.515 0.95
782 2 4 0.0600 306.3687 -0.999 0.06
783 2 4 0.0600 308.7387 -0.506 0.869
784 2 4 0.0600 310.0557 -0.514 -1.067
785 2 4 0.0600 308.9117 0.343 -2.075
786 2 4 0.0600 308.6547 -1.413 -1.652
787 2 2 -0.1200 310.3237 0.0 0.0
788 2 3 -0.0600 311.81170000000003 0.0 0.0
789 2 1 -0.1800 312.4557 -1.276 -0.4069999999999999
790 2 4 0.0600 310.0077 0.95 0.5149999999999999
791 2 4 0.0600 309.8567 0.059999999999999935 -0.999
792 2 4 0.0600 312.2267 0.869 -0.506
793 2 4 0.0600 313.5437 -1.067 -0.5139999999999999
794 2 4 0.0600 312.3997 -2.075 0.34300000000000014
795 2 4 0.0600 312.1427 -1.652 -1.413
796 2 2 -0.1200 313.8117 0.0 0.0
797 2 3 -0.0600 315.29970000000003 0.0 0.0
798 2 1 -0.1800 315.9437 -0.407 1.276
799 2 4 0.0600 313.4957 0.515 -0.95
800 2 4 0.0600 313.3447 -0.999 -0.06
801 2 4 0.0600 315.7147 -0.506 -0.869
802 2 4 0.0600 317.0317 -0.514 1.067
803 2 4 0.0600 315.8877 0.343 2.075
804 2 4 0.0600 315.6307 -1.413 1.652
805 2 2 -0.1200 317.2997 0.0 0.0
806 2 3 -0.0600 318.78770000000003 0.0 0.0
807 2 1 -0.1800 319.4317 -1.276 -0.4069999999999999
808 2 4 0.0600 316.9837 0.95 0.5149999999999999
809 2 4 0.0600 316.8327 0.059999999999999935 -0.999
810 2 4 0.0600 319.2027 0.869 -0.506
811 2 4 0.0600 320.5197 -1.067 -0.5139999999999999
812 2 4 0.0600 319.3757 -2.075 0.34300000000000014
813 2 4 0.0600 319.1187 -1.652 -1.413
814 2 2 -0.1200 320.7877 0.0 0.0
815 2 3 -0.0600 322.27570000000003 0.0 0.0
816 2 1 -0.1800 322.9197 -0.407 1.276
817 2 4 0.0600 320.4717 0.515 -0.95
818 2 4 0.0600 320.3207 -0.999 -0.06
819 2 4 0.0600 322.6907 -0.506 -0.869
820 2 4 0.0600 324.0077 -0.514 1.067
821 2 4 0.0600 322.8637 0.343 2.075
822 2 4 0.0600 322.6067 -1.413 1.652
823 2 2 -0.1200 324.2757 0.0 0.0
824 2 3 -0.0600 325.76370000000003 0.0 0.0
825 2 1 -0.1800 326.4077 -1.276 -0.4069999999999999
826 2 4 0.0600 323.9597 0.95 0.5149999999999999
827 2 4 0.0600 323.8087 0.059999999999999935 -0.999
828 2 4 0.0600 326.1787 0.869 -0.506
829 2 4 0.0600 327.4957 -1.067 -0.5139999999999999
830 2 4 0.0600 326.3517 -2.075 0.34300000000000014
831 2 4 0.0600 326.0947 -1.652 -1.413
832 2 2 -0.1200 327.7637 0.0 0.0
833 2 3 -0.0600 329.2517 0.0 0.0
834 2 1 -0.1800 329.8957 -0.407 -1.276
835 2 4 0.0600 327.4477 0.515 0.95
836 2 4 0.0600 327.2967 -0.999 0.06
837 2 4 0.0600 329.6667 -0.506 0.869
838 2 4 0.0600 330.9837 -0.514 -1.067
839 2 4 0.0600 329.8397 0.343 -2.075
840 2 4 0.0600 329.5827 -1.413 -1.652
841 2 2 -0.1200 331.25169999999997 0.0 0.0
842 2 3 -0.0600 332.7397 0.0 0.0
843 2 1 -0.1800 333.3837 -1.276 -0.4069999999999999
844 2 4 0.0600 330.9357 0.95 0.5149999999999999
845 2 4 0.0600 330.7847 0.059999999999999935 -0.999
846 2 4 0.0600 333.1547 0.869 -0.506
847 2 4 0.0600 334.4717 -1.067 -0.5139999999999999
848 2 4 0.0600 333.3277 -2.075 0.34300000000000014
849 2 4 0.0600 333.0707 -1.652 -1.413
850 2 2 -0.1200 334.73969999999997 0.0 0.0
851 2 3 -0.0600 336.2277 0.0 0.0
852 2 1 -0.1800 336.8717 -0.407 1.276
853 2 4 0.0600 334.4237 0.515 -0.95
854 2 4 0.0600 334.2727 -0.999 -0.06
855 2 4 0.0600 336.6427 -0.506 -0.869
856 2 4 0.0600 337.9597 -0.514 1.067
857 2 4 0.0600 336.8157 0.343 2.075
858 2 4 0.0600 336.5587 -1.413 1.652
859 2 2 -0.1200 338.22769999999997 0.0 0.0
860 2 3 -0.0600 339.7157 0.0 0.0
861 2 1 -0.1800 340.3597 1.276 -0.40700000000000003
862 2 4 0.0600 337.9117 -0.95 0.5150000000000001
863 2 4 0.0600 337.7607 -0.06000000000000006 -0.999
864 2 4 0.0600 340.1307 -0.869 -0.506
865 2 4 0.0600 341.4477 1.067 -0.5140000000000001
866 2 4 0.0600 340.3037 2.075 0.3429999999999999
867 2 4 0.0600 340.0467 1.652 -1.413
868 2 2 -0.1200 341.71569999999997 0.0 0.0
869 2 3 -0.0600 343.2037 0.0 0.0
870 2 1 -0.1800 343.8477 -0.407 -1.276
871 2 4 0.0600 341.3997 0.515 0.95
872 2 4 0.0600 341.2487 -0.999 0.06
873 2 4 0.0600 343.6187 -0.506 0.869
874 2 4 0.0600 344.9357 -0.514 -1.067
875 2 4 0.0600 343.7917 0.343 -2.075
876 2 4 0.0600 343.5347 -1.413 -1.652
877 2 2 -0.1200 345.20369999999997 0.0 0.0
878 2 3 -0.0600 346.6917 0.0 0.0
879 2 1 -0.1800 347.3357 1.276 -0.40700000000000003
880 2 4 0.0600 344.8877 -0.95 0.5150000000000001
881 2 4 0.0600 344.7367 -0.06000000000000006 -0.999
882 2 4 0.0600 347.1067 -0.869 -0.506
883 2 4 0.0600 348.4237 1.067 -0.5140000000000001
884 2 4 0.0600 347.2797 2.075 0.3429999999999999
885 2 4 0.0600 347.0227 1.652 -1.413
886 2 2 -0.1200 348.69169999999997 0.0 0.0
887 2 3 -0.0600 350.1797 0.0 0.0
888 2 1 -0.1800 350.8237 -0.407 1.276
889 2 4 0.0600 348.3757 0.515 -0.95
890 2 4 0.0600 348.2247 -0.999 -0.06
891 2 4 0.0600 350.5947 -0.506 -0.869
892 2 4 0.0600 351.9117 -0.514 1.067
893 2 4 0.0600 350.7677 0.343 2.075
894 2 4 0.0600 350.5107 -1.413 1.652
895 2 2 -0.1200 351.2527 0.0 0.0
896 2 2 -0.1200 352.6007 -0.32999999999999996 0.57
897 2 1 -0.1800 353.6217 0.457 -0.24500000000000002
898 2 4 0.0600 350.4857 -0.3549999999999999 0.703
899 2 4 0.0600 351.1897 -0.43900000000000006 -1.008
900 2 4 0.0600 352.7577 -1.417 0.5030000000000001
901 2 4 0.0600 352.7317 -0.0249999999999999 1.618
902 2 4 0.0600 353.4527 0.36199999999999993 -1.33
903 2 4 0.0600 353.5157 1.506 0.05699999999999991
904 2 4 0.0600 354.5947 0.0 0.0
905 3 1 -0.1800 363.28929999999997 0.0 0.0
906 3 3 -0.0600 364.7733 0.0 0.0
907 3 1 -0.1800 365.41929999999996 -0.424 -1.258
908 3 4 0.0600 362.8123 -0.948 -0.325
909 3 4 0.0600 362.9103 0.773 -0.716
910 3 4 0.0600 362.9523 0.291 1.017
911 3 4 0.0600 365.2623 -0.292 0.93
912 3 4 0.0600 366.34229999999997 0.202 -1.4
913 3 4 0.0600 365.7353 -1.499 -1.29
914 3 4 0.0600 364.7153 -0.259 -2.096
915 3 2 -0.1200 366.77129999999994 0.0 0.0
916 3 3 -0.0600 368.2593 0.0 0.0
917 3 1 -0.1800 368.90329999999994 -1.276 -0.4069999999999999
918 3 4 0.0600 366.45529999999997 0.95 0.5149999999999999
919 3 4 0.0600 366.30429999999996 0.059999999999999935 -0.999
920 3 4 0.0600 368.67429999999996 0.869 -0.506
921 3 4 0.0600 369.99129999999997 -1.067 -0.5139999999999999
922 3 4 0.0600 368.84729999999996 -2.075 0.34300000000000014
923 3 4 0.0600 368.59029999999996 -1.652 -1.413
924 3 2 -0.1200 370.25929999999994 0.0 0.0
925 3 3 -0.0600 371.7473 0.0 0.0
926 3 1 -0.1800 372.39129999999994 -0.407 1.276
927 3 4 0.0600 369.94329999999997 0.515 -0.95
928 3 4 0.0600 369.79229999999995 -0.999 -0.06
929 3 4 0.0600 372.16229999999996 -0.506 -0.869
930 3 4 0.0600 373.47929999999997 -0.514 1.067
931 3 4 0.0600 372.33529999999996 0.343 2.075
932 3 4 0.0600 372.07829999999996 -1.413 1.652
933 3 2 -0.1200 373.74729999999994 0.0 0.0
934 3 3 -0.0600 375.2353 0.0 0.0
935 3 1 -0.1800 375.87929999999994 1.276 -0.40700000000000003
936 3 4 0.0600 373.43129999999996 -0.95 0.5150000000000001
937 3 4 0.0600 373.28029999999995 -0.06000000000000006 -0.999
938 3 4 0.0600 375.65029999999996 -0.869 -0.506
939 3 4 0.0600 376.96729999999997 1.067 -0.5140000000000001
940 3 4 0.0600 375.82329999999996 2.075 0.3429999999999999
941 3 4 0.0600 375.56629999999996 1.652 -1.413
942 3 2 -0.1200 377.23529999999994 0.0 0.0
943 3 3 -0.0600 378.7233 0.0 0.0
944 3 1 -0.1800 379.36729999999994 -0.407 -1.276
945 3 4 0.0600 376.91929999999996 0.515 0.95
946 3 4 0.0600 376.76829999999995 -0.999 0.06
947 3 4 0.0600 379.13829999999996 -0.506 0.869
948 3 4 0.0600 380.45529999999997 -0.514 -1.067
949 3 4 0.0600 379.31129999999996 0.343 -2.075
950 3 4 0.0600 379.05429999999996 -1.413 -1.652
951 3 2 -0.1200 380.72329999999994 0.0 0.0
952 3 3 -0.0600 382.2113 0.0 0.0
953 3 1 -0.1800 382.85529999999994 1.276 -0.40700000000000003
954 3 4 0.0600 380.40729999999996 -0.95 0.5150000000000001
955 3 4 0.0600 380.25629999999995 -0.06000000000000006 -0.999
956 3 4 0.0600 382.62629999999996 -0.869 -0.506
957 3 4 0.0600 383.94329999999997 1.067 -0.5140000000000001
958 3 4 0.0600 382.79929999999996 2.075 0.3429999999999999
959 3 4 0.0600 382.54229999999995 1.652 -1.413
960 3 2 -0.1200 384.21129999999994 0.0 0.0
961 3 3 -0.0600 385.6993 0.0 0.0
962 3 1 -0.1800 386.34329999999994 -0.407 1.276
963 3 4 0.0600 383.89529999999996 0.515 -0.95
964 3 4 0.0600 383.74429999999995 -0.999 -0.06
965 3 4 0.0600 386.11429999999996 -0.506 -0.869
966 3 4 0.0600 387.43129999999996 -0.514 1.067
967 3 4 0.0600 386.28729999999996 0.343 2.075
968 3 4 0.0600 386.03029999999995 -1.413 1.652
969 3 2 -0.1200 387.69929999999994 0.0 0.0
970 3 3 -0.0600 389.1873 0.0 0.0
971 3 1 -0.1800 389.83129999999994 -1.276 -0.4069999999999999
972 3 4 0.0600 387.38329999999996 0.95 0.5149999999999999
973 3 4 0.0600 387.23229999999995 0.059999999999999935 -0.999
974 3 4 0.0600 389.60229999999996 0.869 -0.506
975 3 4 0.0600 390.91929999999996 -1.067 -0.5139999999999999
976 3 4 0.0600 389.77529999999996 -2.075 0.34300000000000014
977 3 4 0.0600 389.51829999999995 -1.652 -1.413
978 3 2 -0.1200 391.18729999999994 0.0 0.0
979 3 3 -0.0600 392.6753 0.0 0.0
980 3 1 -0.1800 393.31929999999994 -0.407 1.276
981 3 4 0.0600 390.87129999999996 0.515 -0.95
982 3 4 0.0600 390.72029999999995 -0.999 -0.06
983 3 4 0.0600 393.09029999999996 -0.506 -0.869
984 3 4 0.0600 394.40729999999996 -0.514 1.067
985 3 4 0.0600 393.26329999999996 0.343 2.075
986 3 4 0.0600 393.00629999999995 -1.413 1.652
987 3 2 -0.1200 394.67529999999994 0.0 0.0
988 3 3 -0.0600 396.1633 0.0 0.0
989 3 1 -0.1800 396.80729999999994 -1.276 -0.4069999999999999
990 3 4 0.0600 394.35929999999996 0.95 0.5149999999999999
991 3 4 0.0600 394.20829999999995 0.059999999999999935 -0.999
992 3 4 0.0600 396.57829999999996 0.869 -0.506
993 3 4 0.0600 397.89529999999996 -1.067 -0.5139999999999999
994 3 4 0.0600 396.75129999999996 -2.075 0.34300000000000014
995 3 4 0.0600 396.49429999999995 -1.652 -1.413
996 3 2 -0.1200 398.16329999999994 0.0 0.0
997 3 3 -0.0600 399.6513 0.0 0.0
998 3 1 -0.1800 400.29529999999994 -0.407 1.276
999 3 4 0.0600 397.84729999999996 0.515 -0.95
1000 3 4 0.0600 397.69629999999995 -0.999 -0.06
1001 3 4 0.0600 400.06629999999996 -0.506 -0.869
1002 3 4 0.0600 401.38329999999996 -0.514 1.067
1003 3 4 0.0600 400.23929999999996 0.343 2.075
1004 3 4 0.0600 399.98229999999995 -1.413 1.652
1005 3 2 -0.1200 401.65129999999994 0.0 0.0
1006 3 3 -0.0600 403.1393 0.0 0.0
1007 3 1 -0.1800 403.78329999999994 -1.276 -0.4069999999999999
1008 3 4 0.0600 401.33529999999996 0.95 0.5149999999999999
1009 3 4 0.0600 401.18429999999995 0.059999999999999935 -0.999
1010 3 4 0.0600 403.55429999999996 0.869 -0.506
1011 3 4 0.0600 404.87129999999996 -1.067 -0.5139999999999999
1012 3 4 0.0600 403.72729999999996 -2.075 0.34300000000000014
1013 3 4 0.0600 403.47029999999995 -1.652 -1.413
1014 3 2 -0.1200 405.13929999999993 0.0 0.0
1015 3 3 -0.0600 406.6273 0.0 0.0
1016 3 1 -0.1800 407.27129999999994 -0.407 -1.276
1017 3 4 0.0600 404.82329999999996 0.515 0.95
1018 3 4 0.0600 404.67229999999995 -0.999 0.06
1019 3 4 0.0600 407.04229999999995 -0.506 0.869
1020 3 4 0.0600 408.35929999999996 -0.514 -1.067
1021 3 4 0.0600 407.21529999999996 0.343 -2.075
1022 3 4 0.0600 406.95829999999995 -1.413 -1.652
1023 3 2 -0.1200 408.6273 0.0 0.0
1024 3 3 -0.0600 410.11530000000005 0.0 0.0
1025 3 1 -0.1800 410.7593 -1.276 -0.4069999999999999
1026 3 4 0.0600 408.3113 0.95 0.5149999999999999
1027 3 4 0.0600 408.1603 0.059999999999999935 -0.999
1028 3 4 0.0600 410.5303 0.869 -0.506
1029 3 4 0.0600 411.8473 -1.067 -0.5139999999999999
1030 3 4 0.0600 410.7033 -2.075 0.34300000000000014
1031 3 4 0.0600 410.4463 -1.652 -1.413
1032 3 2 -0.1200 412.11529999999993 0.0 0.0
1033 3 3 -0.0600 413.6033 0.0 0.0
1034 3 1 -0.1800 414.24729999999994 -0.407 1.276
1035 3 4 0.0600 411.79929999999996 0.515 -0.95
1036 3 4 0.0600 411.64829999999995 -0.999 -0.06
1037 3 4 0.0600 414.01829999999995 -0.506 -0.869
1038 3 4 0.0600 415.33529999999996 -0.514 1.067
1039 3 4 0.0600 414.19129999999996 0.343 2.075
1040 3 4 0.0600 413.93429999999995 -1.413 1.652
1041 3 2 -0.1200 415.6033 0.0 0.0
1042 3 3 -0.0600 417.09130000000005 0.0 0.0
1043 3 1 -0.1800 417.7353 -1.276 -0.4069999999999999
1044 3 4 0.0600 415.2873 0.95 0.5149999999999999
1045 3 4 0.0600 415.1363 0.059999999999999935 -0.999
1046 3 4 0.0600 417.5063 0.869 -0.506
1047 3 4 0.0600 418.8233 -1.067 -0.5139999999999999
1048 3 4 0.0600 417.6793 -2.075 0.34300000000000014
1049 3 4 0.0600 417.4223 -1.652 -1.413
1050 3 2 -0.1200 419.09129999999993 0.0 0.0
1051 3 3 -0.0600 420.5793 0.0 0.0
1052 3 1 -0.1800 421.22329999999994 -0.407 1.276
1053 3 4 0.0600 418.77529999999996 0.515 -0.95
1054 3 4 0.0600 418.62429999999995 -0.999 -0.06
1055 3 4 0.0600 420.99429999999995 -0.506 -0.869
1056 3 4 0.0600 422.31129999999996 -0.514 1.067
1057 3 4 0.0600 421.16729999999995 0.343 2.075
1058 3 4 0.0600 420.91029999999995 -1.413 1.652
1059 3 2 -0.1200 422.5793 0.0 0.0
1060 3 3 -0.0600 424.06730000000005 0.0 0.0
1061 3 1 -0.1800 424.7113 -1.276 -0.4069999999999999
1062 3 4 0.0600 422.2633 0.95 0.5149999999999999
1063 3 4 0.0600 422.1123 0.059999999999999935 -0.999
1064 3 4 0.0600 424.4823 0.869 -0.506
1065 3 4 0.0600 425.7993 -1.067 -0.5139999999999999
1066 3 4 0.0600 424.6553 -2.075 0.34300000000000014
1067 3 4 0.0600 424.3983 -1.652 -1.413
1068 3 2 -0.1200 426.06729999999993 0.0 0.0
1069 3 3 -0.0600 427.5553 0.0 0.0
1070 3 1 -0.1800 428.19929999999994 -0.407 -1.276
1071 3 4 0.0600 425.75129999999996 0.515 0.95
1072 3 4 0.0600 425.60029999999995 -0.999 0.06
1073 3 4 0.0600 427.97029999999995 -0.506 0.869
1074 3 4 0.0600 429.28729999999996 -0.514 -1.067
1075 3 4 0.0600 428.14329999999995 0.343 -2.075
1076 3 4 0.0600 427.88629999999995 -1.413 -1.652
1077 3 2 -0.1200 429.5553 0.0 0.0
1078 3 3 -0.0600 431.04330000000004 0.0 0.0
1079 3 1 -0.1800 431.6873 1.276 -0.40700000000000003
1080 3 4 0.0600 429.2393 -0.95 0.5150000000000001
1081 3 4 0.0600 429.0883 -0.06000000000000006 -0.999
1082 3 4 0.0600 431.4583 -0.869 -0.506
1083 3 4 0.0600 432.7753 1.067 -0.5140000000000001
1084 3 4 0.0600 431.6313 2.075 0.3429999999999999
1085 3 4 0.0600 431.3743 1.652 -1.413
1086 3 2 -0.1200 433.04329999999993 0.0 0.0
1087 3 3 -0.0600 434.5313 0.0 0.0
1088 3 1 -0.1800 435.17529999999994 -0.407 1.276
1089 3 4 0.0600 432.72729999999996 0.515 -0.95
1090 3 4 0.0600 432.57629999999995 -0.999 -0.06
1091 3 4 0.0600 434.94629999999995 -0.506 -0.869
1092 3 4 0.0600 436.26329999999996 -0.514 1.067
1093 3 4 0.0600 435.11929999999995 0.343 2.075
1094 3 4 0.0600 434.86229999999995 -1.413 1.652
1095 3 2 -0.1200 436.5313 0.0 0.0
1096 3 3 -0.0600 438.01930000000004 0.0 0.0
1097 3 1 -0.1800 438.6633 1.276 -0.40700000000000003
1098 3 4 0.0600 436.2153 -0.95 0.5150000000000001
1099 3 4 0.0600 436.0643 -0.06000000000000006 -0.999
1100 3 4 0.0600 438.4343 -0.869 -0.506
1101 3 4 0.0600 439.7513 1.067 -0.5140000000000001
1102 3 4 0.0600 438.6073 2.075 0.3429999999999999
1103 3 4 0.0600 438.3503 1.652 -1.413
1104 3 2 -0.1200 440.01929999999993 0.0 0.0
1105 3 3 -0.0600 441.5073 0.0 0.0
1106 3 1 -0.1800 442.15129999999994 -0.407 1.276
1107 3 4 0.0600 439.70329999999996 0.515 -0.95
1108 3 4 0.0600 439.55229999999995 -0.999 -0.06
1109 3 4 0.0600 441.92229999999995 -0.506 -0.869
1110 3 4 0.0600 443.23929999999996 -0.514 1.067
1111 3 4 0.0600 442.09529999999995 0.343 2.075
1112 3 4 0.0600 441.83829999999995 -1.413 1.652
1113 3 2 -0.1200 443.5073 0.0 0.0
1114 3 3 -0.0600 444.99530000000004 0.0 0.0
1115 3 1 -0.1800 445.6393 -1.276 -0.4069999999999999
1116 3 4 0.0600 443.1913 0.95 0.5149999999999999
1117 3 4 0.0600 443.0403 0.059999999999999935 -0.999
1118 3 4 0.0600 445.4103 0.869 -0.506
1119 3 4 0.0600 446.7273 -1.067 -0.5139999999999999
1120 3 4 0.0600 445.5833 -2.075 0.34300000000000014
1121 3 4 0.0600 445.3263 -1.652 -1.413
1122 3 2 -0.1200 446.99529999999993 0.0 0.0
1123 3 3 -0.0600 448.4833 0.0 0.0
1124 3 1 -0.1800 449.12729999999993 -0.407 1.276
1125 3 4 0.0600 446.67929999999996 0.515 -0.95
1126 3 4 0.0600 446.52829999999994 -0.999 -0.06
1127 3 4 0.0600 448.89829999999995 -0.506 -0.869
1128 3 4 0.0600 450.21529999999996 -0.514 1.067
1129 3 4 0.0600 449.07129999999995 0.343 2.075
1130 3 4 0.0600 448.81429999999995 -1.413 1.652
1131 3 2 -0.1200 450.4833 0.0 0.0
1132 3 3 -0.0600 451.97130000000004 0.0 0.0
1133 3 1 -0.1800 452.6153 1.276 -0.40700000000000003
1134 3 4 0.0600 450.1673 -0.95 0.5150000000000001
1135 3 4 0.0600 450.0163 -0.06000000000000006 -0.999
1136 3 4 0.0600 452.3863 -0.869 -0.506
1137 3 4 0.0600 453.7033 1.067 -0.5140000000000001
1138 3 4 0.0600 452.5593 2.075 0.3429999999999999
1139 3 4 0.0600 452.3023 1.652 -1.413
1140 3 2 -0.1200 453.9712999999999 0.0 0.0
1141 3 3 -0.0600 455.4593 0.0 0.0
1142 3 1 -0.1800 456.10329999999993 -0.407 1.276
1143 3 4 0.0600 453.65529999999995 0.515 -0.95
1144 3 4 0.0600 453.50429999999994 -0.999 -0.06
1145 3 4 0.0600 455.87429999999995 -0.506 -0.869
1146 3 4 0.0600 457.19129999999996 -0.514 1.067
1147 3 4 0.0600 456.04729999999995 0.343 2.075
1148 3 4 0.0600 455.79029999999995 -1.413 1.652
1149 3 2 -0.1200 457.4593 0.0 0.0
1150 3 3 -0.0600 458.94730000000004 0.0 0.0
1151 3 1 -0.1800 459.5913 1.276 -0.40700000000000003
1152 3 4 0.0600 457.1433 -0.95 0.5150000000000001
1153 3 4 0.0600 456.9923 -0.06000000000000006 -0.999
1154 3 4 0.0600 459.3623 -0.869 -0.506
1155 3 4 0.0600 460.6793 1.067 -0.5140000000000001
1156 3 4 0.0600 459.5353 2.075 0.3429999999999999
1157 3 4 0.0600 459.2783 1.652 -1.413
1158 3 2 -0.1200 460.9472999999999 0.0 0.0
1159 3 3 -0.0600 462.4353 0.0 0.0
1160 3 1 -0.1800 463.07929999999993 -0.407 -1.276
1161 3 4 0.0600 460.63129999999995 0.515 0.95
1162 3 4 0.0600 460.48029999999994 -0.999 0.06
1163 3 4 0.0600 462.85029999999995 -0.506 0.869
1164 3 4 0.0600 464.16729999999995 -0.514 -1.067
1165 3 4 0.0600 463.02329999999995 0.343 -2.075
1166 3 4 0.0600 462.76629999999994 -1.413 -1.652
1167 3 2 -0.1200 464.4353 0.0 0.0
1168 3 3 -0.0600 465.92330000000004 0.0 0.0
1169 3 1 -0.1800 466.5673 1.276 -0.40700000000000003
1170 3 4 0.0600 464.1193 -0.95 0.5150000000000001
1171 3 4 0.0600 463.9683 -0.06000000000000006 -0.999
1172 3 4 0.0600 466.3383 -0.869 -0.506
1173 3 4 0.0600 467.6553 1.067 -0.5140000000000001
1174 3 4 0.0600 466.5113 2.075 0.3429999999999999
1175 3 4 0.0600 466.2543 1.652 -1.413
1176 3 2 -0.1200 467.9232999999999 0.0 0.0
1177 3 3 -0.0600 469.4113 0.0 0.0
1178 3 1 -0.1800 470.05529999999993 -0.407 -1.276
1179 3 4 0.0600 467.60729999999995 0.515 0.95
1180 3 4 0.0600 467.45629999999994 -0.999 0.06
1181 3 4 0.0600 469.82629999999995 -0.506 0.869
1182 3 4 0.0600 471.14329999999995 -0.514 -1.067
1183 3 4 0.0600 469.99929999999995 0.343 -2.075
1184 3 4 0.0600 469.74229999999994 -1.413 -1.652
1185 3 2 -0.1200 471.4113 0.0 0.0
1186 3 3 -0.0600 472.89930000000004 0.0 0.0
1187 3 1 -0.1800 473.5433 1.276 -0.40700000000000003
1188 3 4 0.0600 471.0953 -0.95 0.5150000000000001
1189 3 4 0.0600 470.9443 -0.06000000000000006 -0.999
1190 3 4 0.0600 473.3143 -0.869 -0.506
1191 3 4 0.0600 474.6313 1.067 -0.5140000000000001
1192 3 4 0.0600 473.4873 2.075 0.3429999999999999
1193 3 4 0.0600 473.2303 1.652 -1.413
1194 3 2 -0.1200 474.8992999999999 0.0 0.0
1195 3 3 -0.0600 476.3873 0.0 0.0
1196 3 1 -0.1800 477.03129999999993 -0.407 1.276
1197 3 4 0.0600 474.58329999999995 0.515 -0.95
1198 3 4 0.0600 474.43229999999994 -0.999 -0.06
1199 3 4 0.0600 476.80229999999995 -0.506 -0.869
1200 3 4 0.0600 478.11929999999995 -0.514 1.067
1201 3 4 0.0600 476.97529999999995 0.343 2.075
1202 3 4 0.0600 476.71829999999994 -1.413 1.652
1203 3 2 -0.1200 478.3873 0.0 0.0
1204 3 3 -0.0600 479.87530000000004 0.0 0.0
1205 3 1 -0.1800 480.5193 1.276 -0.40700000000000003
1206 3 4 0.0600 478.0713 -0.95 0.5150000000000001
1207 3 4 0.0600 477.9203 -0.06000000000000006 -0.999
1208 3 4 0.0600 480.2903 -0.869 -0.506
1209 3 4 0.0600 481.6073 1.067 -0.5140000000000001
1210 3 4 0.0600 480.4633 2.075 0.3429999999999999
1211 3 4 0.0600 480.2063 1.652 -1.413
1212 3 2 -0.1200 481.8752999999999 0.0 0.0
1213 3 3 -0.0600 483.3633 0.0 0.0
1214 3 1 -0.1800 484.00729999999993 -0.407 1.276
1215 3 4 0.0600 481.55929999999995 0.515 -0.95
1216 3 4 0.0600 481.40829999999994 -0.999 -0.06
1217 3 4 0.0600 483.77829999999994 -0.506 -0.869
1218 3 4 0.0600 485.09529999999995 -0.514 1.067
1219 3 4 0.0600 483.95129999999995 0.343 2.075
1220 3 4 0.0600 483.69429999999994 -1.413 1.652
1221 3 2 -0.1200 485.3633 0.0 0.0
1222 3 3 -0.0600 486.85130000000004 0.0 0.0
1223 3 1 -0.1800 487.4953 1.276 -0.40700000000000003
1224 3 4 0.0600 485.0473 -0.95 0.5150000000000001
1225 3 4 0.0600 484.8963 -0.06000000000000006 -0.999
1226 3 4 0.0600 487.2663 -0.869 -0.506
1227 3 4 0.0600 488.5833 1.067 -0.5140000000000001
1228 3 4 0.0600 487.4393 2.075 0.3429999999999999
1229 3 4 0.0600 487.1823 1.652 -1.413
1230 3 2 -0.1200 488.8512999999999 0.0 0.0
1231 3 3 -0.0600 490.3393 0.0 0.0
1232 3 1 -0.1800 490.98329999999993 -0.407 1.276
1233 3 4 0.0600 488.53529999999995 0.515 -0.95
1234 3 4 0.0600 488.38429999999994 -0.999 -0.06
1235 3 4 0.0600 490.75429999999994 -0.506 -0.869
1236 3 4 0.0600 492.07129999999995 -0.514 1.067
1237 3 4 0.0600 490.92729999999995 0.343 2.075
1238 3 4 0.0600 490.67029999999994 -1.413 1.652
1239 3 2 -0.1200 492.3393 0.0 0.0
1240 3 3 -0.0600 493.82730000000004 0.0 0.0
1241 3 1 -0.1800 494.4713 1.276 -0.40700000000000003
1242 3 4 0.0600 492.0233 -0.95 0.5150000000000001
1243 3 4 0.0600 491.8723 -0.06000000000000006 -0.999
1244 3 4 0.0600 494.2423 -0.869 -0.506
1245 3 4 0.0600 495.5593 1.067 -0.5140000000000001
1246 3 4 0.0600 494.4153 2.075 0.3429999999999999
1247 3 4 0.0600 494.1583 1.652 -1.413
1248 3 2 -0.1200 495.8272999999999 0.0 0.0
1249 3 3 -0.0600 497.3153 0.0 0.0
1250 3 1 -0.1800 497.9592999999999 -0.407 -1.276
1251 3 4 0.0600 495.51129999999995 0.515 0.95
1252 3 4 0.0600 495.36029999999994 -0.999 0.06
1253 3 4 0.0600 497.73029999999994 -0.506 0.869
1254 3 4 0.0600 499.04729999999995 -0.514 -1.067
1255 3 4 0.0600 497.90329999999994 0.343 -2.075
1256 3 4 0.0600 497.64629999999994 -1.413 -1.652
1257 3 2 -0.1200 499.3153 0.0 0.0
1258 3 3 -0.0600 500.80330000000004 0.0 0.0
1259 3 1 -0.1800 501.4473 -1.276 -0.4069999999999999
1260 3 4 0.0600 498.9993 0.95 0.5149999999999999
1261 3 4 0.0600 498.8483 0.059999999999999935 -0.999
1262 3 4 0.0600 501.2183 0.869 -0.506
1263 3 4 0.0600 502.5353 -1.067 -0.5139999999999999
1264 3 4 0.0600 501.3913 -2.075 0.34300000000000014
1265 3 4 0.0600 501.1343 -1.652 -1.413
1266 3 2 -0.1200 502.8032999999999 0.0 0.0
1267 3 3 -0.0600 504.2913 0.0 0.0
1268 3 1 -0.1800 504.9352999999999 -0.407 -1.276
1269 3 4 0.0600 502.48729999999995 0.515 0.95
1270 3 4 0.0600 502.33629999999994 -0.999 0.06
1271 3 4 0.0600 504.70629999999994 -0.506 0.869
1272 3 4 0.0600 506.02329999999995 -0.514 -1.067
1273 3 4 0.0600 504.87929999999994 0.343 -2.075
1274 3 4 0.0600 504.62229999999994 -1.413 -1.652
1275 3 2 -0.1200 506.2913 0.0 0.0
1276 3 3 -0.0600 507.77930000000003 0.0 0.0
1277 3 1 -0.1800 508.4233 1.276 -0.40700000000000003
1278 3 4 0.0600 505.9753 -0.95 0.5150000000000001
1279 3 4 0.0600 505.8243 -0.06000000000000006 -0.999
1280 3 4 0.0600 508.1943 -0.869 -0.506
1281 3 4 0.0600 509.5113 1.067 -0.5140000000000001
1282 3 4 0.0600 508.3673 2.075 0.3429999999999999
1283 3 4 0.0600 508.1103 1.652 -1.413
1284 3 2 -0.1200 509.7792999999999 0.0 0.0
1285 3 3 -0.0600 511.2673 0.0 0.0
1286 3 1 -0.1800 511.9112999999999 -0.407 -1.276
1287 3 4 0.0600 509.46329999999995 0.515 0.95
1288 3 4 0.0600 509.31229999999994 -0.999 0.06
1289 3 4 0.0600 511.68229999999994 -0.506 0.869
1290 3 4 0.0600 512.9993 -0.514 -1.067
1291 3 4 0.0600 511.85529999999994 0.343 -2.075
1292 3 4 0.0600 511.59829999999994 -1.413 -1.652
1293 3 2 -0.1200 513.2673 0.0 0.0
1294 3 3 -0.0600 514.7553 0.0 0.0
1295 3 1 -0.1800 515.3993 -1.276 -0.4069999999999999
1296 3 4 0.0600 512.9513000000001 0.95 0.5149999999999999
1297 3 4 0.0600 512.8003 0.059999999999999935 -0.999
1298 3 4 0.0600 515.1703 0.869 -0.506
1299 3 4 0.0600 516.4873 -1.067 -0.5139999999999999
1300 3 4 0.0600 515.3433 -2.075 0.34300000000000014
1301 3 4 0.0600 515.0863 -1.652 -1.413
1302 3 2 -0.1200 516.7552999999999 0.0 0.0
1303 3 3 -0.0600 518.2433 0.0 0.0
1304 3 1 -0.1800 518.8873 -0.407 1.276
1305 3 4 0.0600 516.4393 0.515 -0.95
1306 3 4 0.0600 516.2882999999999 -0.999 -0.06
1307 3 4 0.0600 518.6582999999999 -0.506 -0.869
1308 3 4 0.0600 519.9753 -0.514 1.067
1309 3 4 0.0600 518.8312999999999 0.343 2.075
1310 3 4 0.0600 518.5743 -1.413 1.652
1311 3 2 -0.1200 520.2433 0.0 0.0
1312 3 3 -0.0600 521.7313 0.0 0.0
1313 3 1 -0.1800 522.3753 1.276 -0.40700000000000003
1314 3 4 0.0600 519.9273000000001 -0.95 0.5150000000000001
1315 3 4 0.0600 519.7763 -0.06000000000000006 -0.999
1316 3 4 0.0600 522.1463 -0.869 -0.506
1317 3 4 0.0600 523.4633 1.067 -0.5140000000000001
1318 3 4 0.0600 522.3193 2.075 0.3429999999999999
1319 3 4 0.0600 522.0623 1.652 -1.413
1320 3 2 -0.1200 523.7312999999999 0.0 0.0
1321 3 3 -0.0600 525.2193 0.0 0.0
1322 3 1 -0.1800 525.8633 -0.407 -1.276
1323 3 4 0.0600 523.4153 0.515 0.95
1324 3 4 0.0600 523.2642999999999 -0.999 0.06
1325 3 4 0.0600 525.6342999999999 -0.506 0.869
1326 3 4 0.0600 526.9513 -0.514 -1.067
1327 3 4 0.0600 525.8072999999999 0.343 -2.075
1328 3 4 0.0600 525.5503 -1.413 -1.652
1329 3 2 -0.1200 527.2193 0.0 0.0
1330 3 3 -0.0600 528.7073 0.0 0.0
1331 3 1 -0.1800 529.3513 1.276 -0.40700000000000003
1332 3 4 0.0600 526.9033000000001 -0.95 0.5150000000000001
1333 3 4 0.0600 526.7523 -0.06000000000000006 -0.999
1334 3 4 0.0600 529.1223 -0.869 -0.506
1335 3 4 0.0600 530.4393 1.067 -0.5140000000000001
1336 3 4 0.0600 529.2953 2.075 0.3429999999999999
1337 3 4 0.0600 529.0383 1.652 -1.413
1338 3 2 -0.1200 530.7072999999999 0.0 0.0
1339 3 3 -0.0600 532.1953 0.0 0.0
1340 3 1 -0.1800 532.8393 -0.407 -1.276
1341 3 4 0.0600 530.3913 0.515 0.95
1342 3 4 0.0600 530.2402999999999 -0.999 0.06
1343 3 4 0.0600 532.6102999999999 -0.506 0.869
1344 3 4 0.0600 533.9273 -0.514 -1.067
1345 3 4 0.0600 532.7832999999999 0.343 -2.075
1346 3 4 0.0600 532.5263 -1.413 -1.652
1347 3 2 -0.1200 533.2683 0.0 0.0
1348 3 2 -0.1200 534.6163 0.33000000000000007 0.57
1349 3 1 -0.1800 535.6373 -0.457 -0.24499999999999997
1350 3 4 0.0600 532.5013 0.35500000000000004 0.703
1351 3 4 0.0600 533.2053 0.43899999999999995 -1.008
1352 3 4 0.0600 534.7733 1.417 0.5029999999999999
1353 3 4 0.0600 534.7473 0.025000000000000102 1.618
1354 3 4 0.0600 535.4683 -0.36200000000000004 -1.33
1355 3 4 0.0600 535.5313 -1.506 0.05700000000000009
1356 3 4 0.0600 536.6103 0.0 0.0
1357 4 1 -0.1800 545.3050000000001 0.0 0.0
1358 4 3 -0.0600 546.789 0.0 0.0
1359 4 1 -0.1800 547.4350000000001 -0.424 1.258
1360 4 4 0.0600 544.828 -0.948 0.325
1361 4 4 0.0600 544.926 0.773 0.716
1362 4 4 0.0600 544.9680000000001 0.291 -1.017
1363 4 4 0.0600 547.278 -0.292 -0.93
1364 4 4 0.0600 548.3580000000001 0.202 1.4
1365 4 4 0.0600 547.751 -1.499 1.29
1366 4 4 0.0600 546.731 -0.259 2.096
1367 4 2 -0.1200 548.787 0.0 0.0
1368 4 3 -0.0600 550.2750000000001 0.0 0.0
1369 4 1 -0.1800 550.9190000000001 -1.276 -0.4069999999999999
1370 4 4 0.0600 548.4710000000001 0.95 0.5149999999999999
1371 4 4 0.0600 548.32 0.059999999999999935 -0.999
1372 4 4 0.0600 550.69 0.869 -0.506
1373 4 4 0.0600 552.0070000000001 -1.067 -0.5139999999999999
1374 4 4 0.0600 550.863 -2.075 0.34300000000000014
1375 4 4 0.0600 550.6060000000001 -1.652 -1.413
1376 4 2 -0.1200 552.275 0.0 0.0
1377 4 3 -0.0600 553.763 0.0 0.0
1378 4 1 -0.1800 554.407 -0.407 1.276
1379 4 4 0.0600 551.9590000000001 0.515 -0.95
1380 4 4 0.0600 551.808 -0.999 -0.06
1381 4 4 0.0600 554.178 -0.506 -0.869
1382 4 4 0.0600 555.495 -0.514 1.067
1383 4 4 0.0600 554.351 0.343 2.075
1384 4 4 0.0600 554.094 -1.413 1.652
1385 4 2 -0.1200 555.763 0.0 0.0
1386 4 3 -0.0600 557.2510000000001 0.0 0.0
1387 4 1 -0.1800 557.8950000000001 1.276 -0.40700000000000003
1388 4 4 0.0600 555.4470000000001 -0.95 0.5150000000000001
1389 4 4 0.0600 555.296 -0.06000000000000006 -0.999
1390 4 4 0.0600 557.666 -0.869 -0.506
1391 4 4 0.0600 558.9830000000001 1.067 -0.5140000000000001
1392 4 4 0.0600 557.839 2.075 0.3429999999999999
1393 4 4 0.0600 557.5820000000001 1.652 -1.413
1394 4 2 -0.1200 559.251 0.0 0.0
1395 4 3 -0.0600 560.739 0.0 0.0
1396 4 1 -0.1800 561.383 -0.407 1.276
1397 4 4 0.0600 558.9350000000001 0.515 -0.95
1398 4 4 0.0600 558.784 -0.999 -0.06
1399 4 4 0.0600 561.154 -0.506 -0.869
1400 4 4 0.0600 562.471 -0.514 1.067
1401 4 4 0.0600 561.327 0.343 2.075
1402 4 4 0.0600 561.07 -1.413 1.652
1403 4 2 -0.1200 562.739 0.0 0.0
1404 4 3 -0.0600 564.2270000000001 0.0 0.0
1405 4 1 -0.1800 564.8710000000001 1.276 -0.40700000000000003
1406 4 4 0.0600 562.4230000000001 -0.95 0.5150000000000001
1407 4 4 0.0600 562.272 -0.06000000000000006 -0.999
1408 4 4 0.0600 564.642 -0.869 -0.506
1409 4 4 0.0600 565.9590000000001 1.067 -0.5140000000000001
1410 4 4 0.0600 564.815 2.075 0.3429999999999999
1411 4 4 0.0600 564.5580000000001 1.652 -1.413
1412 4 2 -0.1200 566.227 0.0 0.0
1413 4 3 -0.0600 567.715 0.0 0.0
1414 4 1 -0.1800 568.359 -0.407 1.276
1415 4 4 0.0600 565.9110000000001 0.515 -0.95
1416 4 4 0.0600 565.76 -0.999 -0.06
1417 4 4 0.0600 568.13 -0.506 -0.869
1418 4 4 0.0600 569.447 -0.514 1.067
1419 4 4 0.0600 568.303 0.343 2.075
1420 4 4 0.0600 568.046 -1.413 1.652
1421 4 2 -0.1200 569.715 0.0 0.0
1422 4 3 -0.0600 571.2030000000001 0.0 0.0
1423 4 1 -0.1800 571.8470000000001 1.276 -0.40700000000000003
1424 4 4 0.0600 569.3990000000001 -0.95 0.5150000000000001
1425 4 4 0.0600 569.248 -0.06000000000000006 -0.999
1426 4 4 0.0600 571.618 -0.869 -0.506
1427 4 4 0.0600 572.9350000000001 1.067 -0.5140000000000001
1428 4 4 0.0600 571.791 2.075 0.3429999999999999
1429 4 4 0.0600 571.5340000000001 1.652 -1.413
1430 4 2 -0.1200 573.203 0.0 0.0
1431 4 3 -0.0600 574.691 0.0 0.0
1432 4 1 -0.1800 575.335 -0.407 1.276
1433 4 4 0.0600 572.8870000000001 0.515 -0.95
1434 4 4 0.0600 572.736 -0.999 -0.06
1435 4 4 0.0600 575.106 -0.506 -0.869
1436 4 4 0.0600 576.423 -0.514 1.067
1437 4 4 0.0600 575.279 0.343 2.075
1438 4 4 0.0600 575.022 -1.413 1.652
1439 4 2 -0.1200 576.691 0.0 0.0
1440 4 3 -0.0600 578.1790000000001 0.0 0.0
1441 4 1 -0.1800 578.8230000000001 1.276 -0.40700000000000003
1442 4 4 0.0600 576.3750000000001 -0.95 0.5150000000000001
1443 4 4 0.0600 576.224 -0.06000000000000006 -0.999
1444 4 4 0.0600 578.594 -0.869 -0.506
1445 4 4 0.0600 579.9110000000001 1.067 -0.5140000000000001
1446 4 4 0.0600 578.767 2.075 0.3429999999999999
1447 4 4 0.0600 578.5100000000001 1.652 -1.413
1448 4 2 -0.1200 580.179 0.0 0.0
1449 4 3 -0.0600 581.667 0.0 0.0
1450 4 1 -0.1800 582.311 -0.407 -1.276
1451 4 4 0.0600 579.863 0.515 0.95
1452 4 4 0.0600 579.712 -0.999 0.06
1453 4 4 0.0600 582.082 -0.506 0.869
1454 4 4 0.0600 583.399 -0.514 -1.067
1455 4 4 0.0600 582.255 0.343 -2.075
1456 4 4 0.0600 581.998 -1.413 -1.652
1457 4 2 -0.1200 583.667 0.0 0.0
1458 4 3 -0.0600 585.1550000000001 0.0 0.0
1459 4 1 -0.1800 585.7990000000001 -1.276 -0.4069999999999999
1460 4 4 0.0600 583.3510000000001 0.95 0.5149999999999999
1461 4 4 0.0600 583.2 0.059999999999999935 -0.999
1462 4 4 0.0600 585.57 0.869 -0.506
1463 4 4 0.0600 586.8870000000001 -1.067 -0.5139999999999999
1464 4 4 0.0600 585.743 -2.075 0.34300000000000014
1465 4 4 0.0600 585.4860000000001 -1.652 -1.413
1466 4 2 -0.1200 587.155 0.0 0.0
1467 4 3 -0.0600 588.643 0.0 0.0
1468 4 1 -0.1800 589.287 -0.407 -1.276
1469 4 4 0.0600 586.839 0.515 0.95
1470 4 4 0.0600 586.688 -0.999 0.06
1471 4 4 0.0600 589.058 -0.506 0.869
1472 4 4 0.0600 590.375 -0.514 -1.067
1473 4 4 0.0600 589.231 0.343 -2.075
1474 4 4 0.0600 588.974 -1.413 -1.652
1475 4 2 -0.1200 590.643 0.0 0.0
1476 4 3 -0.0600 592.1310000000001 0.0 0.0
1477 4 1 -0.1800 592.7750000000001 1.276 -0.40700000000000003
1478 4 4 0.0600 590.3270000000001 -0.95 0.5150000000000001
1479 4 4 0.0600 590.176 -0.06000000000000006 -0.999
1480 4 4 0.0600 592.546 -0.869 -0.506
1481 4 4 0.0600 593.863 1.067 -0.5140000000000001
1482 4 4 0.0600 592.719 2.075 0.3429999999999999
1483 4 4 0.0600 592.4620000000001 1.652 -1.413
1484 4 2 -0.1200 594.131 0.0 0.0
1485 4 3 -0.0600 595.619 0.0 0.0
1486 4 1 -0.1800 596.263 -0.407 -1.276
1487 4 4 0.0600 593.815 0.515 0.95
1488 4 4 0.0600 593.664 -0.999 0.06
1489 4 4 0.0600 596.034 -0.506 0.869
1490 4 4 0.0600 597.351 -0.514 -1.067
1491 4 4 0.0600 596.207 0.343 -2.075
1492 4 4 0.0600 595.95 -1.413 -1.652
1493 4 2 -0.1200 597.619 0.0 0.0
1494 4 3 -0.0600 599.1070000000001 0.0 0.0
1495 4 1 -0.1800 599.7510000000001 1.276 -0.40700000000000003
1496 4 4 0.0600 597.3030000000001 -0.95 0.5150000000000001
1497 4 4 0.0600 597.152 -0.06000000000000006 -0.999
1498 4 4 0.0600 599.522 -0.869 -0.506
1499 4 4 0.0600 600.839 1.067 -0.5140000000000001
1500 4 4 0.0600 599.695 2.075 0.3429999999999999
1501 4 4 0.0600 599.4380000000001 1.652 -1.413
1502 4 2 -0.1200 601.107 0.0 0.0
1503 4 3 -0.0600 602.595 0.0 0.0
1504 4 1 -0.1800 603.239 -0.407 1.276
1505 4 4 0.0600 600.791 0.515 -0.95
1506 4 4 0.0600 600.64 -0.999 -0.06
1507 4 4 0.0600 603.01 -0.506 -0.869
1508 4 4 0.0600 604.327 -0.514 1.067
1509 4 4 0.0600 603.183 0.343 2.075
1510 4 4 0.0600 602.926 -1.413 1.652
1511 4 2 -0.1200 604.595 0.0 0.0
1512 4 3 -0.0600 606.0830000000001 0.0 0.0
1513 4 1 -0.1800 606.7270000000001 1.276 -0.40700000000000003
1514 4 4 0.0600 604.2790000000001 -0.95 0.5150000000000001
1515 4 4 0.0600 604.128 -0.06000000000000006 -0.999
1516 4 4 0.0600 606.498 -0.869 -0.506
1517 4 4 0.0600 607.815 1.067 -0.5140000000000001
1518 4 4 0.0600 606.671 2.075 0.3429999999999999
1519 4 4 0.0600 606.4140000000001 1.652 -1.413
1520 4 2 -0.1200 608.083 0.0 0.0
1521 4 3 -0.0600 609.571 0.0 0.0
1522 4 1 -0.1800 610.215 -0.407 -1.276
1523 4 4 0.0600 607.767 0.515 0.95
1524 4 4 0.0600 607.616 -0.999 0.06
1525 4 4 0.0600 609.986 -0.506 0.869
1526 4 4 0.0600 611.303 -0.514 -1.067
1527 4 4 0.0600 610.159 0.343 -2.075
1528 4 4 0.0600 609.902 -1.413 -1.652
1529 4 2 -0.1200 611.571 0.0 0.0
1530 4 3 -0.0600 613.0590000000001 0.0 0.0
1531 4 1 -0.1800 613.7030000000001 1.276 -0.40700000000000003
1532 4 4 0.0600 611.2550000000001 -0.95 0.5150000000000001
1533 4 4 0.0600 611.104 -0.06000000000000006 -0.999
1534 4 4 0.0600 613.474 -0.869 -0.506
1535 4 4 0.0600 614.791 1.067 -0.5140000000000001
1536 4 4 0.0600 613.647 2.075 0.3429999999999999
1537 4 4 0.0600 613.3900000000001 1.652 -1.413
1538 4 2 -0.1200 615.059 0.0 0.0
1539 4 3 -0.0600 616.547 0.0 0.0
1540 4 1 -0.1800 617.191 -0.407 1.276
1541 4 4 0.0600 614.743 0.515 -0.95
1542 4 4 0.0600 614.592 -0.999 -0.06
1543 4 4 0.0600 616.962 -0.506 -0.869
1544 4 4 0.0600 618.279 -0.514 1.067
1545 4 4 0.0600 617.135 0.343 2.075
1546 4 4 0.0600 616.878 -1.413 1.652
1547 4 2 -0.1200 618.547 0.0 0.0
1548 4 3 -0.0600 620.0350000000001 0.0 0.0
1549 4 1 -0.1800 620.6790000000001 1.276 -0.40700000000000003
1550 4 4 0.0600 618.2310000000001 -0.95 0.5150000000000001
1551 4 4 0.0600 618.08 -0.06000000000000006 -0.999
1552 4 4 0.0600 620.45 -0.869 -0.506
1553 4 4 0.0600 621.767 1.067 -0.5140000000000001
1554 4 4 0.0600 620.623 2.075 0.3429999999999999
1555 4 4 0.0600 620.3660000000001 1.652 -1.413
1556 4 2 -0.1200 622.035 0.0 0.0
1557 4 3 -0.0600 623.523 0.0 0.0
1558 4 1 -0.1800 624.167 -0.407 -1.276
1559 4 4 0.0600 621.719 0.515 0.95
1560 4 4 0.0600 621.568 -0.999 0.06
1561 4 4 0.0600 623.938 -0.506 0.869
1562 4 4 0.0600 625.255 -0.514 -1.067
1563 4 4 0.0600 624.111 0.343 -2.075
1564 4 4 0.0600 623.854 -1.413 -1.652
1565 4 2 -0.1200 625.523 0.0 0.0
1566 4 3 -0.0600 627.0110000000001 0.0 0.0
1567 4 1 -0.1800 627.6550000000001 1.276 -0.40700000000000003
1568 4 4 0.0600 625.2070000000001 -0.95 0.5150000000000001
1569 4 4 0.0600 625.056 -0.06000000000000006 -0.999
1570 4 4 0.0600 627.426 -0.869 -0.506
1571 4 4 0.0600 628.743 1.067 -0.5140000000000001
1572 4 4 0.0600 627.599 2.075 0.3429999999999999
1573 4 4 0.0600 627.3420000000001 1.652 -1.413
1574 4 2 -0.1200 629.011 0.0 0.0
1575 4 3 -0.0600 630.499 0.0 0.0
1576 4 1 -0.1800 631.143 -0.407 -1.276
1577 4 4 0.0600 628.695 0.515 0.95
1578 4 4 0.0600 628.544 -0.999 0.06
1579 4 4 0.0600 630.914 -0.506 0.869
1580 4 4 0.0600 632.231 -0.514 -1.067
1581 4 4 0.0600 631.087 0.343 -2.075
1582 4 4 0.0600 630.83 -1.413 -1.652
1583 4 2 -0.1200 632.499 0.0 0.0
1584 4 3 -0.0600 633.9870000000001 0.0 0.0
1585 4 1 -0.1800 634.6310000000001 1.276 -0.40700000000000003
1586 4 4 0.0600 632.1830000000001 -0.95 0.5150000000000001
1587 4 4 0.0600 632.032 -0.06000000000000006 -0.999
1588 4 4 0.0600 634.402 -0.869 -0.506
1589 4 4 0.0600 635.719 1.067 -0.5140000000000001
1590 4 4 0.0600 634.575 2.075 0.3429999999999999
1591 4 4 0.0600 634.3180000000001 1.652 -1.413
1592 4 2 -0.1200 635.987 0.0 0.0
1593 4 3 -0.0600 637.475 0.0 0.0
1594 4 1 -0.1800 638.119 -0.407 1.276
1595 4 4 0.0600 635.671 0.515 -0.95
1596 4 4 0.0600 635.52 -0.999 -0.06
1597 4 4 0.0600 637.89 -0.506 -0.869
1598 4 4 0.0600 639.207 -0.514 1.067
1599 4 4 0.0600 638.063 0.343 2.075
1600 4 4 0.0600 637.806 -1.413 1.652
1601 4 2 -0.1200 639.475 0.0 0.0
1602 4 3 -0.0600 640.9630000000001 0.0 0.0
1603 4 1 -0.1800 641.6070000000001 -1.276 -0.4069999999999999
1604 4 4 0.0600 639.1590000000001 0.95 0.5149999999999999
1605 4 4 0.0600 639.008 0.059999999999999935 -0.999
1606 4 4 0.0600 641.378 0.869 -0.506
1607 4 4 0.0600 642.695 -1.067 -0.5139999999999999
1608 4 4 0.0600 641.551 -2.075 0.34300000000000014
1609 4 4 0.0600 641.2940000000001 -1.652 -1.413
1610 4 2 -0.1200 642.963 0.0 0.0
1611 4 3 -0.0600 644.451 0.0 0.0
1612 4 1 -0.1800 645.095 -0.407 1.276
1613 4 4 0.0600 642.647 0.515 -0.95
1614 4 4 0.0600 642.496 -0.999 -0.06
1615 4 4 0.0600 644.866 -0.506 -0.869
1616 4 4 0.0600 646.183 -0.514 1.067
1617 4 4 0.0600 645.039 0.343 2.075
1618 4 4 0.0600 644.782 -1.413 1.652
1619 4 2 -0.1200 646.451 0.0 0.0
1620 4 3 -0.0600 647.9390000000001 0.0 0.0
1621 4 1 -0.1800 648.5830000000001 1.276 -0.40700000000000003
1622 4 4 0.0600 646.1350000000001 -0.95 0.5150000000000001
1623 4 4 0.0600 645.984 -0.06000000000000006 -0.999
1624 4 4 0.0600 648.354 -0.869 -0.506
1625 4 4 0.0600 649.671 1.067 -0.5140000000000001
1626 4 4 0.0600 648.527 2.075 0.3429999999999999
1627 4 4 0.0600 648.2700000000001 1.652 -1.413
1628 4 2 -0.1200 649.939 0.0 0.0
1629 4 3 -0.0600 651.427 0.0 0.0
1630 4 1 -0.1800 652.071 -0.407 -1.276
1631 4 4 0.0600 649.623 0.515 0.95
1632 4 4 0.0600 649.472 -0.999 0.06
1633 4 4 0.0600 651.842 -0.506 0.869
1634 4 4 0.0600 653.159 -0.514 -1.067
1635 4 4 0.0600 652.015 0.343 -2.075
1636 4 4 0.0600 651.758 -1.413 -1.652
1637 4 2 -0.1200 653.427 0.0 0.0
1638 4 3 -0.0600 654.9150000000001 0.0 0.0
1639 4 1 -0.1800 655.5590000000001 -1.276 -0.4069999999999999
1640 4 4 0.0600 653.1110000000001 0.95 0.5149999999999999
1641 4 4 0.0600 652.96 0.059999999999999935 -0.999
1642 4 4 0.0600 655.33 0.869 -0.506
1643 4 4 0.0600 656.647 -1.067 -0.5139999999999999
1644 4 4 0.0600 655.503 -2.075 0.34300000000000014
1645 4 4 0.0600 655.2460000000001 -1.652 -1.413
1646 4 2 -0.1200 656.915 0.0 0.0
1647 4 3 -0.0600 658.403 0.0 0.0
1648 4 1 -0.1800 659.047 -0.407 1.276
1649 4 4 0.0600 656.599 0.515 -0.95
1650 4 4 0.0600 656.448 -0.999 -0.06
1651 4 4 0.0600 658.818 -0.506 -0.869
1652 4 4 0.0600 660.135 -0.514 1.067
1653 4 4 0.0600 658.991 0.343 2.075
1654 4 4 0.0600 658.734 -1.413 1.652
1655 4 2 -0.1200 660.403 0.0 0.0
1656 4 3 -0.0600 661.8910000000001 0.0 0.0
1657 4 1 -0.1800 662.5350000000001 -1.276 -0.4069999999999999
1658 4 4 0.0600 660.0870000000001 0.95 0.5149999999999999
1659 4 4 0.0600 659.936 0.059999999999999935 -0.999
1660 4 4 0.0600 662.306 0.869 -0.506
1661 4 4 0.0600 663.623 -1.067 -0.5139999999999999
1662 4 4 0.0600 662.479 -2.075 0.34300000000000014
1663 4 4 0.0600 662.2220000000001 -1.652 -1.413
1664 4 2 -0.1200 663.891 0.0 0.0
1665 4 3 -0.0600 665.379 0.0 0.0
1666 4 1 -0.1800 666.023 -0.407 1.276
1667 4 4 0.0600 663.575 0.515 -0.95
1668 4 4 0.0600 663.424 -0.999 -0.06
1669 4 4 0.0600 665.794 -0.506 -0.869
1670 4 4 0.0600 667.111 -0.514 1.067
1671 4 4 0.0600 665.967 0.343 2.075
1672 4 4 0.0600 665.71 -1.413 1.652
1673 4 2 -0.1200 667.379 0.0 0.0
1674 4 3 -0.0600 668.8670000000001 0.0 0.0
1675 4 1 -0.1800 669.5110000000001 1.276 -0.40700000000000003
1676 4 4 0.0600 667.0630000000001 -0.95 0.5150000000000001
1677 4 4 0.0600 666.912 -0.06000000000000006 -0.999
1678 4 4 0.0600 669.282 -0.869 -0.506
1679 4 4 0.0600 670.599 1.067 -0.5140000000000001
1680 4 4 0.0600 669.455 2.075 0.3429999999999999
1681 4 4 0.0600 669.1980000000001 1.652 -1.413
1682 4 2 -0.1200 670.867 0.0 0.0
1683 4 3 -0.0600 672.355 0.0 0.0
1684 4 1 -0.1800 672.999 -0.407 -1.276
1685 4 4 0.0600 670.551 0.515 0.95
1686 4 4 0.0600 670.4 -0.999 0.06
1687 4 4 0.0600 672.77 -0.506 0.869
1688 4 4 0.0600 674.087 -0.514 -1.067
1689 4 4 0.0600 672.943 0.343 -2.075
1690 4 4 0.0600 672.686 -1.413 -1.652
1691 4 2 -0.1200 674.355 0.0 0.0
1692 4 3 -0.0600 675.8430000000001 0.0 0.0
1693 4 1 -0.1800 676.4870000000001 1.276 -0.40700000000000003
1694 4 4 0.0600 674.0390000000001 -0.95 0.5150000000000001
1695 4 4 0.0600 673.888 -0.06000000000000006 -0.999
1696 4 4 0.0600 676.258 -0.869 -0.506
1697 4 4 0.0600 677.575 1.067 -0.5140000000000001
1698 4 4 0.0600 676.431 2.075 0.3429999999999999
1699 4 4 0.0600 676.1740000000001 1.652 -1.413
1700 4 2 -0.1200 677.843 0.0 0.0
1701 4 3 -0.0600 679.331 0.0 0.0
1702 4 1 -0.1800 679.975 -0.407 -1.276
1703 4 4 0.0600 677.527 0.515 0.95
1704 4 4 0.0600 677.376 -0.999 0.06
1705 4 4 0.0600 679.746 -0.506 0.869
1706 4 4 0.0600 681.063 -0.514 -1.067
1707 4 4 0.0600 679.919 0.343 -2.075
1708 4 4 0.0600 679.662 -1.413 -1.652
1709 4 2 -0.1200 681.331 0.0 0.0
1710 4 3 -0.0600 682.8190000000001 0.0 0.0
1711 4 1 -0.1800 683.4630000000001 1.276 -0.40700000000000003
1712 4 4 0.0600 681.0150000000001 -0.95 0.5150000000000001
1713 4 4 0.0600 680.864 -0.06000000000000006 -0.999
1714 4 4 0.0600 683.234 -0.869 -0.506
1715 4 4 0.0600 684.551 1.067 -0.5140000000000001
1716 4 4 0.0600 683.407 2.075 0.3429999999999999
1717 4 4 0.0600 683.1500000000001 1.652 -1.413
1718 4 2 -0.1200 684.819 0.0 0.0
1719 4 3 -0.0600 686.307 0.0 0.0
1720 4 1 -0.1800 686.951 -0.407 1.276
1721 4 4 0.0600 684.503 0.515 -0.95
1722 4 4 0.0600 684.352 -0.999 -0.06
1723 4 4 0.0600 686.722 -0.506 -0.869
1724 4 4 0.0600 688.039 -0.514 1.067
1725 4 4 0.0600 686.895 0.343 2.075
1726 4 4 0.0600 686.638 -1.413 1.652
1727 4 2 -0.1200 688.307 0.0 0.0
1728 4 3 -0.0600 689.7950000000001 0.0 0.0
1729 4 1 -0.1800 690.4390000000001 -1.276 -0.4069999999999999
1730 4 4 0.0600 687.9910000000001 0.95 0.5149999999999999
1731 4 4 0.0600 687.84 0.059999999999999935 -0.999
1732 4 4 0.0600 690.21 0.869 -0.506
1733 4 4 0.0600 691.527 -1.067 -0.5139999999999999
1734 4 4 0.0600 690.383 -2.075 0.34300000000000014
1735 4 4 0.0600 690.1260000000001 -1.652 -1.413
1736 4 2 -0.1200 691.795 0.0 0.0
1737 4 3 -0.0600 693.283 0.0 0.0
1738 4 1 -0.1800 693.927 -0.407 1.276
1739 4 4 0.0600 691.479 0.515 -0.95
1740 4 4 0.0600 691.328 -0.999 -0.06
1741 4 4 0.0600 693.698 -0.506 -0.869
1742 4 4 0.0600 695.015 -0.514 1.067
1743 4 4 0.0600 693.871 0.343 2.075
1744 4 4 0.0600 693.614 -1.413 1.652
1745 4 2 -0.1200 695.283 0.0 0.0
1746 4 3 -0.0600 696.7710000000001 0.0 0.0
1747 4 1 -0.1800 697.4150000000001 1.276 -0.40700000000000003
1748 4 4 0.0600 694.9670000000001 -0.95 0.5150000000000001
1749 4 4 0.0600 694.816 -0.06000000000000006 -0.999
1750 4 4 0.0600 697.186 -0.869 -0.506
1751 4 4 0.0600 698.503 1.067 -0.5140000000000001
1752 4 4 0.0600 697.359 2.075 0.3429999999999999
1753 4 4 0.0600 697.1020000000001 1.652 -1.413
1754 4 2 -0.1200 698.771 0.0 0.0
1755 4 3 -0.0600 700.259 0.0 0.0
1756 4 1 -0.1800 700.903 -0.407 -1.276
1757 4 4 0.0600 698.455 0.515 0.95
1758 4 4 0.0600 698.304 -0.999 0.06
1759 4 4 0.0600 700.674 -0.506 0.869
1760 4 4 0.0600 701.991 -0.514 -1.067
1761 4 4 0.0600 700.847 0.343 -2.075
1762 4 4 0.0600 700.59 -1.413 -1.652
1763 4 2 -0.1200 702.259 0.0 0.0
1764 4 3 -0.0600 703.7470000000001 0.0 0.0
1765 4 1 -0.1800 704.3910000000001 1.276 -0.40700000000000003
1766 4 4 0.0600 701.9430000000001 -0.95 0.5150000000000001
1767 4 4 0.0600 701.792 -0.06000000000000006 -0.999
1768 4 4 0.0600 704.162 -0.869 -0.506
1769 4 4 0.0600 705.479 1.067 -0.5140000000000001
1770 4 4 0.0600 704.335 2.075 0.3429999999999999
1771 4 4 0.0600 704.0780000000001 1.652 -1.413
1772 4 2 -0.1200 705.747 0.0 0.0
1773 4 3 -0.0600 707.235 0.0 0.0
1774 4 1 -0.1800 707.879 -0.407 1.276
1775 4 4 0.0600 705.431 0.515 -0.95
1776 4 4 0.0600 705.28 -0.999 -0.06
1777 4 4 0.0600 707.65 -0.506 -0.869
1778 4 4 0.0600 708.967 -0.514 1.067
1779 4 4 0.0600 707.823 0.343 2.075
1780 4 4 0.0600 707.566 -1.413 1.652
1781 4 2 -0.1200 709.235 0.0 0.0
1782 4 3 -0.0600 710.7230000000001 0.0 0.0
1783 4 1 -0.1800 711.3670000000001 1.276 -0.40700000000000003
1784 4 4 0.0600 708.9190000000001 -0.95 0.5150000000000001
1785 4 4 0.0600 708.768 -0.06000000000000006 -0.999
1786 4 4 0.0600 711.138 -0.869 -0.506
1787 4 4 0.0600 712.455 1.067 -0.5140000000000001
1788 4 4 0.0600 711.311 2.075 0.3429999999999999
1789 4 4 0.0600 711.0540000000001 1.652 -1.413
1790 4 2 -0.1200 712.723 0.0 0.0
1791 4 3 -0.0600 714.211 0.0 0.0
1792 4 1 -0.1800 714.855 -0.407 -1.276
1793 4 4 0.0600 712.407 0.515 0.95
1794 4 4 0.0600 712.256 -0.999 0.06
1795 4 4 0.0600 714.626 -0.506 0.869
1796 4 4 0.0600 715.943 -0.514 -1.067
1797 4 4 0.0600 714.799 0.343 -2.075
1798 4 4 0.0600 714.542 -1.413 -1.652
1799 4 2 -0.1200 715.284 0.0 0.0
1800 4 2 -0.1200 716.6320000000001 -0.32999999999999996 0.57
1801 4 1 -0.1800 717.653 0.457 -0.24500000000000002
1802 4 4 0.0600 714.517 -0.3549999999999999 0.703
1803 4 4 0.0600 715.221 -0.43900000000000006 -1.008
1804 4 4 0.0600 716.789 -1.417 0.5030000000000001
1805 4 4 0.0600 716.763 -0.0249999999999999 1.618
1806 4 4 0.0600 717.484 0.36199999999999993 -1.33
1807 4 4 0.0600 717.547 1.506 0.05699999999999991
1808 4 4 0.0600 718.6260000000001 0.0 0.0
1809 5 1 -0.1800 -0.742 182.0157 0.0
1810 5 3 -0.0600 0.742 182.0157 0.0
1811 5 1 -0.1800 1.388 181.5917 -1.258
1812 5 4 0.0600 -1.219 181.0677 -0.325
1813 5 4 0.0600 -1.121 182.7887 -0.716
1814 5 4 0.0600 -1.079 182.3067 1.017
1815 5 4 0.0600 1.231 181.7237 0.93
1816 5 4 0.0600 2.311 182.2177 -1.4
1817 5 4 0.0600 1.704 180.51670000000001 -1.29
1818 5 4 0.0600 0.684 181.75670000000002 -2.096
1819 5 2 -0.1200 2.74 182.0157 0.0
1820 5 3 -0.0600 4.228 182.0157 0.0
1821 5 1 -0.1800 4.872 180.7397 -0.4069999999999999
1822 5 4 0.0600 2.424 182.9657 0.5149999999999999
1823 5 4 0.0600 2.2729999999999997 182.0757 -0.999
1824 5 4 0.0600 4.643 182.8847 -0.506
1825 5 4 0.0600 5.96 180.9487 -0.5139999999999999
1826 5 4 0.0600 4.816 179.94070000000002 0.34300000000000014
1827 5 4 0.0600 4.559 180.36370000000002 -1.413
1828 5 2 -0.1200 6.228000000000001 182.0157 0.0
1829 5 3 -0.0600 7.716 182.0157 0.0
1830 5 1 -0.1800 8.36 181.6087 1.276
1831 5 4 0.0600 5.912000000000001 182.5307 -0.95
1832 5 4 0.0600 5.761 181.01670000000001 -0.06
1833 5 4 0.0600 8.131 181.5097 -0.869
1834 5 4 0.0600 9.448 181.5017 1.067
1835 5 4 0.0600 8.304 182.3587 2.075
1836 5 4 0.0600 8.047 180.6027 1.652
1837 5 2 -0.1200 9.716000000000001 182.0157 0.0
1838 5 3 -0.0600 11.204 182.0157 0.0
1839 5 1 -0.1800 11.848 180.7397 -0.4069999999999999
1840 5 4 0.0600 9.4 182.9657 0.5149999999999999
1841 5 4 0.0600 9.249 182.0757 -0.999
1842 5 4 0.0600 11.619000000000002 182.8847 -0.506
1843 5 4 0.0600 12.936 180.9487 -0.5139999999999999
1844 5 4 0.0600 11.792000000000002 179.94070000000002 0.34300000000000014
1845 5 4 0.0600 11.535 180.36370000000002 -1.413
1846 5 2 -0.1200 13.204 182.0157 0.0
1847 5 3 -0.0600 14.692 182.0157 0.0
1848 5 1 -0.1800 15.336 181.6087 1.276
1849 5 4 0.0600 12.888 182.5307 -0.95
1850 5 4 0.0600 12.737 181.01670000000001 -0.06
1851 5 4 0.0600 15.107000000000001 181.5097 -0.869
1852 5 4 0.0600 16.424 181.5017 1.067
1853 5 4 0.0600 15.280000000000001 182.3587 2.075
1854 5 4 0.0600 15.023 180.6027 1.652
1855 5 2 -0.1200 16.692 182.0157 0.0
1856 5 3 -0.0600 18.18 182.0157 0.0
1857 5 1 -0.1800 18.823999999999998 180.7397 -0.4069999999999999
1858 5 4 0.0600 16.376 182.9657 0.5149999999999999
1859 5 4 0.0600 16.225 182.0757 -0.999
1860 5 4 0.0600 18.595 182.8847 -0.506
1861 5 4 0.0600 19.912 180.9487 -0.5139999999999999
1862 5 4 0.0600 18.768 179.94070000000002 0.34300000000000014
1863 5 4 0.0600 18.511 180.36370000000002 -1.413
1864 5 2 -0.1200 20.18 182.0157 0.0
1865 5 3 -0.0600 21.668 182.0157 0.0
1866 5 1 -0.1800 22.311999999999998 181.6087 -1.276
1867 5 4 0.0600 19.864 182.5307 0.95
1868 5 4 0.0600 19.713 181.01670000000001 0.06
1869 5 4 0.0600 22.083 181.5097 0.869
1870 5 4 0.0600 23.4 181.5017 -1.067
1871 5 4 0.0600 22.256 182.3587 -2.075
1872 5 4 0.0600 21.999 180.6027 -1.652
1873 5 2 -0.1200 23.668 182.0157 0.0
1874 5 3 -0.0600 25.156 182.0157 0.0
1875 5 1 -0.1800 25.799999999999997 180.7397 -0.4069999999999999
1876 5 4 0.0600 23.352 182.9657 0.5149999999999999
1877 5 4 0.0600 23.201 182.0757 -0.999
1878 5 4 0.0600 25.570999999999998 182.8847 -0.506
1879 5 4 0.0600 26.887999999999998 180.9487 -0.5139999999999999
1880 5 4 0.0600 25.744 179.94070000000002 0.34300000000000014
1881 5 4 0.0600 25.487 180.36370000000002 -1.413
1882 5 2 -0.1200 27.156 182.0157 0.0
1883 5 3 -0.0600 28.644 182.0157 0.0
1884 5 1 -0.1800 29.287999999999997 181.6087 -1.276
1885 5 4 0.0600 26.84 182.5307 0.95
1886 5 4 0.0600 26.689 181.01670000000001 0.06
1887 5 4 0.0600 29.058999999999997 181.5097 0.869
1888 5 4 0.0600 30.375999999999998 181.5017 -1.067
1889 5 4 0.0600 29.232 182.3587 -2.075
1890 5 4 0.0600 28.974999999999998 180.6027 -1.652
1891 5 2 -0.1200 30.644000000000002 182.0157 0.0
1892 5 3 -0.0600 32.132000000000005 182.0157 0.0
1893 5 1 -0.1800 32.776 180.7397 -0.4069999999999999
1894 5 4 0.0600 30.328000000000003 182.9657 0.5149999999999999
1895 5 4 0.0600 30.177000000000003 182.0757 -0.999
1896 5 4 0.0600 32.547000000000004 182.8847 -0.506
1897 5 4 0.0600 33.864000000000004 180.9487 -0.5139999999999999
1898 5 4 0.0600 32.72 179.94070000000002 0.34300000000000014
1899 5 4 0.0600 32.463 180.36370000000002 -1.413
1900 5 2 -0.1200 34.132 182.0157 0.0
1901 5 3 -0.0600 35.62 182.0157 0.0
1902 5 1 -0.1800 36.263999999999996 181.6087 1.276
1903 5 4 0.0600 33.815999999999995 182.5307 -0.95
1904 5 4 0.0600 33.665 181.01670000000001 -0.06
1905 5 4 0.0600 36.035 181.5097 -0.869
1906 5 4 0.0600 37.352 181.5017 1.067
1907 5 4 0.0600 36.208 182.3587 2.075
1908 5 4 0.0600 35.951 180.6027 1.652
1909 5 2 -0.1200 37.62 182.0157 0.0
1910 5 3 -0.0600 39.108 182.0157 0.0
1911 5 1 -0.1800 39.751999999999995 180.7397 -0.4069999999999999
1912 5 4 0.0600 37.303999999999995 182.9657 0.5149999999999999
1913 5 4 0.0600 37.153 182.0757 -0.999
1914 5 4 0.0600 39.522999999999996 182.8847 -0.506
1915 5 4 0.0600 40.839999999999996 180.9487 -0.5139999999999999
1916 5 4 0.0600 39.696 179.94070000000002 0.34300000000000014
1917 5 4 0.0600 39.439 180.36370000000002 -1.413
1918 5 2 -0.1200 41.108 182.0157 0.0
1919 5 3 -0.0600 42.596 182.0157 0.0
1920 5 1 -0.1800 43.239999999999995 181.6087 -1.276
1921 5 4 0.0600 40.791999999999994 182.5307 0.95
1922 5 4 0.0600 40.641 181.01670000000001 0.06
1923 5 4 0.0600 43.010999999999996 181.5097 0.869
1924 5 4 0.0600 44.327999999999996 181.5017 -1.067
1925 5 4 0.0600 43.184 182.3587 -2.075
1926 5 4 0.0600 42.927 180.6027 -1.652
1927 5 2 -0.1200 44.596000000000004 182.0157 0.0
1928 5 3 -0.0600 46.084 182.0157 0.0
1929 5 1 -0.1800 46.728 183.29170000000002 -0.40700000000000003
1930 5 4 0.0600 44.28 181.06570000000002 0.5150000000000001
1931 5 4 0.0600 44.129000000000005 181.9557 -0.999
1932 5 4 0.0600 46.499 181.1467 -0.506
1933 5 4 0.0600 47.816 183.08270000000002 -0.5140000000000001
1934 5 4 0.0600 46.672000000000004 184.0907 0.3429999999999999
1935 5 4 0.0600 46.415000000000006 183.6677 -1.413
1936 5 2 -0.1200 48.084 182.0157 0.0
1937 5 3 -0.0600 49.572 182.0157 0.0
1938 5 1 -0.1800 50.216 181.6087 -1.276
1939 5 4 0.0600 47.768 182.5307 0.95
1940 5 4 0.0600 47.617000000000004 181.01670000000001 0.06
1941 5 4 0.0600 49.987 181.5097 0.869
1942 5 4 0.0600 51.304 181.5017 -1.067
1943 5 4 0.0600 50.160000000000004 182.3587 -2.075
1944 5 4 0.0600 49.903000000000006 180.6027 -1.652
1945 5 2 -0.1200 51.572 182.0157 0.0
1946 5 3 -0.0600 53.06 182.0157 0.0
1947 5 1 -0.1800 53.704 180.7397 -0.4069999999999999
1948 5 4 0.0600 51.256 182.9657 0.5149999999999999
1949 5 4 0.0600 51.105000000000004 182.0757 -0.999
1950 5 4 0.0600 53.475 182.8847 -0.506
1951 5 4 0.0600 54.792 180.9487 -0.5139999999999999
1952 5 4 0.0600 53.648 179.94070000000002 0.34300000000000014
1953 5 4 0.0600 53.391000000000005 180.36370000000002 -1.413
1954 5 2 -0.1200 55.06 182.0157 0.0
1955 5 3 -0.0600 56.548 182.0157 0.0
1956 5 1 -0.1800 57.192 181.6087 1.276
1957 5 4 0.0600 54.744 182.5307 -0.95
1958 5 4 0.0600 54.593 181.01670000000001 -0.06
1959 5 4 0.0600 56.963 181.5097 -0.869
1960 5 4 0.0600 58.28 181.5017 1.067
1961 5 4 0.0600 57.136 182.3587 2.075
1962 5 4 0.0600 56.879000000000005 180.6027 1.652
1963 5 2 -0.1200 58.548 182.0157 0.0
1964 5 3 -0.0600 60.036 182.0157 0.0
1965 5 1 -0.1800 60.68 183.29170000000002 -0.40700000000000003
1966 5 4 0.0600 58.232 181.06570000000002 0.5150000000000001
1967 5 4 0.0600 58.081 181.9557 -0.999
1968 5 4 0.0600 60.451 181.1467 -0.506
1969 5 4 0.0600 61.768 183.08270000000002 -0.5140000000000001
1970 5 4 0.0600 60.624 184.0907 0.3429999999999999
1971 5 4 0.0600 60.367000000000004 183.6677 -1.413
1972 5 2 -0.1200 62.036 182.0157 0.0
1973 5 3 -0.0600 63.524 182.0157 0.0
1974 5 1 -0.1800 64.168 181.6087 -1.276
1975 5 4 0.0600 61.72 182.5307 0.95
1976 5 4 0.0600 61.569 181.01670000000001 0.06
1977 5 4 0.0600 63.939 181.5097 0.869
1978 5 4 0.0600 65.256 181.5017 -1.067
1979 5 4 0.0600 64.112 182.3587 -2.075
1980 5 4 0.0600 63.855000000000004 180.6027 -1.652
1981 5 2 -0.1200 65.524 182.0157 0.0
1982 5 3 -0.0600 67.012 182.0157 0.0
1983 5 1 -0.1800 67.656 180.7397 -0.4069999999999999
1984 5 4 0.0600 65.208 182.9657 0.5149999999999999
1985 5 4 0.0600 65.057 182.0757 -0.999
1986 5 4 0.0600 67.427 182.8847 -0.506
1987 5 4 0.0600 68.744 180.9487 -0.5139999999999999
1988 5 4 0.0600 67.6 179.94070000000002 0.34300000000000014
1989 5 4 0.0600 67.343 180.36370000000002 -1.413
1990 5 2 -0.1200 69.012 182.0157 0.0
1991 5 3 -0.0600 70.5 182.0157 0.0
1992 5 1 -0.1800 71.144 181.6087 -1.276
1993 5 4 0.0600 68.696 182.5307 0.95
1994 5 4 0.0600 68.545 181.01670000000001 0.06
1995 5 4 0.0600 70.915 181.5097 0.869
1996 5 4 0.0600 72.232 181.5017 -1.067
1997 5 4 0.0600 71.088 182.3587 -2.075
1998 5 4 0.0600 70.831 180.6027 -1.652
1999 5 2 -0.1200 72.5 182.0157 0.0
2000 5 3 -0.0600 73.988 182.0157 0.0
2001 5 1 -0.1800 74.632 183.29170000000002 -0.40700000000000003
2002 5 4 0.0600 72.184 181.06570000000002 0.5150000000000001
2003 5 4 0.0600 72.033 181.9557 -0.999
2004 5 4 0.0600 74.403 181.1467 -0.506
2005 5 4 0.0600 75.72 183.08270000000002 -0.5140000000000001
2006 5 4 0.0600 74.576 184.0907 0.3429999999999999
2007 5 4 0.0600 74.319 183.6677 -1.413
2008 5 2 -0.1200 75.988 182.0157 0.0
2009 5 3 -0.0600 77.476 182.0157 0.0
2010 5 1 -0.1800 78.12 181.6087 -1.276
2011 5 4 0.0600 75.672 182.5307 0.95
2012 5 4 0.0600 75.521 181.01670000000001 0.06
2013 5 4 0.0600 77.891 181.5097 0.869
2014 5 4 0.0600 79.208 181.5017 -1.067
2015 5 4 0.0600 78.064 182.3587 -2.075
2016 5 4 0.0600 77.807 180.6027 -1.652
2017 5 2 -0.1200 79.476 182.0157 0.0
2018 5 3 -0.0600 80.964 182.0157 0.0
2019 5 1 -0.1800 81.608 180.7397 -0.4069999999999999
2020 5 4 0.0600 79.16 182.9657 0.5149999999999999
2021 5 4 0.0600 79.009 182.0757 -0.999
2022 5 4 0.0600 81.379 182.8847 -0.506
2023 5 4 0.0600 82.696 180.9487 -0.5139999999999999
2024 5 4 0.0600 81.55199999999999 179.94070000000002 0.34300000000000014
2025 5 4 0.0600 81.295 180.36370000000002 -1.413
2026 5 2 -0.1200 82.964 182.0157 0.0
2027 5 3 -0.0600 84.452 182.0157 0.0
2028 5 1 -0.1800 85.096 181.6087 -1.276
2029 5 4 0.0600 82.648 182.5307 0.95
2030 5 4 0.0600 82.497 181.01670000000001 0.06
2031 5 4 0.0600 84.867 181.5097 0.869
2032 5 4 0.0600 86.184 181.5017 -1.067
2033 5 4 0.0600 85.03999999999999 182.3587 -2.075
2034 5 4 0.0600 84.783 180.6027 -1.652
2035 5 2 -0.1200 86.452 182.0157 0.0
2036 5 3 -0.0600 87.94 182.0157 0.0
2037 5 1 -0.1800 88.584 180.7397 -0.4069999999999999
2038 5 4 0.0600 86.136 182.9657 0.5149999999999999
2039 5 4 0.0600 85.985 182.0757 -0.999
2040 5 4 0.0600 88.355 182.8847 -0.506
2041 5 4 0.0600 89.672 180.9487 -0.5139999999999999
2042 5 4 0.0600 88.52799999999999 179.94070000000002 0.34300000000000014
2043 5 4 0.0600 88.271 180.36370000000002 -1.413
2044 5 2 -0.1200 89.94 182.0157 0.0
2045 5 3 -0.0600 91.428 182.0157 0.0
2046 5 1 -0.1800 92.072 181.6087 -1.276
2047 5 4 0.0600 89.624 182.5307 0.95
2048 5 4 0.0600 89.473 181.01670000000001 0.06
2049 5 4 0.0600 91.843 181.5097 0.869
2050 5 4 0.0600 93.16 181.5017 -1.067
2051 5 4 0.0600 92.01599999999999 182.3587 -2.075
2052 5 4 0.0600 91.759 180.6027 -1.652
2053 5 2 -0.1200 93.428 182.0157 0.0
2054 5 3 -0.0600 94.916 182.0157 0.0
2055 5 1 -0.1800 95.56 183.29170000000002 -0.40700000000000003
2056 5 4 0.0600 93.112 181.06570000000002 0.5150000000000001
2057 5 4 0.0600 92.961 181.9557 -0.999
2058 5 4 0.0600 95.331 181.1467 -0.506
2059 5 4 0.0600 96.648 183.08270000000002 -0.5140000000000001
2060 5 4 0.0600 95.50399999999999 184.0907 0.3429999999999999
2061 5 4 0.0600 95.247 183.6677 -1.413
2062 5 2 -0.1200 96.916 182.0157 0.0
2063 5 3 -0.0600 98.404 182.0157 0.0
2064 5 1 -0.1800 99.048 181.6087 1.276
2065 5 4 0.0600 96.6 182.5307 -0.95
2066 5 4 0.0600 96.449 181.01670000000001 -0.06
2067 5 4 0.0600 98.819 181.5097 -0.869
2068 5 4 0.0600 100.136 181.5017 1.067
2069 5 4 0.0600 98.99199999999999 182.3587 2.075
2070 5 4 0.0600 98.735 180.6027 1.652
2071 5 2 -0.1200 100.404 182.0157 0.0
2072 5 3 -0.0600 101.892 182.0157 0.0
2073 5 1 -0.1800 102.536 183.29170000000002 -0.40700000000000003
2074 5 4 0.0600 100.088 181.06570000000002 0.5150000000000001
2075 5 4 0.0600 99.937 181.9557 -0.999
2076 5 4 0.0600 102.307 181.1467 -0.506
2077 5 4 0.0600 103.624 183.08270000000002 -0.5140000000000001
2078 5 4 0.0600 102.47999999999999 184.0907 0.3429999999999999
2079 5 4 0.0600 102.223 183.6677 -1.413
2080 5 2 -0.1200 103.892 182.0157 0.0
2081 5 3 -0.0600 105.38 182.0157 0.0
2082 5 1 -0.1800 106.024 181.6087 1.276
2083 5 4 0.0600 103.576 182.5307 -0.95
2084 5 4 0.0600 103.425 181.01670000000001 -0.06
2085 5 4 0.0600 105.795 181.5097 -0.869
2086 5 4 0.0600 107.112 181.5017 1.067
2087 5 4 0.0600 105.96799999999999 182.3587 2.075
2088 5 4 0.0600 105.711 180.6027 1.652
2089 5 2 -0.1200 107.38 182.0157 0.0
2090 5 3 -0.0600 108.868 182.0157 0.0
2091 5 1 -0.1800 109.512 180.7397 -0.4069999999999999
2092 5 4 0.0600 107.064 182.9657 0.5149999999999999
2093 5 4 0.0600 106.913 182.0757 -0.999
2094 5 4 0.0600 109.283 182.8847 -0.506
2095 5 4 0.0600 110.6 180.9487 -0.5139999999999999
2096 5 4 0.0600 109.45599999999999 179.94070000000002 0.34300000000000014
2097 5 4 0.0600 109.199 180.36370000000002 -1.413
2098 5 2 -0.1200 110.868 182.0157 0.0
2099 5 3 -0.0600 112.356 182.0157 0.0
2100 5 1 -0.1800 113.0 181.6087 -1.276
2101 5 4 0.0600 110.55199999999999 182.5307 0.95
2102 5 4 0.0600 110.401 181.01670000000001 0.06
2103 5 4 0.0600 112.771 181.5097 0.869
2104 5 4 0.0600 114.088 181.5017 -1.067
2105 5 4 0.0600 112.94399999999999 182.3587 -2.075
2106 5 4 0.0600 112.687 180.6027 -1.652
2107 5 2 -0.1200 114.356 182.0157 0.0
2108 5 3 -0.0600 115.844 182.0157 0.0
2109 5 1 -0.1800 116.488 183.29170000000002 -0.40700000000000003
2110 5 4 0.0600 114.03999999999999 181.06570000000002 0.5150000000000001
2111 5 4 0.0600 113.889 181.9557 -0.999
2112 5 4 0.0600 116.259 181.1467 -0.506
2113 5 4 0.0600 117.576 183.08270000000002 -0.5140000000000001
2114 5 4 0.0600 116.43199999999999 184.0907 0.3429999999999999
2115 5 4 0.0600 116.175 183.6677 -1.413
2116 5 2 -0.1200 117.844 182.0157 0.0
2117 5 3 -0.0600 119.332 182.0157 0.0
2118 5 1 -0.1800 119.976 181.6087 1.276
2119 5 4 0.0600 117.52799999999999 182.5307 -0.95
2120 5 4 0.0600 117.377 181.01670000000001 -0.06
2121 5 4 0.0600 119.747 181.5097 -0.869
2122 5 4 0.0600 121.064 181.5017 1.067
2123 5 4 0.0600 119.91999999999999 182.3587 2.075
2124 5 4 0.0600 119.663 180.6027 1.652
2125 5 2 -0.1200 121.332 182.0157 0.0
2126 5 3 -0.0600 122.82 182.0157 0.0
2127 5 1 -0.1800 123.464 180.7397 -0.4069999999999999
2128 5 4 0.0600 121.01599999999999 182.9657 0.5149999999999999
2129 5 4 0.0600 120.865 182.0757 -0.999
2130 5 4 0.0600 123.235 182.8847 -0.506
2131 5 4 0.0600 124.55199999999999 180.9487 -0.5139999999999999
2132 5 4 0.0600 123.40799999999999 179.94070000000002 0.34300000000000014
2133 5 4 0.0600 123.151 180.36370000000002 -1.413
2134 5 2 -0.1200 124.82 182.0157 0.0
2135 5 3 -0.0600 126.30799999999999 182.0157 0.0
2136 5 1 -0.1800 126.952 181.6087 1.276
2137 5 4 0.0600 124.50399999999999 182.5307 -0.95
2138 5 4 0.0600 124.353 181.01670000000001 -0.06
2139 5 4 0.0600 126.723 181.5097 -0.869
2140 5 4 0.0600 128.04 181.5017 1.067
2141 5 4 0.0600 126.89599999999999 182.3587 2.075
2142 5 4 0.0600 126.639 180.6027 1.652
2143 5 2 -0.1200 128.308 182.0157 0.0
2144 5 3 -0.0600 129.796 182.0157 0.0
2145 5 1 -0.1800 130.44 183.29170000000002 -0.40700000000000003
2146 5 4 0.0600 127.99199999999999 181.06570000000002 0.5150000000000001
2147 5 4 0.0600 127.841 181.9557 -0.999
2148 5 4 0.0600 130.21099999999998 181.1467 -0.506
2149 5 4 0.0600 131.528 183.08270000000002 -0.5140000000000001
2150 5 4 0.0600 130.384 184.0907 0.3429999999999999
2151 5 4 0.0600 130.12699999999998 183.6677 -1.413
2152 5 2 -0.1200 131.796 182.0157 0.0
2153 5 3 -0.0600 133.284 182.0157 0.0
2154 5 1 -0.1800 133.928 181.6087 -1.276
2155 5 4 0.0600 131.48 182.5307 0.95
2156 5 4 0.0600 131.32899999999998 181.01670000000001 0.06
2157 5 4 0.0600 133.69899999999998 181.5097 0.869
2158 5 4 0.0600 135.016 181.5017 -1.067
2159 5 4 0.0600 133.87199999999999 182.3587 -2.075
2160 5 4 0.0600 133.61499999999998 180.6027 -1.652
2161 5 2 -0.1200 135.284 182.0157 0.0
2162 5 3 -0.0600 136.772 182.0157 0.0
2163 5 1 -0.1800 137.416 180.7397 -0.4069999999999999
2164 5 4 0.0600 134.968 182.9657 0.5149999999999999
2165 5 4 0.0600 134.81699999999998 182.0757 -0.999
2166 5 4 0.0600 137.18699999999998 182.8847 -0.506
2167 5 4 0.0600 138.504 180.9487 -0.5139999999999999
2168 5 4 0.0600 137.35999999999999 179.94070000000002 0.34300000000000014
2169 5 4 0.0600 137.10299999999998 180.36370000000002 -1.413
2170 5 2 -0.1200 138.772 182.0157 0.0
2171 5 3 -0.0600 140.26 182.0157 0.0
2172 5 1 -0.1800 140.904 181.6087 -1.276
2173 5 4 0.0600 138.456 182.5307 0.95
2174 5 4 0.0600 138.30499999999998 181.01670000000001 0.06
2175 5 4 0.0600 140.67499999999998 181.5097 0.869
2176 5 4 0.0600 141.992 181.5017 -1.067
2177 5 4 0.0600 140.84799999999998 182.3587 -2.075
2178 5 4 0.0600 140.59099999999998 180.6027 -1.652
2179 5 2 -0.1200 142.26 182.0157 0.0
2180 5 3 -0.0600 143.748 182.0157 0.0
2181 5 1 -0.1800 144.392 180.7397 -0.4069999999999999
2182 5 4 0.0600 141.944 182.9657 0.5149999999999999
2183 5 4 0.0600 141.79299999999998 182.0757 -0.999
2184 5 4 0.0600 144.16299999999998 182.8847 -0.506
2185 5 4 0.0600 145.48 180.9487 -0.5139999999999999
2186 5 4 0.0600 144.33599999999998 179.94070000000002 0.34300000000000014
2187 5 4 0.0600 144.07899999999998 180.36370000000002 -1.413
2188 5 2 -0.1200 145.748 182.0157 0.0
2189 5 3 -0.0600 147.236 182.0157 0.0
2190 5 1 -0.1800 147.88 181.6087 1.276
2191 5 4 0.0600 145.432 182.5307 -0.95
2192 5 4 0.0600 145.28099999999998 181.01670000000001 -0.06
2193 5 4 0.0600 147.65099999999998 181.5097 -0.869
2194 5 4 0.0600 148.968 181.5017 1.067
2195 5 4 0.0600 147.82399999999998 182.3587 2.075
2196 5 4 0.0600 147.56699999999998 180.6027 1.652
2197 5 2 -0.1200 149.236 182.0157 0.0
2198 5 3 -0.0600 150.724 182.0157 0.0
2199 5 1 -0.1800 151.368 183.29170000000002 -0.40700000000000003
2200 5 4 0.0600 148.92 181.06570000000002 0.5150000000000001
2201 5 4 0.0600 148.76899999999998 181.9557 -0.999
2202 5 4 0.0600 151.13899999999998 181.1467 -0.506
2203 5 4 0.0600 152.456 183.08270000000002 -0.5140000000000001
2204 5 4 0.0600 151.31199999999998 184.0907 0.3429999999999999
2205 5 4 0.0600 151.05499999999998 183.6677 -1.413
2206 5 2 -0.1200 152.724 182.0157 0.0
2207 5 3 -0.0600 154.212 182.0157 0.0
2208 5 1 -0.1800 154.856 181.6087 -1.276
2209 5 4 0.0600 152.408 182.5307 0.95
2210 5 4 0.0600 152.25699999999998 181.01670000000001 0.06
2211 5 4 0.0600 154.62699999999998 181.5097 0.869
2212 5 4 0.0600 155.944 181.5017 -1.067
2213 5 4 0.0600 154.79999999999998 182.3587 -2.075
2214 5 4 0.0600 154.54299999999998 180.6027 -1.652
2215 5 2 -0.1200 156.212 182.0157 0.0
2216 5 3 -0.0600 157.7 182.0157 0.0
2217 5 1 -0.1800 158.344 180.7397 -0.4069999999999999
2218 5 4 0.0600 155.896 182.9657 0.5149999999999999
2219 5 4 0.0600 155.74499999999998 182.0757 -0.999
2220 5 4 0.0600 158.11499999999998 182.8847 -0.506
2221 5 4 0.0600 159.432 180.9487 -0.5139999999999999
2222 5 4 0.0600 158.28799999999998 179.94070000000002 0.34300000000000014
2223 5 4 0.0600 158.03099999999998 180.36370000000002 -1.413
2224 5 2 -0.1200 159.7 182.0157 0.0
2225 5 3 -0.0600 161.188 182.0157 0.0
2226 5 1 -0.1800 161.832 181.6087 -1.276
2227 5 4 0.0600 159.384 182.5307 0.95
2228 5 4 0.0600 159.23299999999998 181.01670000000001 0.06
2229 5 4 0.0600 161.60299999999998 181.5097 0.869
2230 5 4 0.0600 162.92 181.5017 -1.067
2231 5 4 0.0600 161.77599999999998 182.3587 -2.075
2232 5 4 0.0600 161.51899999999998 180.6027 -1.652
2233 5 2 -0.1200 163.188 182.0157 0.0
2234 5 3 -0.0600 164.676 182.0157 0.0
2235 5 1 -0.1800 165.32 183.29170000000002 -0.40700000000000003
2236 5 4 0.0600 162.87199999999999 181.06570000000002 0.5150000000000001
2237 5 4 0.0600 162.72099999999998 181.9557 -0.999
2238 5 4 0.0600 165.09099999999998 181.1467 -0.506
2239 5 4 0.0600 166.408 183.08270000000002 -0.5140000000000001
2240 5 4 0.0600 165.26399999999998 184.0907 0.3429999999999999
2241 5 4 0.0600 165.00699999999998 183.6677 -1.413
2242 5 2 -0.1200 166.676 182.0157 0.0
2243 5 3 -0.0600 168.164 182.0157 0.0
2244 5 1 -0.1800 168.808 181.6087 1.276
2245 5 4 0.0600 166.35999999999999 182.5307 -0.95
2246 5 4 0.0600 166.20899999999997 181.01670000000001 -0.06
2247 5 4 0.0600 168.57899999999998 181.5097 -0.869
2248 5 4 0.0600 169.896 181.5017 1.067
2249 5 4 0.0600 168.75199999999998 182.3587 2.075
2250 5 4 0.0600 168.49499999999998 180.6027 1.652
2251 5 2 -0.1200 169.237 182.0157 0.0
2252 5 2 -0.1200 170.58499999999998 182.34570000000002 0.57
2253 5 1 -0.1800 171.606 181.55870000000002 -0.24499999999999997
2254 5 4 0.0600 168.47 182.3707 0.703
2255 5 4 0.0600 169.17399999999998 182.4547 -1.008
2256 5 4 0.0600 170.742 183.4327 0.5029999999999999
2257 5 4 0.0600 170.71599999999998 182.04070000000002 1.618
2258 5 4 0.0600 171.43699999999998 181.65370000000001 -1.33
2259 5 4 0.0600 171.5 180.5097 0.05700000000000009
2260 5 4 0.0600 172.57899999999998 182.0157 0.0
2261 6 1 -0.1800 181.27370000000002 182.0157 0.0
2262 6 3 -0.0600 182.7577 182.0157 0.0
2263 6 1 -0.1800 183.40370000000001 181.5917 1.258
2264 6 4 0.0600 180.79670000000002 181.0677 0.325
2265 6 4 0.0600 180.8947 182.7887 0.716
2266 6 4 0.0600 180.9367 182.3067 -1.017
2267 6 4 0.0600 183.2467 181.7237 -0.93
2268 6 4 0.0600 184.32670000000002 182.2177 1.4
2269 6 4 0.0600 183.71970000000002 180.51670000000001 1.29
2270 6 4 0.0600 182.6997 181.75670000000002 2.096
2271 6 2 -0.1200 184.75570000000002 182.0157 0.0
2272 6 3 -0.0600 186.24370000000002 182.0157 0.0
2273 6 1 -0.1800 186.88770000000002 183.29170000000002 -0.40700000000000003
2274 6 4 0.0600 184.43970000000002 181.06570000000002 0.5150000000000001
2275 6 4 0.0600 184.2887 181.9557 -0.999
2276 6 4 0.0600 186.6587 181.1467 -0.506
2277 6 4 0.0600 187.97570000000002 183.08270000000002 -0.5140000000000001
2278 6 4 0.0600 186.8317 184.0907 0.3429999999999999
2279 6 4 0.0600 186.5747 183.6677 -1.413
2280 6 2 -0.1200 188.24370000000002 182.0157 0.0
2281 6 3 -0.0600 189.73170000000002 182.0157 0.0
2282 6 1 -0.1800 190.37570000000002 181.6087 1.276
2283 6 4 0.0600 187.92770000000002 182.5307 -0.95
2284 6 4 0.0600 187.7767 181.01670000000001 -0.06
2285 6 4 0.0600 190.1467 181.5097 -0.869
2286 6 4 0.0600 191.46370000000002 181.5017 1.067
2287 6 4 0.0600 190.3197 182.3587 2.075
2288 6 4 0.0600 190.0627 180.6027 1.652
2289 6 2 -0.1200 191.73170000000002 182.0157 0.0
2290 6 3 -0.0600 193.21970000000002 182.0157 0.0
2291 6 1 -0.1800 193.86370000000002 180.7397 -0.4069999999999999
2292 6 4 0.0600 191.41570000000002 182.9657 0.5149999999999999
2293 6 4 0.0600 191.2647 182.0757 -0.999
2294 6 4 0.0600 193.6347 182.8847 -0.506
2295 6 4 0.0600 194.95170000000002 180.9487 -0.5139999999999999
2296 6 4 0.0600 193.8077 179.94070000000002 0.34300000000000014
2297 6 4 0.0600 193.5507 180.36370000000002 -1.413
2298 6 2 -0.1200 195.21970000000002 182.0157 0.0
2299 6 3 -0.0600 196.70770000000002 182.0157 0.0
2300 6 1 -0.1800 197.35170000000002 181.6087 -1.276
2301 6 4 0.0600 194.90370000000001 182.5307 0.95
2302 6 4 0.0600 194.7527 181.01670000000001 0.06
2303 6 4 0.0600 197.1227 181.5097 0.869
2304 6 4 0.0600 198.43970000000002 181.5017 -1.067
2305 6 4 0.0600 197.2957 182.3587 -2.075
2306 6 4 0.0600 197.0387 180.6027 -1.652
2307 6 2 -0.1200 198.70770000000002 182.0157 0.0
2308 6 3 -0.0600 200.19570000000002 182.0157 0.0
2309 6 1 -0.1800 200.83970000000002 183.29170000000002 -0.40700000000000003
2310 6 4 0.0600 198.39170000000001 181.06570000000002 0.5150000000000001
2311 6 4 0.0600 198.2407 181.9557 -0.999
2312 6 4 0.0600 200.6107 181.1467 -0.506
2313 6 4 0.0600 201.92770000000002 183.08270000000002 -0.5140000000000001
2314 6 4 0.0600 200.7837 184.0907 0.3429999999999999
2315 6 4 0.0600 200.5267 183.6677 -1.413
2316 6 2 -0.1200 202.19570000000002 182.0157 0.0
2317 6 3 -0.0600 203.68370000000002 182.0157 0.0
2318 6 1 -0.1800 204.32770000000002 181.6087 1.276
2319 6 4 0.0600 201.8797 182.5307 -0.95
2320 6 4 0.0600 201.7287 181.01670000000001 -0.06
2321 6 4 0.0600 204.0987 181.5097 -0.869
2322 6 4 0.0600 205.41570000000002 181.5017 1.067
2323 6 4 0.0600 204.2717 182.3587 2.075
2324 6 4 0.0600 204.0147 180.6027 1.652
2325 6 2 -0.1200 205.68370000000002 182.0157 0.0
2326 6 3 -0.0600 207.17170000000002 182.0157 0.0
2327 6 1 -0.1800 207.81570000000002 183.29170000000002 -0.40700000000000003
2328 6 4 0.0600 205.3677 181.06570000000002 0.5150000000000001
2329 6 4 0.0600 205.2167 181.9557 -0.999
2330 6 4 0.0600 207.5867 181.1467 -0.506
2331 6 4 0.0600 208.90370000000001 183.08270000000002 -0.5140000000000001
2332 6 4 0.0600 207.7597 184.0907 0.3429999999999999
2333 6 4 0.0600 207.5027 183.6677 -1.413
2334 6 2 -0.1200 209.17170000000002 182.0157 0.0
2335 6 3 -0.0600 210.65970000000002 182.0157 0.0
2336 6 1 -0.1800 211.30370000000002 181.6087 -1.276
2337 6 4 0.0600 208.8557 182.5307 0.95
2338 6 4 0.0600 208.7047 181.01670000000001 0.06
2339 6 4 0.0600 211.0747 181.5097 0.869
2340 6 4 0.0600 212.39170000000001 181.5017 -1.067
2341 6 4 0.0600 211.2477 182.3587 -2.075
2342 6 4 0.0600 210.9907 180.6027 -1.652
2343 6 2 -0.1200 212.65970000000002 182.0157 0.0
2344 6 3 -0.0600 214.14770000000001 182.0157 0.0
2345 6 1 -0.1800 214.79170000000002 183.29170000000002 -0.40700000000000003
2346 6 4 0.0600 212.3437 181.06570000000002 0.5150000000000001
2347 6 4 0.0600 212.1927 181.9557 -0.999
2348 6 4 0.0600 214.5627 181.1467 -0.506
2349 6 4 0.0600 215.8797 183.08270000000002 -0.5140000000000001
2350 6 4 0.0600 214.7357 184.0907 0.3429999999999999
2351 6 4 0.0600 214.4787 183.6677 -1.413
2352 6 2 -0.1200 216.14770000000001 182.0157 0.0
2353 6 3 -0.0600 217.6357 182.0157 0.0
2354 6 1 -0.1800 218.27970000000002 181.6087 -1.276
2355 6 4 0.0600 215.8317 182.5307 0.95
2356 6 4 0.0600 215.6807 181.01670000000001 0.06
2357 6 4 0.0600 218.0507 181.5097 0.869
2358 6 4 0.0600 219.3677 181.5017 -1.067
2359 6 4 0.0600 218.2237 182.3587 -2.075
2360 6 4 0.0600 217.9667 180.6027 -1.652
2361 6 2 -0.1200 219.6357 182.0157 0.0
2362 6 3 -0.0600 221.1237 182.0157 0.0
2363 6 1 -0.1800 221.76770000000002 183.29170000000002 -0.40700000000000003
2364 6 4 0.0600 219.3197 181.06570000000002 0.5150000000000001
2365 6 4 0.0600 219.1687 181.9557 -0.999
2366 6 4 0.0600 221.5387 181.1467 -0.506
2367 6 4 0.0600 222.8557 183.08270000000002 -0.5140000000000001
2368 6 4 0.0600 221.7117 184.0907 0.3429999999999999
2369 6 4 0.0600 221.4547 183.6677 -1.413
2370 6 2 -0.1200 223.1237 182.0157 0.0
2371 6 3 -0.0600 224.6117 182.0157 0.0
2372 6 1 -0.1800 225.25570000000002 181.6087 1.276
2373 6 4 0.0600 222.8077 182.5307 -0.95
2374 6 4 0.0600 222.6567 181.01670000000001 -0.06
2375 6 4 0.0600 225.0267 181.5097 -0.869
2376 6 4 0.0600 226.3437 181.5017 1.067
2377 6 4 0.0600 225.1997 182.3587 2.075
2378 6 4 0.0600 224.9427 180.6027 1.652
2379 6 2 -0.1200 226.6117 182.0157 0.0
2380 6 3 -0.0600 228.0997 182.0157 0.0
2381 6 1 -0.1800 228.74370000000002 183.29170000000002 -0.40700000000000003
2382 6 4 0.0600 226.2957 181.06570000000002 0.5150000000000001
2383 6 4 0.0600 226.1447 181.9557 -0.999
2384 6 4 0.0600 228.5147 181.1467 -0.506
2385 6 4 0.0600 229.8317 183.08270000000002 -0.5140000000000001
2386 6 4 0.0600 228.6877 184.0907 0.3429999999999999
2387 6 4 0.0600 228.4307 183.6677 -1.413
2388 6 2 -0.1200 230.0997 182.0157 0.0
2389 6 3 -0.0600 231.5877 182.0157 0.0
2390 6 1 -0.1800 232.23170000000002 181.6087 1.276
2391 6 4 0.0600 229.7837 182.5307 -0.95
2392 6 4 0.0600 229.6327 181.01670000000001 -0.06
2393 6 4 0.0600 232.0027 181.5097 -0.869
2394 6 4 0.0600 233.3197 181.5017 1.067
2395 6 4 0.0600 232.1757 182.3587 2.075
2396 6 4 0.0600 231.9187 180.6027 1.652
2397 6 2 -0.1200 233.5877 182.0157 0.0
2398 6 3 -0.0600 235.0757 182.0157 0.0
2399 6 1 -0.1800 235.71970000000002 183.29170000000002 -0.40700000000000003
2400 6 4 0.0600 233.2717 181.06570000000002 0.5150000000000001
2401 6 4 0.0600 233.1207 181.9557 -0.999
2402 6 4 0.0600 235.4907 181.1467 -0.506
2403 6 4 0.0600 236.8077 183.08270000000002 -0.5140000000000001
2404 6 4 0.0600 235.6637 184.0907 0.3429999999999999
2405 6 4 0.0600 235.4067 183.6677 -1.413
2406 6 2 -0.1200 237.0757 182.0157 0.0
2407 6 3 -0.0600 238.5637 182.0157 0.0
2408 6 1 -0.1800 239.20770000000002 181.6087 1.276
2409 6 4 0.0600 236.7597 182.5307 -0.95
2410 6 4 0.0600 236.6087 181.01670000000001 -0.06
2411 6 4 0.0600 238.9787 181.5097 -0.869
2412 6 4 0.0600 240.2957 181.5017 1.067
2413 6 4 0.0600 239.1517 182.3587 2.075
2414 6 4 0.0600 238.8947 180.6027 1.652
2415 6 2 -0.1200 240.5637 182.0157 0.0
2416 6 3 -0.0600 242.0517 182.0157 0.0
2417 6 1 -0.1800 242.69570000000002 183.29170000000002 -0.40700000000000003
2418 6 4 0.0600 240.2477 181.06570000000002 0.5150000000000001
2419 6 4 0.0600 240.0967 181.9557 -0.999
2420 6 4 0.0600 242.4667 181.1467 -0.506
2421 6 4 0.0600 243.7837 183.08270000000002 -0.5140000000000001
2422 6 4 0.0600 242.6397 184.0907 0.3429999999999999
2423 6 4 0.0600 242.3827 183.6677 -1.413
2424 6 2 -0.1200 244.0517 182.0157 0.0
2425 6 3 -0.0600 245.5397 182.0157 0.0
2426 6 1 -0.1800 246.18370000000002 181.6087 1.276
2427 6 4 0.0600 243.7357 182.5307 -0.95
2428 6 4 0.0600 243.5847 181.01670000000001 -0.06
2429 6 4 0.0600 245.9547 181.5097 -0.869
2430 6 4 0.0600 247.2717 181.5017 1.067
2431 6 4 0.0600 246.1277 182.3587 2.075
2432 6 4 0.0600 245.8707 180.6027 1.652
2433 6 2 -0.1200 247.5397 182.0157 0.0
2434 6 3 -0.0600 249.0277 182.0157 0.0
2435 6 1 -0.1800 249.67170000000002 183.29170000000002 -0.40700000000000003
2436 6 4 0.0600 247.2237 181.06570000000002 0.5150000000000001
2437 6 4 0.0600 247.0727 181.9557 -0.999
2438 6 4 0.0600 249.4427 181.1467 -0.506
2439 6 4 0.0600 250.7597 183.08270000000002 -0.5140000000000001
2440 6 4 0.0600 249.6157 184.0907 0.3429999999999999
2441 6 4 0.0600 249.3587 183.6677 -1.413
2442 6 2 -0.1200 251.0277 182.0157 0.0
2443 6 3 -0.0600 252.5157 182.0157 0.0
2444 6 1 -0.1800 253.15970000000002 181.6087 -1.276
2445 6 4 0.0600 250.7117 182.5307 0.95
2446 6 4 0.0600 250.5607 181.01670000000001 0.06
2447 6 4 0.0600 252.9307 181.5097 0.869
2448 6 4 0.0600 254.2477 181.5017 -1.067
2449 6 4 0.0600 253.1037 182.3587 -2.075
2450 6 4 0.0600 252.8467 180.6027 -1.652
2451 6 2 -0.1200 254.5157 182.0157 0.0
2452 6 3 -0.0600 256.00370000000004 182.0157 0.0
2453 6 1 -0.1800 256.6477 183.29170000000002 -0.40700000000000003
2454 6 4 0.0600 254.1997 181.06570000000002 0.5150000000000001
2455 6 4 0.0600 254.0487 181.9557 -0.999
2456 6 4 0.0600 256.4187 181.1467 -0.506
2457 6 4 0.0600 257.7357 183.08270000000002 -0.5140000000000001
2458 6 4 0.0600 256.5917 184.0907 0.3429999999999999
2459 6 4 0.0600 256.3347 183.6677 -1.413
2460 6 2 -0.1200 258.0037 182.0157 0.0
2461 6 3 -0.0600 259.49170000000004 182.0157 0.0
2462 6 1 -0.1800 260.1357 181.6087 -1.276
2463 6 4 0.0600 257.6877 182.5307 0.95
2464 6 4 0.0600 257.5367 181.01670000000001 0.06
2465 6 4 0.0600 259.9067 181.5097 0.869
2466 6 4 0.0600 261.2237 181.5017 -1.067
2467 6 4 0.0600 260.0797 182.3587 -2.075
2468 6 4 0.0600 259.8227 180.6027 -1.652
2469 6 2 -0.1200 261.4917 182.0157 0.0
2470 6 3 -0.0600 262.97970000000004 182.0157 0.0
2471 6 1 -0.1800 263.6237 183.29170000000002 -0.40700000000000003
2472 6 4 0.0600 261.1757 181.06570000000002 0.5150000000000001
2473 6 4 0.0600 261.0247 181.9557 -0.999
2474 6 4 0.0600 263.3947 181.1467 -0.506
2475 6 4 0.0600 264.7117 183.08270000000002 -0.5140000000000001
2476 6 4 0.0600 263.5677 184.0907 0.3429999999999999
2477 6 4 0.0600 263.3107 183.6677 -1.413
2478 6 2 -0.1200 264.9797 182.0157 0.0
2479 6 3 -0.0600 266.46770000000004 182.0157 0.0
2480 6 1 -0.1800 267.1117 181.6087 -1.276
2481 6 4 0.0600 264.6637 182.5307 0.95
2482 6 4 0.0600 264.5127 181.01670000000001 0.06
2483 6 4 0.0600 266.8827 181.5097 0.869
2484 6 4 0.0600 268.1997 181.5017 -1.067
2485 6 4 0.0600 267.0557 182.3587 -2.075
2486 6 4 0.0600 266.7987 180.6027 -1.652
2487 6 2 -0.1200 268.4677 182.0157 0.0
2488 6 3 -0.0600 269.95570000000004 182.0157 0.0
2489 6 1 -0.1800 270.5997 183.29170000000002 -0.40700000000000003
2490 6 4 0.0600 268.1517 181.06570000000002 0.5150000000000001
2491 6 4 0.0600 268.0007 181.9557 -0.999
2492 6 4 0.0600 270.3707 181.1467 -0.506
2493 6 4 0.0600 271.6877 183.08270000000002 -0.5140000000000001
2494 6 4 0.0600 270.5437 184.0907 0.3429999999999999
2495 6 4 0.0600 270.2867 183.6677 -1.413
2496 6 2 -0.1200 271.9557 182.0157 0.0
2497 6 3 -0.0600 273.44370000000004 182.0157 0.0
2498 6 1 -0.1800 274.0877 181.6087 -1.276
2499 6 4 0.0600 271.6397 182.5307 0.95
2500 6 4 0.0600 271.4887 181.01670000000001 0.06
2501 6 4 0.0600 273.8587 181.5097 0.869
2502 6 4 0.0600 275.1757 181.5017 -1.067
2503 6 4 0.0600 274.0317 182.3587 -2.075
2504 6 4 0.0600 273.7747 180.6027 -1.652
2505 6 2 -0.1200 275.4437 182.0157 0.0
2506 6 3 -0.0600 276.93170000000003 182.0157 0.0
2507 6 1 -0.1800 277.5757 180.7397 -0.4069999999999999
2508 6 4 0.0600 275.1277 182.9657 0.5149999999999999
2509 6 4 0.0600 274.9767 182.0757 -0.999
2510 6 4 0.0600 277.3467 182.8847 -0.506
2511 6 4 0.0600 278.6637 180.9487 -0.5139999999999999
2512 6 4 0.0600 277.5197 179.94070000000002 0.34300000000000014
2513 6 4 0.0600 277.2627 180.36370000000002 -1.413
2514 6 2 -0.1200 278.9317 182.0157 0.0
2515 6 3 -0.0600 280.41970000000003 182.0157 0.0
2516 6 1 -0.1800 281.0637 181.6087 -1.276
2517 6 4 0.0600 278.6157 182.5307 0.95
2518 6 4 0.0600 278.4647 181.01670000000001 0.06
2519 6 4 0.0600 280.8347 181.5097 0.869
2520 6 4 0.0600 282.1517 181.5017 -1.067
2521 6 4 0.0600 281.0077 182.3587 -2.075
2522 6 4 0.0600 280.7507 180.6027 -1.652
2523 6 2 -0.1200 282.4197 182.0157 0.0
2524 6 3 -0.0600 283.90770000000003 182.0157 0.0
2525 6 1 -0.1800 284.5517 180.7397 -0.4069999999999999
2526 6 4 0.0600 282.1037 182.9657 0.5149999999999999
2527 6 4 0.0600 281.9527 182.0757 -0.999
2528 6 4 0.0600 284.3227 182.8847 -0.506
2529 6 4 0.0600 285.6397 180.9487 -0.5139999999999999
2530 6 4 0.0600 284.4957 179.94070000000002 0.34300000000000014
2531 6 4 0.0600 284.2387 180.36370000000002 -1.413
2532 6 2 -0.1200 285.9077 182.0157 0.0
2533 6 3 -0.0600 287.39570000000003 182.0157 0.0
2534 6 1 -0.1800 288.0397 181.6087 1.276
2535 6 4 0.0600 285.5917 182.5307 -0.95
2536 6 4 0.0600 285.4407 181.01670000000001 -0.06
2537 6 4 0.0600 287.8107 181.5097 -0.869
2538 6 4 0.0600 289.1277 181.5017 1.067
2539 6 4 0.0600 287.9837 182.3587 2.075
2540 6 4 0.0600 287.7267 180.6027 1.652
2541 6 2 -0.1200 289.3957 182.0157 0.0
2542 6 3 -0.0600 290.88370000000003 182.0157 0.0
2543 6 1 -0.1800 291.5277 180.7397 -0.4069999999999999
2544 6 4 0.0600 289.0797 182.9657 0.5149999999999999
2545 6 4 0.0600 288.9287 182.0757 -0.999
2546 6 4 0.0600 291.2987 182.8847 -0.506
2547 6 4 0.0600 292.6157 180.9487 -0.5139999999999999
2548 6 4 0.0600 291.4717 179.94070000000002 0.34300000000000014
2549 6 4 0.0600 291.2147 180.36370000000002 -1.413
2550 6 2 -0.1200 292.8837 182.0157 0.0
2551 6 3 -0.0600 294.37170000000003 182.0157 0.0
2552 6 1 -0.1800 295.0157 181.6087 1.276
2553 6 4 0.0600 292.5677 182.5307 -0.95
2554 6 4 0.0600 292.4167 181.01670000000001 -0.06
2555 6 4 0.0600 294.7867 181.5097 -0.869
2556 6 4 0.0600 296.1037 181.5017 1.067
2557 6 4 0.0600 294.9597 182.3587 2.075
2558 6 4 0.0600 294.7027 180.6027 1.652
2559 6 2 -0.1200 296.3717 182.0157 0.0
2560 6 3 -0.0600 297.85970000000003 182.0157 0.0
2561 6 1 -0.1800 298.5037 183.29170000000002 -0.40700000000000003
2562 6 4 0.0600 296.0557 181.06570000000002 0.5150000000000001
2563 6 4 0.0600 295.9047 181.9557 -0.999
2564 6 4 0.0600 298.2747 181.1467 -0.506
2565 6 4 0.0600 299.5917 183.08270000000002 -0.5140000000000001
2566 6 4 0.0600 298.4477 184.0907 0.3429999999999999
2567 6 4 0.0600 298.1907 183.6677 -1.413
2568 6 2 -0.1200 299.8597 182.0157 0.0
2569 6 3 -0.0600 301.34770000000003 182.0157 0.0
2570 6 1 -0.1800 301.9917 181.6087 1.276
2571 6 4 0.0600 299.5437 182.5307 -0.95
2572 6 4 0.0600 299.3927 181.01670000000001 -0.06
2573 6 4 0.0600 301.7627 181.5097 -0.869
2574 6 4 0.0600 303.0797 181.5017 1.067
2575 6 4 0.0600 301.9357 182.3587 2.075
2576 6 4 0.0600 301.6787 180.6027 1.652
2577 6 2 -0.1200 303.3477 182.0157 0.0
2578 6 3 -0.0600 304.83570000000003 182.0157 0.0
2579 6 1 -0.1800 305.4797 180.7397 -0.4069999999999999
2580 6 4 0.0600 303.0317 182.9657 0.5149999999999999
2581 6 4 0.0600 302.8807 182.0757 -0.999
2582 6 4 0.0600 305.2507 182.8847 -0.506
2583 6 4 0.0600 306.5677 180.9487 -0.5139999999999999
2584 6 4 0.0600 305.4237 179.94070000000002 0.34300000000000014
2585 6 4 0.0600 305.1667 180.36370000000002 -1.413
2586 6 2 -0.1200 306.8357 182.0157 0.0
2587 6 3 -0.0600 308.32370000000003 182.0157 0.0
2588 6 1 -0.1800 308.9677 181.6087 1.276
2589 6 4 0.0600 306.5197 182.5307 -0.95
2590 6 4 0.0600 306.3687 181.01670000000001 -0.06
2591 6 4 0.0600 308.7387 181.5097 -0.869
2592 6 4 0.0600 310.0557 181.5017 1.067
2593 6 4 0.0600 308.9117 182.3587 2.075
2594 6 4 0.0600 308.6547 180.6027 1.652
2595 6 2 -0.1200 310.3237 182.0157 0.0
2596 6 3 -0.0600 311.81170000000003 182.0157 0.0
2597 6 1 -0.1800 312.4557 183.29170000000002 -0.40700000000000003
2598 6 4 0.0600 310.0077 181.06570000000002 0.5150000000000001
2599 6 4 0.0600 309.8567 181.9557 -0.999
2600 6 4 0.0600 312.2267 181.1467 -0.506
2601 6 4 0.0600 313.5437 183.08270000000002 -0.5140000000000001
2602 6 4 0.0600 312.3997 184.0907 0.3429999999999999
2603 6 4 0.0600 312.1427 183.6677 -1.413
2604 6 2 -0.1200 313.8117 182.0157 0.0
2605 6 3 -0.0600 315.29970000000003 182.0157 0.0
2606 6 1 -0.1800 315.9437 181.6087 1.276
2607 6 4 0.0600 313.4957 182.5307 -0.95
2608 6 4 0.0600 313.3447 181.01670000000001 -0.06
2609 6 4 0.0600 315.7147 181.5097 -0.869
2610 6 4 0.0600 317.0317 181.5017 1.067
2611 6 4 0.0600 315.8877 182.3587 2.075
2612 6 4 0.0600 315.6307 180.6027 1.652
2613 6 2 -0.1200 317.2997 182.0157 0.0
2614 6 3 -0.0600 318.78770000000003 182.0157 0.0
2615 6 1 -0.1800 319.4317 180.7397 -0.4069999999999999
2616 6 4 0.0600 316.9837 182.9657 0.5149999999999999
2617 6 4 0.0600 316.8327 182.0757 -0.999
2618 6 4 0.0600 319.2027 182.8847 -0.506
2619 6 4 0.0600 320.5197 180.9487 -0.5139999999999999
2620 6 4 0.0600 319.3757 179.94070000000002 0.34300000000000014
2621 6 4 0.0600 319.1187 180.36370000000002 -1.413
2622 6 2 -0.1200 320.7877 182.0157 0.0
2623 6 3 -0.0600 322.27570000000003 182.0157 0.0
2624 6 1 -0.1800 322.9197 181.6087 1.276
2625 6 4 0.0600 320.4717 182.5307 -0.95
2626 6 4 0.0600 320.3207 181.01670000000001 -0.06
2627 6 4 0.0600 322.6907 181.5097 -0.869
2628 6 4 0.0600 324.0077 181.5017 1.067
2629 6 4 0.0600 322.8637 182.3587 2.075
2630 6 4 0.0600 322.6067 180.6027 1.652
2631 6 2 -0.1200 324.2757 182.0157 0.0
2632 6 3 -0.0600 325.76370000000003 182.0157 0.0
2633 6 1 -0.1800 326.4077 183.29170000000002 -0.40700000000000003
2634 6 4 0.0600 323.9597 181.06570000000002 0.5150000000000001
2635 6 4 0.0600 323.8087 181.9557 -0.999
2636 6 4 0.0600 326.1787 181.1467 -0.506
2637 6 4 0.0600 327.4957 183.08270000000002 -0.5140000000000001
2638 6 4 0.0600 326.3517 184.0907 0.3429999999999999
2639 6 4 0.0600 326.0947 183.6677 -1.413
2640 6 2 -0.1200 327.7637 182.0157 0.0
2641 6 3 -0.0600 329.2517 182.0157 0.0
2642 6 1 -0.1800 329.8957 181.6087 -1.276
2643 6 4 0.0600 327.4477 182.5307 0.95
2644 6 4 0.0600 327.2967 181.01670000000001 0.06
2645 6 4 0.0600 329.6667 181.5097 0.869
2646 6 4 0.0600 330.9837 181.5017 -1.067
2647 6 4 0.0600 329.8397 182.3587 -2.075
2648 6 4 0.0600 329.5827 180.6027 -1.652
2649 6 2 -0.1200 331.25169999999997 182.0157 0.0
2650 6 3 -0.0600 332.7397 182.0157 0.0
2651 6 1 -0.1800 333.3837 183.29170000000002 -0.40700000000000003
2652 6 4 0.0600 330.9357 181.06570000000002 0.5150000000000001
2653 6 4 0.0600 330.7847 181.9557 -0.999
2654 6 4 0.0600 333.1547 181.1467 -0.506
2655 6 4 0.0600 334.4717 183.08270000000002 -0.5140000000000001
2656 6 4 0.0600 333.3277 184.0907 0.3429999999999999
2657 6 4 0.0600 333.0707 183.6677 -1.413
2658 6 2 -0.1200 334.73969999999997 182.0157 0.0
2659 6 3 -0.0600 336.2277 182.0157 0.0
2660 6 1 -0.1800 336.8717 181.6087 1.276
2661 6 4 0.0600 334.4237 182.5307 -0.95
2662 6 4 0.0600 334.2727 181.01670000000001 -0.06
2663 6 4 0.0600 336.6427 181.5097 -0.869
2664 6 4 0.0600 337.9597 181.5017 1.067
2665 6 4 0.0600 336.8157 182.3587 2.075
2666 6 4 0.0600 336.5587 180.6027 1.652
2667 6 2 -0.1200 338.22769999999997 182.0157 0.0
2668 6 3 -0.0600 339.7157 182.0157 0.0
2669 6 1 -0.1800 340.3597 183.29170000000002 -0.40700000000000003
2670 6 4 0.0600 337.9117 181.06570000000002 0.5150000000000001
2671 6 4 0.0600 337.7607 181.9557 -0.999
2672 6 4 0.0600 340.1307 181.1467 -0.506
2673 6 4 0.0600 341.4477 183.08270000000002 -0.5140000000000001
2674 6 4 0.0600 340.3037 184.0907 0.3429999999999999
2675 6 4 0.0600 340.0467 183.6677 -1.413
2676 6 2 -0.1200 341.71569999999997 182.0157 0.0
2677 6 3 -0.0600 343.2037 182.0157 0.0
2678 6 1 -0.1800 343.8477 181.6087 1.276
2679 6 4 0.0600 341.3997 182.5307 -0.95
2680 6 4 0.0600 341.2487 181.01670000000001 -0.06
2681 6 4 0.0600 343.6187 181.5097 -0.869
2682 6 4 0.0600 344.9357 181.5017 1.067
2683 6 4 0.0600 343.7917 182.3587 2.075
2684 6 4 0.0600 343.5347 180.6027 1.652
2685 6 2 -0.1200 345.20369999999997 182.0157 0.0
2686 6 3 -0.0600 346.6917 182.0157 0.0
2687 6 1 -0.1800 347.3357 180.7397 -0.4069999999999999
2688 6 4 0.0600 344.8877 182.9657 0.5149999999999999
2689 6 4 0.0600 344.7367 182.0757 -0.999
2690 6 4 0.0600 347.1067 182.8847 -0.506
2691 6 4 0.0600 348.4237 180.9487 -0.5139999999999999
2692 6 4 0.0600 347.2797 179.94070000000002 0.34300000000000014
2693 6 4 0.0600 347.0227 180.36370000000002 -1.413
2694 6 2 -0.1200 348.69169999999997 182.0157 0.0
2695 6 3 -0.0600 350.1797 182.0157 0.0
2696 6 1 -0.1800 350.8237 181.6087 1.276
2697 6 4 0.0600 348.3757 182.5307 -0.95
2698 6 4 0.0600 348.2247 181.01670000000001 -0.06
2699 6 4 0.0600 350.5947 181.5097 -0.869
2700 6 4 0.0600 351.9117 181.5017 1.067
2701 6 4 0.0600 350.7677 182.3587 2.075
2702 6 4 0.0600 350.5107 180.6027 1.652
2703 6 2 -0.1200 351.2527 182.0157 0.0
2704 6 2 -0.1200 352.6007 181.6857 0.57
2705 6 1 -0.1800 353.6217 182.4727 -0.24500000000000002
2706 6 4 0.0600 350.4857 181.66070000000002 0.703
2707 6 4 0.0600 351.1897 181.57670000000002 -1.008
2708 6 4 0.0600 352.7577 180.5987 0.5030000000000001
2709 6 4 0.0600 352.7317 181.9907 1.618
2710 6 4 0.0600 353.4527 182.3777 -1.33
2711 6 4 0.0600 353.5157 183.5217 0.05699999999999991
2712 6 4 0.0600 354.5947 182.0157 0.0
2713 7 1 -0.1800 363.28929999999997 182.0157 0.0
2714 7 3 -0.0600 364.7733 182.0157 0.0
2715 7 1 -0.1800 365.41929999999996 181.5917 1.258
2716 7 4 0.0600 362.8123 181.0677 0.325
2717 7 4 0.0600 362.9103 182.7887 0.716
2718 7 4 0.0600 362.9523 182.3067 -1.017
2719 7 4 0.0600 365.2623 181.7237 -0.93
2720 7 4 0.0600 366.34229999999997 182.2177 1.4
2721 7 4 0.0600 365.7353 180.51670000000001 1.29
2722 7 4 0.0600 364.7153 181.75670000000002 2.096
2723 7 2 -0.1200 366.77129999999994 182.0157 0.0
2724 7 3 -0.0600 368.2593 182.0157 0.0
2725 7 1 -0.1800 368.90329999999994 180.7397 -0.4069999999999999
2726 7 4 0.0600 366.45529999999997 182.9657 0.5149999999999999
2727 7 4 0.0600 366.30429999999996 182.0757 -0.999
2728 7 4 0.0600 368.67429999999996 182.8847 -0.506
2729 7 4 0.0600 369.99129999999997 180.9487 -0.5139999999999999
2730 7 4 0.0600 368.84729999999996 179.94070000000002 0.34300000000000014
2731 7 4 0.0600 368.59029999999996 180.36370000000002 -1.413
2732 7 2 -0.1200 370.25929999999994 182.0157 0.0
2733 7 3 -0.0600 371.7473 182.0157 0.0
2734 7 1 -0.1800 372.39129999999994 181.6087 -1.276
2735 7 4 0.0600 369.94329999999997 182.5307 0.95
2736 7 4 0.0600 369.79229999999995 181.01670000000001 0.06
2737 7 4 0.0600 372.16229999999996 181.5097 0.869
2738 7 4 0.0600 373.47929999999997 181.5017 -1.067
2739 7 4 0.0600 372.33529999999996 182.3587 -2.075
2740 7 4 0.0600 372.07829999999996 180.6027 -1.652
2741 7 2 -0.1200 373.74729999999994 182.0157 0.0
2742 7 3 -0.0600 375.2353 182.0157 0.0
2743 7 1 -0.1800 375.87929999999994 183.29170000000002 -0.40700000000000003
2744 7 4 0.0600 373.43129999999996 181.06570000000002 0.5150000000000001
2745 7 4 0.0600 373.28029999999995 181.9557 -0.999
2746 7 4 0.0600 375.65029999999996 181.1467 -0.506
2747 7 4 0.0600 376.96729999999997 183.08270000000002 -0.5140000000000001
2748 7 4 0.0600 375.82329999999996 184.0907 0.3429999999999999
2749 7 4 0.0600 375.56629999999996 183.6677 -1.413
2750 7 2 -0.1200 377.23529999999994 182.0157 0.0
2751 7 3 -0.0600 378.7233 182.0157 0.0
2752 7 1 -0.1800 379.36729999999994 181.6087 -1.276
2753 7 4 0.0600 376.91929999999996 182.5307 0.95
2754 7 4 0.0600 376.76829999999995 181.01670000000001 0.06
2755 7 4 0.0600 379.13829999999996 181.5097 0.869
2756 7 4 0.0600 380.45529999999997 181.5017 -1.067
2757 7 4 0.0600 379.31129999999996 182.3587 -2.075
2758 7 4 0.0600 379.05429999999996 180.6027 -1.652
2759 7 2 -0.1200 380.72329999999994 182.0157 0.0
2760 7 3 -0.0600 382.2113 182.0157 0.0
2761 7 1 -0.1800 382.85529999999994 183.29170000000002 -0.40700000000000003
2762 7 4 0.0600 380.40729999999996 181.06570000000002 0.5150000000000001
2763 7 4 0.0600 380.25629999999995 181.9557 -0.999
2764 7 4 0.0600 382.62629999999996 181.1467 -0.506
2765 7 4 0.0600 383.94329999999997 183.08270000000002 -0.5140000000000001
2766 7 4 0.0600 382.79929999999996 184.0907 0.3429999999999999
2767 7 4 0.0600 382.54229999999995 183.6677 -1.413
2768 7 2 -0.1200 384.21129999999994 182.0157 0.0
2769 7 3 -0.0600 385.6993 182.0157 0.0
2770 7 1 -0.1800 386.34329999999994 181.6087 1.276
2771 7 4 0.0600 383.89529999999996 182.5307 -0.95
2772 7 4 0.0600 383.74429999999995 181.01670000000001 -0.06
2773 7 4 0.0600 386.11429999999996 181.5097 -0.869
2774 7 4 0.0600 387.43129999999996 181.5017 1.067
2775 7 4 0.0600 386.28729999999996 182.3587 2.075
2776 7 4 0.0600 386.03029999999995 180.6027 1.652
2777 7 2 -0.1200 387.69929999999994 182.0157 0.0
2778 7 3 -0.0600 389.1873 182.0157 0.0
2779 7 1 -0.1800 389.83129999999994 180.7397 -0.4069999999999999
2780 7 4 0.0600 387.38329999999996 182.9657 0.5149999999999999
2781 7 4 0.0600 387.23229999999995 182.0757 -0.999
2782 7 4 0.0600 389.60229999999996 182.8847 -0.506
2783 7 4 0.0600 390.91929999999996 180.9487 -0.5139999999999999
2784 7 4 0.0600 389.77529999999996 179.94070000000002 0.34300000000000014
2785 7 4 0.0600 389.51829999999995 180.36370000000002 -1.413
2786 7 2 -0.1200 391.18729999999994 182.0157 0.0
2787 7 3 -0.0600 392.6753 182.0157 0.0
2788 7 1 -0.1800 393.31929999999994 181.6087 -1.276
2789 7 4 0.0600 390.87129999999996 182.5307 0.95
2790 7 4 0.0600 390.72029999999995 181.01670000000001 0.06
2791 7 4 0.0600 393.09029999999996 181.5097 0.869
2792 7 4 0.0600 394.40729999999996 181.5017 -1.067
2793 7 4 0.0600 393.26329999999996 182.3587 -2.075
2794 7 4 0.0600 393.00629999999995 180.6027 -1.652
2795 7 2 -0.1200 394.67529999999994 182.0157 0.0
2796 7 3 -0.0600 396.1633 182.0157 0.0
2797 7 1 -0.1800 396.80729999999994 183.29170000000002 -0.40700000000000003
2798 7 4 0.0600 394.35929999999996 181.06570000000002 0.5150000000000001
2799 7 4 0.0600 394.20829999999995 181.9557 -0.999
2800 7 4 0.0600 396.57829999999996 181.1467 -0.506
2801 7 4 0.0600 397.89529999999996 183.08270000000002 -0.5140000000000001
2802 7 4 0.0600 396.75129999999996 184.0907 0.3429999999999999
2803 7 4 0.0600 396.49429999999995 183.6677 -1.413
2804 7 2 -0.1200 398.16329999999994 182.0157 0.0
2805 7 3 -0.0600 399.6513 182.0157 0.0
2806 7 1 -0.1800 400.29529999999994 181.6087 -1.276
2807 7 4 0.0600 397.84729999999996 182.5307 0.95
2808 7 4 0.0600 397.69629999999995 181.01670000000001 0.06
2809 7 4 0.0600 400.06629999999996 181.5097 0.869
2810 7 4 0.0600 401.38329999999996 181.5017 -1.067
2811 7 4 0.0600 400.23929999999996 182.3587 -2.075
2812 7 4 0.0600 399.98229999999995 180.6027 -1.652
2813 7 2 -0.1200 401.65129999999994 182.0157 0.0
2814 7 3 -0.0600 403.1393 182.0157 0.0
2815 7 1 -0.1800 403.78329999999994 183.29170000000002 -0.40700000000000003
2816 7 4 0.0600 401.33529999999996 181.06570000000002 0.5150000000000001
2817 7 4 0.0600 401.18429999999995 181.9557 -0.999
2818 7 4 0.0600 403.55429999999996 181.1467 -0.506
2819 7 4 0.0600 404.87129999999996 183.08270000000002 -0.5140000000000001
2820 7 4 0.0600 403.72729999999996 184.0907 0.3429999999999999
2821 7 4 0.0600 403.47029999999995 183.6677 -1.413
2822 7 2 -0.1200 405.13929999999993 182.0157 0.0
2823 7 3 -0.0600 406.6273 182.0157 0.0
2824 7 1 -0.1800 407.27129999999994 181.6087 -1.276
2825 7 4 0.0600 404.82329999999996 182.5307 0.95
2826 7 4 0.0600 404.67229999999995 181.01670000000001 0.06
2827 7 4 0.0600 407.04229999999995 181.5097 0.869
2828 7 4 0.0600 408.35929999999996 181.5017 -1.067
2829 7 4 0.0600 407.21529999999996 182.3587 -2.075
2830 7 4 0.0600 406.95829999999995 180.6027 -1.652
2831 7 2 -0.1200 408.6273 182.0157 0.0
2832 7 3 -0.0600 410.11530000000005 182.0157 0.0
2833 7 1 -0.1800 410.7593 180.7397 -0.4069999999999999
2834 7 4 0.0600 408.3113 182.9657 0.5149999999999999
2835 7 4 0.0600 408.1603 182.0757 -0.999
2836 7 4 0.0600 410.5303 182.8847 -0.506
2837 7 4 0.0600 411.8473 180.9487 -0.5139999999999999
2838 7 4 0.0600 410.7033 179.94070000000002 0.34300000000000014
2839 7 4 0.0600 410.4463 180.36370000000002 -1.413
2840 7 2 -0.1200 412.11529999999993 182.0157 0.0
2841 7 3 -0.0600 413.6033 182.0157 0.0
2842 7 1 -0.1800 414.24729999999994 181.6087 -1.276
2843 7 4 0.0600 411.79929999999996 182.5307 0.95
2844 7 4 0.0600 411.64829999999995 181.01670000000001 0.06
2845 7 4 0.0600 414.01829999999995 181.5097 0.869
2846 7 4 0.0600 415.33529999999996 181.5017 -1.067
2847 7 4 0.0600 414.19129999999996 182.3587 -2.075
2848 7 4 0.0600 413.93429999999995 180.6027 -1.652
2849 7 2 -0.1200 415.6033 182.0157 0.0
2850 7 3 -0.0600 417.09130000000005 182.0157 0.0
2851 7 1 -0.1800 417.7353 183.29170000000002 -0.40700000000000003
2852 7 4 0.0600 415.2873 181.06570000000002 0.5150000000000001
2853 7 4 0.0600 415.1363 181.9557 -0.999
2854 7 4 0.0600 417.5063 181.1467 -0.506
2855 7 4 0.0600 418.8233 183.08270000000002 -0.5140000000000001
2856 7 4 0.0600 417.6793 184.0907 0.3429999999999999
2857 7 4 0.0600 417.4223 183.6677 -1.413
2858 7 2 -0.1200 419.09129999999993 182.0157 0.0
2859 7 3 -0.0600 420.5793 182.0157 0.0
2860 7 1 -0.1800 421.22329999999994 181.6087 -1.276
2861 7 4 0.0600 418.77529999999996 182.5307 0.95
2862 7 4 0.0600 418.62429999999995 181.01670000000001 0.06
2863 7 4 0.0600 420.99429999999995 181.5097 0.869
2864 7 4 0.0600 422.31129999999996 181.5017 -1.067
2865 7 4 0.0600 421.16729999999995 182.3587 -2.075
2866 7 4 0.0600 420.91029999999995 180.6027 -1.652
2867 7 2 -0.1200 422.5793 182.0157 0.0
2868 7 3 -0.0600 424.06730000000005 182.0157 0.0
2869 7 1 -0.1800 424.7113 183.29170000000002 -0.40700000000000003
2870 7 4 0.0600 422.2633 181.06570000000002 0.5150000000000001
2871 7 4 0.0600 422.1123 181.9557 -0.999
2872 7 4 0.0600 424.4823 181.1467 -0.506
2873 7 4 0.0600 425.7993 183.08270000000002 -0.5140000000000001
2874 7 4 0.0600 424.6553 184.0907 0.3429999999999999
2875 7 4 0.0600 424.3983 183.6677 -1.413
2876 7 2 -0.1200 426.06729999999993 182.0157 0.0
2877 7 3 -0.0600 427.5553 182.0157 0.0
2878 7 1 -0.1800 428.19929999999994 181.6087 -1.276
2879 7 4 0.0600 425.75129999999996 182.5307 0.95
2880 7 4 0.0600 425.60029999999995 181.01670000000001 0.06
2881 7 4 0.0600 427.97029999999995 181.5097 0.869
2882 7 4 0.0600 429.28729999999996 181.5017 -1.067
2883 7 4 0.0600 428.14329999999995 182.3587 -2.075
2884 7 4 0.0600 427.88629999999995 180.6027 -1.652
2885 7 2 -0.1200 429.5553 182.0157 0.0
2886 7 3 -0.0600 431.04330000000004 182.0157 0.0
2887 7 1 -0.1800 431.6873 180.7397 -0.4069999999999999
2888 7 4 0.0600 429.2393 182.9657 0.5149999999999999
2889 7 4 0.0600 429.0883 182.0757 -0.999
2890 7 4 0.0600 431.4583 182.8847 -0.506
2891 7 4 0.0600 432.7753 180.9487 -0.5139999999999999
2892 7 4 0.0600 431.6313 179.94070000000002 0.34300000000000014
2893 7 4 0.0600 431.3743 180.36370000000002 -1.413
2894 7 2 -0.1200 433.04329999999993 182.0157 0.0
2895 7 3 -0.0600 434.5313 182.0157 0.0
2896 7 1 -0.1800 435.17529999999994 181.6087 1.276
2897 7 4 0.0600 432.72729999999996 182.5307 -0.95
2898 7 4 0.0600 432.57629999999995 181.01670000000001 -0.06
2899 7 4 0.0600 434.94629999999995 181.5097 -0.869
2900 7 4 0.0600 436.26329999999996 181.5017 1.067
2901 7 4 0.0600 435.11929999999995 182.3587 2.075
2902 7 4 0.0600 434.86229999999995 180.6027 1.652
2903 7 2 -0.1200 436.5313 182.0157 0.0
2904 7 3 -0.0600 438.01930000000004 182.0157 0.0
2905 7 1 -0.1800 438.6633 183.29170000000002 -0.40700000000000003
2906 7 4 0.0600 436.2153 181.06570000000002 0.5150000000000001
2907 7 4 0.0600 436.0643 181.9557 -0.999
2908 7 4 0.0600 438.4343 181.1467 -0.506
2909 7 4 0.0600 439.7513 183.08270000000002 -0.5140000000000001
2910 7 4 0.0600 438.6073 184.0907 0.3429999999999999
2911 7 4 0.0600 438.3503 183.6677 -1.413
2912 7 2 -0.1200 440.01929999999993 182.0157 0.0
2913 7 3 -0.0600 441.5073 182.0157 0.0
2914 7 1 -0.1800 442.15129999999994 181.6087 -1.276
2915 7 4 0.0600 439.70329999999996 182.5307 0.95
2916 7 4 0.0600 439.55229999999995 181.01670000000001 0.06
2917 7 4 0.0600 441.92229999999995 181.5097 0.869
2918 7 4 0.0600 443.23929999999996 181.5017 -1.067
2919 7 4 0.0600 442.09529999999995 182.3587 -2.075
2920 7 4 0.0600 441.83829999999995 180.6027 -1.652
2921 7 2 -0.1200 443.5073 182.0157 0.0
2922 7 3 -0.0600 444.99530000000004 182.0157 0.0
2923 7 1 -0.1800 445.6393 180.7397 -0.4069999999999999
2924 7 4 0.0600 443.1913 182.9657 0.5149999999999999
2925 7 4 0.0600 443.0403 182.0757 -0.999
2926 7 4 0.0600 445.4103 182.8847 -0.506
2927 7 4 0.0600 446.7273 180.9487 -0.5139999999999999
2928 7 4 0.0600 445.5833 179.94070000000002 0.34300000000000014
2929 7 4 0.0600 445.3263 180.36370000000002 -1.413
2930 7 2 -0.1200 446.99529999999993 182.0157 0.0
2931 7 3 -0.0600 448.4833 182.0157 0.0
2932 7 1 -0.1800 449.12729999999993 181.6087 -1.276
2933 7 4 0.0600 446.67929999999996 182.5307 0.95
2934 7 4 0.0600 446.52829999999994 181.01670000000001 0.06
2935 7 4 0.0600 448.89829999999995 181.5097 0.869
2936 7 4 0.0600 450.21529999999996 181.5017 -1.067
2937 7 4 0.0600 449.07129999999995 182.3587 -2.075
2938 7 4 0.0600 448.81429999999995 180.6027 -1.652
2939 7 2 -0.1200 450.4833 182.0157 0.0
2940 7 3 -0.0600 451.97130000000004 182.0157 0.0
2941 7 1 -0.1800 452.6153 183.29170000000002 -0.40700000000000003
2942 7 4 0.0600 450.1673 181.06570000000002 0.5150000000000001
2943 7 4 0.0600 450.0163 181.9557 -0.999
2944 7 4 0.0600 452.3863 181.1467 -0.506
2945 7 4 0.0600 453.7033 183.08270000000002 -0.5140000000000001
2946 7 4 0.0600 452.5593 184.0907 0.3429999999999999
2947 7 4 0.0600 452.3023 183.6677 -1.413
2948 7 2 -0.1200 453.9712999999999 182.0157 0.0
2949 7 3 -0.0600 455.4593 182.0157 0.0
2950 7 1 -0.1800 456.10329999999993 181.6087 1.276
2951 7 4 0.0600 453.65529999999995 182.5307 -0.95
2952 7 4 0.0600 453.50429999999994 181.01670000000001 -0.06
2953 7 4 0.0600 455.87429999999995 181.5097 -0.869
2954 7 4 0.0600 457.19129999999996 181.5017 1.067
2955 7 4 0.0600 456.04729999999995 182.3587 2.075
2956 7 4 0.0600 455.79029999999995 180.6027 1.652
2957 7 2 -0.1200 457.4593 182.0157 0.0
2958 7 3 -0.0600 458.94730000000004 182.0157 0.0
2959 7 1 -0.1800 459.5913 183.29170000000002 -0.40700000000000003
2960 7 4 0.0600 457.1433 181.06570000000002 0.5150000000000001
2961 7 4 0.0600 456.9923 181.9557 -0.999
2962 7 4 0.0600 459.3623 181.1467 -0.506
2963 7 4 0.0600 460.6793 183.08270000000002 -0.5140000000000001
2964 7 4 0.0600 459.5353 184.0907 0.3429999999999999
2965 7 4 0.0600 459.2783 183.6677 -1.413
2966 7 2 -0.1200 460.9472999999999 182.0157 0.0
2967 7 3 -0.0600 462.4353 182.0157 0.0
2968 7 1 -0.1800 463.07929999999993 181.6087 -1.276
2969 7 4 0.0600 460.63129999999995 182.5307 0.95
2970 7 4 0.0600 460.48029999999994 181.01670000000001 0.06
2971 7 4 0.0600 462.85029999999995 181.5097 0.869
2972 7 4 0.0600 464.16729999999995 181.5017 -1.067
2973 7 4 0.0600 463.02329999999995 182.3587 -2.075
2974 7 4 0.0600 462.76629999999994 180.6027 -1.652
2975 7 2 -0.1200 464.4353 182.0157 0.0
2976 7 3 -0.0600 465.92330000000004 182.0157 0.0
2977 7 1 -0.1800 466.5673 183.29170000000002 -0.40700000000000003
2978 7 4 0.0600 464.1193 181.06570000000002 0.5150000000000001
2979 7 4 0.0600 463.9683 181.9557 -0.999
2980 7 4 0.0600 466.3383 181.1467 -0.506
2981 7 4 0.0600 467.6553 183.08270000000002 -0.5140000000000001
2982 7 4 0.0600 466.5113 184.0907 0.3429999999999999
2983 7 4 0.0600 466.2543 183.6677 -1.413
2984 7 2 -0.1200 467.9232999999999 182.0157 0.0
2985 7 3 -0.0600 469.4113 182.0157 0.0
2986 7 1 -0.1800 470.05529999999993 181.6087 -1.276
2987 7 4 0.0600 467.60729999999995 182.5307 0.95
2988 7 4 0.0600 467.45629999999994 181.01670000000001 0.06
2989 7 4 0.0600 469.82629999999995 181.5097 0.869
2990 7 4 0.0600 471.14329999999995 181.5017 -1.067
2991 7 4 0.0600 469.99929999999995 182.3587 -2.075
2992 7 4 0.0600 469.74229999999994 180.6027 -1.652
2993 7 2 -0.1200 471.4113 182.0157 0.0
2994 7 3 -0.0600 472.89930000000004 182.0157 0.0
2995 7 1 -0.1800 473.5433 183.29170000000002 -0.40700000000000003
2996 7 4 0.0600 471.0953 181.06570000000002 0.5150000000000001
2997 7 4 0.0600 470.9443 181.9557 -0.999
2998 7 4 0.0600 473.3143 181.1467 -0.506
2999 7 4 0.0600 474.6313 183.08270000000002 -0.5140000000000001
3000 7 4 0.0600 473.4873 184.0907 0.3429999999999999
3001 7 4 0.0600 473.2303 183.6677 -1.413
3002 7 2 -0.1200 474.8992999999999 182.0157 0.0
3003 7 3 -0.0600 476.3873 182.0157 0.0
3004 7 1 -0.1800 477.03129999999993 181.6087 1.276
3005 7 4 0.0600 474.58329999999995 182.5307 -0.95
3006 7 4 0.0600 474.43229999999994 181.01670000000001 -0.06
3007 7 4 0.0600 476.80229999999995 181.5097 -0.869
3008 7 4 0.0600 478.11929999999995 181.5017 1.067
3009 7 4 0.0600 476.97529999999995 182.3587 2.075
3010 7 4 0.0600 476.71829999999994 180.6027 1.652
3011 7 2 -0.1200 478.3873 182.0157 0.0
3012 7 3 -0.0600 479.87530000000004 182.0157 0.0
3013 7 1 -0.1800 480.5193 183.29170000000002 -0.40700000000000003
3014 7 4 0.0600 478.0713 181.06570000000002 0.5150000000000001
3015 7 4 0.0600 477.9203 181.9557 -0.999
3016 7 4 0.0600 480.2903 181.1467 -0.506
3017 7 4 0.0600 481.6073 183.08270000000002 -0.5140000000000001
3018 7 4 0.0600 480.4633 184.0907 0.3429999999999999
3019 7 4 0.0600 480.2063 183.6677 -1.413
3020 7 2 -0.1200 481.8752999999999 182.0157 0.0
3021 7 3 -0.0600 483.3633 182.0157 0.0
3022 7 1 -0.1800 484.00729999999993 181.6087 1.276
3023 7 4 0.0600 481.55929999999995 182.5307 -0.95
3024 7 4 0.0600 481.40829999999994 181.01670000000001 -0.06
3025 7 4 0.0600 483.77829999999994 181.5097 -0.869
3026 7 4 0.0600 485.09529999999995 181.5017 1.067
3027 7 4 0.0600 483.95129999999995 182.3587 2.075
3028 7 4 0.0600 483.69429999999994 180.6027 1.652
3029 7 2 -0.1200 485.3633 182.0157 0.0
3030 7 3 -0.0600 486.85130000000004 182.0157 0.0
3031 7 1 -0.1800 487.4953 180.7397 -0.4069999999999999
3032 7 4 0.0600 485.0473 182.9657 0.5149999999999999
3033 7 4 0.0600 484.8963 182.0757 -0.999
3034 7 4 0.0600 487.2663 182.8847 -0.506
3035 7 4 0.0600 488.5833 180.9487 -0.5139999999999999
3036 7 4 0.0600 487.4393 179.94070000000002 0.34300000000000014
3037 7 4 0.0600 487.1823 180.36370000000002 -1.413
3038 7 2 -0.1200 488.8512999999999 182.0157 0.0
3039 7 3 -0.0600 490.3393 182.0157 0.0
3040 7 1 -0.1800 490.98329999999993 181.6087 1.276
3041 7 4 0.0600 488.53529999999995 182.5307 -0.95
3042 7 4 0.0600 488.38429999999994 181.01670000000001 -0.06
3043 7 4 0.0600 490.75429999999994 181.5097 -0.869
3044 7 4 0.0600 492.07129999999995 181.5017 1.067
3045 7 4 0.0600 490.92729999999995 182.3587 2.075
3046 7 4 0.0600 490.67029999999994 180.6027 1.652
3047 7 2 -0.1200 492.3393 182.0157 0.0
3048 7 3 -0.0600 493.82730000000004 182.0157 0.0
3049 7 1 -0.1800 494.4713 183.29170000000002 -0.40700000000000003
3050 7 4 0.0600 492.0233 181.06570000000002 0.5150000000000001
3051 7 4 0.0600 491.8723 181.9557 -0.999
3052 7 4 0.0600 494.2423 181.1467 -0.506
3053 7 4 0.0600 495.5593 183.08270000000002 -0.5140000000000001
3054 7 4 0.0600 494.4153 184.0907 0.3429999999999999
3055 7 4 0.0600 494.1583 183.6677 -1.413
3056 7 2 -0.1200 495.8272999999999 182.0157 0.0
3057 7 3 -0.0600 497.3153 182.0157 0.0
3058 7 1 -0.1800 497.9592999999999 181.6087 1.276
3059 7 4 0.0600 495.51129999999995 182.5307 -0.95
3060 7 4 0.0600 495.36029999999994 181.01670000000001 -0.06
3061 7 4 0.0600 497.73029999999994 181.5097 -0.869
3062 7 4 0.0600 499.04729999999995 181.5017 1.067
3063 7 4 0.0600 497.90329999999994 182.3587 2.075
3064 7 4 0.0600 497.64629999999994 180.6027 1.652
3065 7 2 -0.1200 499.3153 182.0157 0.0
3066 7 3 -0.0600 500.80330000000004 182.0157 0.0
3067 7 1 -0.1800 501.4473 183.29170000000002 -0.40700000000000003
3068 7 4 0.0600 498.9993 181.06570000000002 0.5150000000000001
3069 7 4 0.0600 498.8483 181.9557 -0.999
3070 7 4 0.0600 501.2183 181.1467 -0.506
3071 7 4 0.0600 502.5353 183.08270000000002 -0.5140000000000001
3072 7 4 0.0600 501.3913 184.0907 0.3429999999999999
3073 7 4 0.0600 501.1343 183.6677 -1.413
3074 7 2 -0.1200 502.8032999999999 182.0157 0.0
3075 7 3 -0.0600 504.2913 182.0157 0.0
3076 7 1 -0.1800 504.9352999999999 181.6087 -1.276
3077 7 4 0.0600 502.48729999999995 182.5307 0.95
3078 7 4 0.0600 502.33629999999994 181.01670000000001 0.06
3079 7 4 0.0600 504.70629999999994 181.5097 0.869
3080 7 4 0.0600 506.02329999999995 181.5017 -1.067
3081 7 4 0.0600 504.87929999999994 182.3587 -2.075
3082 7 4 0.0600 504.62229999999994 180.6027 -1.652
3083 7 2 -0.1200 506.2913 182.0157 0.0
3084 7 3 -0.0600 507.77930000000003 182.0157 0.0
3085 7 1 -0.1800 508.4233 183.29170000000002 -0.40700000000000003
3086 7 4 0.0600 505.9753 181.06570000000002 0.5150000000000001
3087 7 4 0.0600 505.8243 181.9557 -0.999
3088 7 4 0.0600 508.1943 181.1467 -0.506
3089 7 4 0.0600 509.5113 183.08270000000002 -0.5140000000000001
3090 7 4 0.0600 508.3673 184.0907 0.3429999999999999
3091 7 4 0.0600 508.1103 183.6677 -1.413
3092 7 2 -0.1200 509.7792999999999 182.0157 0.0
3093 7 3 -0.0600 511.2673 182.0157 0.0
3094 7 1 -0.1800 511.9112999999999 181.6087 1.276
3095 7 4 0.0600 509.46329999999995 182.5307 -0.95
3096 7 4 0.0600 509.31229999999994 181.01670000000001 -0.06
3097 7 4 0.0600 511.68229999999994 181.5097 -0.869
3098 7 4 0.0600 512.9993 181.5017 1.067
3099 7 4 0.0600 511.85529999999994 182.3587 2.075
3100 7 4 0.0600 511.59829999999994 180.6027 1.652
3101 7 2 -0.1200 513.2673 182.0157 0.0
3102 7 3 -0.0600 514.7553 182.0157 0.0
3103 7 1 -0.1800 515.3993 183.29170000000002 -0.40700000000000003
3104 7 4 0.0600 512.9513000000001 181.06570000000002 0.5150000000000001
3105 7 4 0.0600 512.8003 181.9557 -0.999
3106 7 4 0.0600 515.1703 181.1467 -0.506
3107 7 4 0.0600 516.4873 183.08270000000002 -0.5140000000000001
3108 7 4 0.0600 515.3433 184.0907 0.3429999999999999
3109 7 4 0.0600 515.0863 183.6677 -1.413
3110 7 2 -0.1200 516.7552999999999 182.0157 0.0
3111 7 3 -0.0600 518.2433 182.0157 0.0
3112 7 1 -0.1800 518.8873 181.6087 1.276
3113 7 4 0.0600 516.4393 182.5307 -0.95
3114 7 4 0.0600 516.2882999999999 181.01670000000001 -0.06
3115 7 4 0.0600 518.6582999999999 181.5097 -0.869
3116 7 4 0.0600 519.9753 181.5017 1.067
3117 7 4 0.0600 518.8312999999999 182.3587 2.075
3118 7 4 0.0600 518.5743 180.6027 1.652
3119 7 2 -0.1200 520.2433 182.0157 0.0
3120 7 3 -0.0600 521.7313 182.0157 0.0
3121 7 1 -0.1800 522.3753 180.7397 -0.4069999999999999
3122 7 4 0.0600 519.9273000000001 182.9657 0.5149999999999999
3123 7 4 0.0600 519.7763 182.0757 -0.999
3124 7 4 0.0600 522.1463 182.8847 -0.506
3125 7 4 0.0600 523.4633 180.9487 -0.5139999999999999
3126 7 4 0.0600 522.3193 179.94070000000002 0.34300000000000014
3127 7 4 0.0600 522.0623 180.36370000000002 -1.413
3128 7 2 -0.1200 523.7312999999999 182.0157 0.0
3129 7 3 -0.0600 525.2193 182.0157 0.0
3130 7 1 -0.1800 525.8633 181.6087 1.276
3131 7 4 0.0600 523.4153 182.5307 -0.95
3132 7 4 0.0600 523.2642999999999 181.01670000000001 -0.06
3133 7 4 0.0600 525.6342999999999 181.5097 -0.869
3134 7 4 0.0600 526.9513 181.5017 1.067
3135 7 4 0.0600 525.8072999999999 182.3587 2.075
3136 7 4 0.0600 525.5503 180.6027 1.652
3137 7 2 -0.1200 527.2193 182.0157 0.0
3138 7 3 -0.0600 528.7073 182.0157 0.0
3139 7 1 -0.1800 529.3513 183.29170000000002 -0.40700000000000003
3140 7 4 0.0600 526.9033000000001 181.06570000000002 0.5150000000000001
3141 7 4 0.0600 526.7523 181.9557 -0.999
3142 7 4 0.0600 529.1223 181.1467 -0.506
3143 7 4 0.0600 530.4393 183.08270000000002 -0.5140000000000001
3144 7 4 0.0600 529.2953 184.0907 0.3429999999999999
3145 7 4 0.0600 529.0383 183.6677 -1.413
3146 7 2 -0.1200 530.7072999999999 182.0157 0.0
3147 7 3 -0.0600 532.1953 182.0157 0.0
3148 7 1 -0.1800 532.8393 181.6087 1.276
3149 7 4 0.0600 530.3913 182.5307 -0.95
3150 7 4 0.0600 530.2402999999999 181.01670000000001 -0.06
3151 7 4 0.0600 532.6102999999999 181.5097 -0.869
3152 7 4 0.0600 533.9273 181.5017 1.067
3153 7 4 0.0600 532.7832999999999 182.3587 2.075
3154 7 4 0.0600 532.5263 180.6027 1.652
3155 7 2 -0.1200 533.2683 182.0157 0.0
3156 7 2 -0.1200 534.6163 182.34570000000002 0.57
3157 7 1 -0.1800 535.6373 181.55870000000002 -0.24499999999999997
3158 7 4 0.0600 532.5013 182.3707 0.703
3159 7 4 0.0600 533.2053 182.4547 -1.008
3160 7 4 0.0600 534.7733 183.4327 0.5029999999999999
3161 7 4 0.0600 534.7473 182.04070000000002 1.618
3162 7 4 0.0600 535.4683 181.65370000000001 -1.33
3163 7 4 0.0600 535.5313 180.5097 0.05700000000000009
3164 7 4 0.0600 536.6103 182.0157 0.0
3165 8 1 -0.1800 545.3050000000001 182.0157 0.0
3166 8 3 -0.0600 546.789 182.0157 0.0
3167 8 1 -0.1800 547.4350000000001 181.5917 -1.258
3168 8 4 0.0600 544.828 181.0677 -0.325
3169 8 4 0.0600 544.926 182.7887 -0.716
3170 8 4 0.0600 544.9680000000001 182.3067 1.017
3171 8 4 0.0600 547.278 181.7237 0.93
3172 8 4 0.0600 548.3580000000001 182.2177 -1.4
3173 8 4 0.0600 547.751 180.51670000000001 -1.29
3174 8 4 0.0600 546.731 181.75670000000002 -2.096
3175 8 2 -0.1200 548.787 182.0157 0.0
3176 8 3 -0.0600 550.2750000000001 182.0157 0.0
3177 8 1 -0.1800 550.9190000000001 180.7397 -0.4069999999999999
3178 8 4 0.0600 548.4710000000001 182.9657 0.5149999999999999
3179 8 4 0.0600 548.32 182.0757 -0.999
3180 8 4 0.0600 550.69 182.8847 -0.506
3181 8 4 0.0600 552.0070000000001 180.9487 -0.5139999999999999
3182 8 4 0.0600 550.863 179.94070000000002 0.34300000000000014
3183 8 4 0.0600 550.6060000000001 180.36370000000002 -1.413
3184 8 2 -0.1200 552.275 182.0157 0.0
3185 8 3 -0.0600 553.763 182.0157 0.0
3186 8 1 -0.1800 554.407 181.6087 -1.276
3187 8 4 0.0600 551.9590000000001 182.5307 0.95
3188 8 4 0.0600 551.808 181.01670000000001 0.06
3189 8 4 0.0600 554.178 181.5097 0.869
3190 8 4 0.0600 555.495 181.5017 -1.067
3191 8 4 0.0600 554.351 182.3587 -2.075
3192 8 4 0.0600 554.094 180.6027 -1.652
3193 8 2 -0.1200 555.763 182.0157 0.0
3194 8 3 -0.0600 557.2510000000001 182.0157 0.0
3195 8 1 -0.1800 557.8950000000001 183.29170000000002 -0.40700000000000003
3196 8 4 0.0600 555.4470000000001 181.06570000000002 0.5150000000000001
3197 8 4 0.0600 555.296 181.9557 -0.999
3198 8 4 0.0600 557.666 181.1467 -0.506
3199 8 4 0.0600 558.9830000000001 183.08270000000002 -0.5140000000000001
3200 8 4 0.0600 557.839 184.0907 0.3429999999999999
3201 8 4 0.0600 557.5820000000001 183.6677 -1.413
3202 8 2 -0.1200 559.251 182.0157 0.0
3203 8 3 -0.0600 560.739 182.0157 0.0
3204 8 1 -0.1800 561.383 181.6087 1.276
3205 8 4 0.0600 558.9350000000001 182.5307 -0.95
3206 8 4 0.0600 558.784 181.01670000000001 -0.06
3207 8 4 0.0600 561.154 181.5097 -0.869
3208 8 4 0.0600 562.471 181.5017 1.067
3209 8 4 0.0600 561.327 182.3587 2.075
3210 8 4 0.0600 561.07 180.6027 1.652
3211 8 2 -0.1200 562.739 182.0157 0.0
3212 8 3 -0.0600 564.2270000000001 182.0157 0.0
3213 8 1 -0.1800 564.8710000000001 180.7397 -0.4069999999999999
3214 8 4 0.0600 562.4230000000001 182.9657 0.5149999999999999
3215 8 4 0.0600 562.272 182.0757 -0.999
3216 8 4 0.0600 564.642 182.8847 -0.506
3217 8 4 0.0600 565.9590000000001 180.9487 -0.5139999999999999
3218 8 4 0.0600 564.815 179.94070000000002 0.34300000000000014
3219 8 4 0.0600 564.5580000000001 180.36370000000002 -1.413
3220 8 2 -0.1200 566.227 182.0157 0.0
3221 8 3 -0.0600 567.715 182.0157 0.0
3222 8 1 -0.1800 568.359 181.6087 -1.276
3223 8 4 0.0600 565.9110000000001 182.5307 0.95
3224 8 4 0.0600 565.76 181.01670000000001 0.06
3225 8 4 0.0600 568.13 181.5097 0.869
3226 8 4 0.0600 569.447 181.5017 -1.067
3227 8 4 0.0600 568.303 182.3587 -2.075
3228 8 4 0.0600 568.046 180.6027 -1.652
3229 8 2 -0.1200 569.715 182.0157 0.0
3230 8 3 -0.0600 571.2030000000001 182.0157 0.0
3231 8 1 -0.1800 571.8470000000001 183.29170000000002 -0.40700000000000003
3232 8 4 0.0600 569.3990000000001 181.06570000000002 0.5150000000000001
3233 8 4 0.0600 569.248 181.9557 -0.999
3234 8 4 0.0600 571.618 181.1467 -0.506
3235 8 4 0.0600 572.9350000000001 183.08270000000002 -0.5140000000000001
3236 8 4 0.0600 571.791 184.0907 0.3429999999999999
3237 8 4 0.0600 571.5340000000001 183.6677 -1.413
3238 8 2 -0.1200 573.203 182.0157 0.0
3239 8 3 -0.0600 574.691 182.0157 0.0
3240 8 1 -0.1800 575.335 181.6087 -1.276
3241 8 4 0.0600 572.8870000000001 182.5307 0.95
3242 8 4 0.0600 572.736 181.01670000000001 0.06
3243 8 4 0.0600 575.106 181.5097 0.869
3244 8 4 0.0600 576.423 181.5017 -1.067
3245 8 4 0.0600 575.279 182.3587 -2.075
3246 8 4 0.0600 575.022 180.6027 -1.652
3247 8 2 -0.1200 576.691 182.0157 0.0
3248 8 3 -0.0600 578.1790000000001 182.0157 0.0
3249 8 1 -0.1800 578.8230000000001 180.7397 -0.4069999999999999
3250 8 4 0.0600 576.3750000000001 182.9657 0.5149999999999999
3251 8 4 0.0600 576.224 182.0757 -0.999
3252 8 4 0.0600 578.594 182.8847 -0.506
3253 8 4 0.0600 579.9110000000001 180.9487 -0.5139999999999999
3254 8 4 0.0600 578.767 179.94070000000002 0.34300000000000014
3255 8 4 0.0600 578.5100000000001 180.36370000000002 -1.413
3256 8 2 -0.1200 580.179 182.0157 0.0
3257 8 3 -0.0600 581.667 182.0157 0.0
3258 8 1 -0.1800 582.311 181.6087 1.276
3259 8 4 0.0600 579.863 182.5307 -0.95
3260 8 4 0.0600 579.712 181.01670000000001 -0.06
3261 8 4 0.0600 582.082 181.5097 -0.869
3262 8 4 0.0600 583.399 181.5017 1.067
3263 8 4 0.0600 582.255 182.3587 2.075
3264 8 4 0.0600 581.998 180.6027 1.652
3265 8 2 -0.1200 583.667 182.0157 0.0
3266 8 3 -0.0600 585.1550000000001 182.0157 0.0
3267 8 1 -0.1800 585.7990000000001 180.7397 -0.4069999999999999
3268 8 4 0.0600 583.3510000000001 182.9657 0.5149999999999999
3269 8 4 0.0600 583.2 182.0757 -0.999
3270 8 4 0.0600 585.57 182.8847 -0.506
3271 8 4 0.0600 586.8870000000001 180.9487 -0.5139999999999999
3272 8 4 0.0600 585.743 179.94070000000002 0.34300000000000014
3273 8 4 0.0600 585.4860000000001 180.36370000000002 -1.413
3274 8 2 -0.1200 587.155 182.0157 0.0
3275 8 3 -0.0600 588.643 182.0157 0.0
3276 8 1 -0.1800 589.287 181.6087 1.276
3277 8 4 0.0600 586.839 182.5307 -0.95
3278 8 4 0.0600 586.688 181.01670000000001 -0.06
3279 8 4 0.0600 589.058 181.5097 -0.869
3280 8 4 0.0600 590.375 181.5017 1.067
3281 8 4 0.0600 589.231 182.3587 2.075
3282 8 4 0.0600 588.974 180.6027 1.652
3283 8 2 -0.1200 590.643 182.0157 0.0
3284 8 3 -0.0600 592.1310000000001 182.0157 0.0
3285 8 1 -0.1800 592.7750000000001 183.29170000000002 -0.40700000000000003
3286 8 4 0.0600 590.3270000000001 181.06570000000002 0.5150000000000001
3287 8 4 0.0600 590.176 181.9557 -0.999
3288 8 4 0.0600 592.546 181.1467 -0.506
3289 8 4 0.0600 593.863 183.08270000000002 -0.5140000000000001
3290 8 4 0.0600 592.719 184.0907 0.3429999999999999
3291 8 4 0.0600 592.4620000000001 183.6677 -1.413
3292 8 2 -0.1200 594.131 182.0157 0.0
3293 8 3 -0.0600 595.619 182.0157 0.0
3294 8 1 -0.1800 596.263 181.6087 -1.276
3295 8 4 0.0600 593.815 182.5307 0.95
3296 8 4 0.0600 593.664 181.01670000000001 0.06
3297 8 4 0.0600 596.034 181.5097 0.869
3298 8 4 0.0600 597.351 181.5017 -1.067
3299 8 4 0.0600 596.207 182.3587 -2.075
3300 8 4 0.0600 595.95 180.6027 -1.652
3301 8 2 -0.1200 597.619 182.0157 0.0
3302 8 3 -0.0600 599.1070000000001 182.0157 0.0
3303 8 1 -0.1800 599.7510000000001 183.29170000000002 -0.40700000000000003
3304 8 4 0.0600 597.3030000000001 181.06570000000002 0.5150000000000001
3305 8 4 0.0600 597.152 181.9557 -0.999
3306 8 4 0.0600 599.522 181.1467 -0.506
3307 8 4 0.0600 600.839 183.08270000000002 -0.5140000000000001
3308 8 4 0.0600 599.695 184.0907 0.3429999999999999
3309 8 4 0.0600 599.4380000000001 183.6677 -1.413
3310 8 2 -0.1200 601.107 182.0157 0.0
3311 8 3 -0.0600 602.595 182.0157 0.0
3312 8 1 -0.1800 603.239 181.6087 -1.276
3313 8 4 0.0600 600.791 182.5307 0.95
3314 8 4 0.0600 600.64 181.01670000000001 0.06
3315 8 4 0.0600 603.01 181.5097 0.869
3316 8 4 0.0600 604.327 181.5017 -1.067
3317 8 4 0.0600 603.183 182.3587 -2.075
3318 8 4 0.0600 602.926 180.6027 -1.652
3319 8 2 -0.1200 604.595 182.0157 0.0
3320 8 3 -0.0600 606.0830000000001 182.0157 0.0
3321 8 1 -0.1800 606.7270000000001 183.29170000000002 -0.40700000000000003
3322 8 4 0.0600 604.2790000000001 181.06570000000002 0.5150000000000001
3323 8 4 0.0600 604.128 181.9557 -0.999
3324 8 4 0.0600 606.498 181.1467 -0.506
3325 8 4 0.0600 607.815 183.08270000000002 -0.5140000000000001
3326 8 4 0.0600 606.671 184.0907 0.3429999999999999
3327 8 4 0.0600 606.4140000000001 183.6677 -1.413
3328 8 2 -0.1200 608.083 182.0157 0.0
3329 8 3 -0.0600 609.571 182.0157 0.0
3330 8 1 -0.1800 610.215 181.6087 1.276
3331 8 4 0.0600 607.767 182.5307 -0.95
3332 8 4 0.0600 607.616 181.01670000000001 -0.06
3333 8 4 0.0600 609.986 181.5097 -0.869
3334 8 4 0.0600 611.303 181.5017 1.067
3335 8 4 0.0600 610.159 182.3587 2.075
3336 8 4 0.0600 609.902 180.6027 1.652
3337 8 2 -0.1200 611.571 182.0157 0.0
3338 8 3 -0.0600 613.0590000000001 182.0157 0.0
3339 8 1 -0.1800 613.7030000000001 180.7397 -0.4069999999999999
3340 8 4 0.0600 611.2550000000001 182.9657 0.5149999999999999
3341 8 4 0.0600 611.104 182.0757 -0.999
3342 8 4 0.0600 613.474 182.8847 -0.506
3343 8 4 0.0600 614.791 180.9487 -0.5139999999999999
3344 8 4 0.0600 613.647 179.94070000000002 0.34300000000000014
3345 8 4 0.0600 613.3900000000001 180.36370000000002 -1.413
3346 8 2 -0.1200 615.059 182.0157 0.0
3347 8 3 -0.0600 616.547 182.0157 0.0
3348 8 1 -0.1800 617.191 181.6087 1.276
3349 8 4 0.0600 614.743 182.5307 -0.95
3350 8 4 0.0600 614.592 181.01670000000001 -0.06
3351 8 4 0.0600 616.962 181.5097 -0.869
3352 8 4 0.0600 618.279 181.5017 1.067
3353 8 4 0.0600 617.135 182.3587 2.075
3354 8 4 0.0600 616.878 180.6027 1.652
3355 8 2 -0.1200 618.547 182.0157 0.0
3356 8 3 -0.0600 620.0350000000001 182.0157 0.0
3357 8 1 -0.1800 620.6790000000001 180.7397 -0.4069999999999999
3358 8 4 0.0600 618.2310000000001 182.9657 0.5149999999999999
3359 8 4 0.0600 618.08 182.0757 -0.999
3360 8 4 0.0600 620.45 182.8847 -0.506
3361 8 4 0.0600 621.767 180.9487 -0.5139999999999999
3362 8 4 0.0600 620.623 179.94070000000002 0.34300000000000014
3363 8 4 0.0600 620.3660000000001 180.36370000000002 -1.413
3364 8 2 -0.1200 622.035 182.0157 0.0
3365 8 3 -0.0600 623.523 182.0157 0.0
3366 8 1 -0.1800 624.167 181.6087 1.276
3367 8 4 0.0600 621.719 182.5307 -0.95
3368 8 4 0.0600 621.568 181.01670000000001 -0.06
3369 8 4 0.0600 623.938 181.5097 -0.869
3370 8 4 0.0600 625.255 181.5017 1.067
3371 8 4 0.0600 624.111 182.3587 2.075
3372 8 4 0.0600 623.854 180.6027 1.652
3373 8 2 -0.1200 625.523 182.0157 0.0
3374 8 3 -0.0600 627.0110000000001 182.0157 0.0
3375 8 1 -0.1800 627.6550000000001 183.29170000000002 -0.40700000000000003
3376 8 4 0.0600 625.2070000000001 181.06570000000002 0.5150000000000001
3377 8 4 0.0600 625.056 181.9557 -0.999
3378 8 4 0.0600 627.426 181.1467 -0.506
3379 8 4 0.0600 628.743 183.08270000000002 -0.5140000000000001
3380 8 4 0.0600 627.599 184.0907 0.3429999999999999
3381 8 4 0.0600 627.3420000000001 183.6677 -1.413
3382 8 2 -0.1200 629.011 182.0157 0.0
3383 8 3 -0.0600 630.499 182.0157 0.0
3384 8 1 -0.1800 631.143 181.6087 -1.276
3385 8 4 0.0600 628.695 182.5307 0.95
3386 8 4 0.0600 628.544 181.01670000000001 0.06
3387 8 4 0.0600 630.914 181.5097 0.869
3388 8 4 0.0600 632.231 181.5017 -1.067
3389 8 4 0.0600 631.087 182.3587 -2.075
3390 8 4 0.0600 630.83 180.6027 -1.652
3391 8 2 -0.1200 632.499 182.0157 0.0
3392 8 3 -0.0600 633.9870000000001 182.0157 0.0
3393 8 1 -0.1800 634.6310000000001 183.29170000000002 -0.40700000000000003
3394 8 4 0.0600 632.1830000000001 181.06570000000002 0.5150000000000001
3395 8 4 0.0600 632.032 181.9557 -0.999
3396 8 4 0.0600 634.402 181.1467 -0.506
3397 8 4 0.0600 635.719 183.08270000000002 -0.5140000000000001
3398 8 4 0.0600 634.575 184.0907 0.3429999999999999
3399 8 4 0.0600 634.3180000000001 183.6677 -1.413
3400 8 2 -0.1200 635.987 182.0157 0.0
3401 8 3 -0.0600 637.475 182.0157 0.0
3402 8 1 -0.1800 638.119 181.6087 -1.276
3403 8 4 0.0600 635.671 182.5307 0.95
3404 8 4 0.0600 635.52 181.01670000000001 0.06
3405 8 4 0.0600 637.89 181.5097 0.869
3406 8 4 0.0600 639.207 181.5017 -1.067
3407 8 4 0.0600 638.063 182.3587 -2.075
3408 8 4 0.0600 637.806 180.6027 -1.652
3409 8 2 -0.1200 639.475 182.0157 0.0
3410 8 3 -0.0600 640.9630000000001 182.0157 0.0
3411 8 1 -0.1800 641.6070000000001 183.29170000000002 -0.40700000000000003
3412 8 4 0.0600 639.1590000000001 181.06570000000002 0.5150000000000001
3413 8 4 0.0600 639.008 181.9557 -0.999
3414 8 4 0.0600 641.378 181.1467 -0.506
3415 8 4 0.0600 642.695 183.08270000000002 -0.5140000000000001
3416 8 4 0.0600 641.551 184.0907 0.3429999999999999
3417 8 4 0.0600 641.2940000000001 183.6677 -1.413
3418 8 2 -0.1200 642.963 182.0157 0.0
3419 8 3 -0.0600 644.451 182.0157 0.0
3420 8 1 -0.1800 645.095 181.6087 1.276
3421 8 4 0.0600 642.647 182.5307 -0.95
3422 8 4 0.0600 642.496 181.01670000000001 -0.06
3423 8 4 0.0600 644.866 181.5097 -0.869
3424 8 4 0.0600 646.183 181.5017 1.067
3425 8 4 0.0600 645.039 182.3587 2.075
3426 8 4 0.0600 644.782 180.6027 1.652
3427 8 2 -0.1200 646.451 182.0157 0.0
3428 8 3 -0.0600 647.9390000000001 182.0157 0.0
3429 8 1 -0.1800 648.5830000000001 183.29170000000002 -0.40700000000000003
3430 8 4 0.0600 646.1350000000001 181.06570000000002 0.5150000000000001
3431 8 4 0.0600 645.984 181.9557 -0.999
3432 8 4 0.0600 648.354 181.1467 -0.506
3433 8 4 0.0600 649.671 183.08270000000002 -0.5140000000000001
3434 8 4 0.0600 648.527 184.0907 0.3429999999999999
3435 8 4 0.0600 648.2700000000001 183.6677 -1.413
3436 8 2 -0.1200 649.939 182.0157 0.0
3437 8 3 -0.0600 651.427 182.0157 0.0
3438 8 1 -0.1800 652.071 181.6087 -1.276
3439 8 4 0.0600 649.623 182.5307 0.95
3440 8 4 0.0600 649.472 181.01670000000001 0.06
3441 8 4 0.0600 651.842 181.5097 0.869
3442 8 4 0.0600 653.159 181.5017 -1.067
3443 8 4 0.0600 652.015 182.3587 -2.075
3444 8 4 0.0600 651.758 180.6027 -1.652
3445 8 2 -0.1200 653.427 182.0157 0.0
3446 8 3 -0.0600 654.9150000000001 182.0157 0.0
3447 8 1 -0.1800 655.5590000000001 183.29170000000002 -0.40700000000000003
3448 8 4 0.0600 653.1110000000001 181.06570000000002 0.5150000000000001
3449 8 4 0.0600 652.96 181.9557 -0.999
3450 8 4 0.0600 655.33 181.1467 -0.506
3451 8 4 0.0600 656.647 183.08270000000002 -0.5140000000000001
3452 8 4 0.0600 655.503 184.0907 0.3429999999999999
3453 8 4 0.0600 655.2460000000001 183.6677 -1.413
3454 8 2 -0.1200 656.915 182.0157 0.0
3455 8 3 -0.0600 658.403 182.0157 0.0
3456 8 1 -0.1800 659.047 181.6087 1.276
3457 8 4 0.0600 656.599 182.5307 -0.95
3458 8 4 0.0600 656.448 181.01670000000001 -0.06
3459 8 4 0.0600 658.818 181.5097 -0.869
3460 8 4 0.0600 660.135 181.5017 1.067
3461 8 4 0.0600 658.991 182.3587 2.075
3462 8 4 0.0600 658.734 180.6027 1.652
3463 8 2 -0.1200 660.403 182.0157 0.0
3464 8 3 -0.0600 661.8910000000001 182.0157 0.0
3465 8 1 -0.1800 662.5350000000001 183.29170000000002 -0.40700000000000003
3466 8 4 0.0600 660.0870000000001 181.06570000000002 0.5150000000000001
3467 8 4 0.0600 659.936 181.9557 -0.999
3468 8 4 0.0600 662.306 181.1467 -0.506
3469 8 4 0.0600 663.623 183.08270000000002 -0.5140000000000001
3470 8 4 0.0600 662.479 184.0907 0.3429999999999999
3471 8 4 0.0600 662.2220000000001 183.6677 -1.413
3472 8 2 -0.1200 663.891 182.0157 0.0
3473 8 3 -0.0600 665.379 182.0157 0.0
3474 8 1 -0.1800 666.023 181.6087 -1.276
3475 8 4 0.0600 663.575 182.5307 0.95
3476 8 4 0.0600 663.424 181.01670000000001 0.06
3477 8 4 0.0600 665.794 181.5097 0.869
3478 8 4 0.0600 667.111 181.5017 -1.067
3479 8 4 0.0600 665.967 182.3587 -2.075
3480 8 4 0.0600 665.71 180.6027 -1.652
3481 8 2 -0.1200 667.379 182.0157 0.0
3482 8 3 -0.0600 668.8670000000001 182.0157 0.0
3483 8 1 -0.1800 669.5110000000001 183.29170000000002 -0.40700000000000003
3484 8 4 0.0600 667.0630000000001 181.06570000000002 0.5150000000000001
3485 8 4 0.0600 666.912 181.9557 -0.999
3486 8 4 0.0600 669.282 181.1467 -0.506
3487 8 4 0.0600 670.599 183.08270000000002 -0.5140000000000001
3488 8 4 0.0600 669.455 184.0907 0.3429999999999999
3489 8 4 0.0600 669.1980000000001 183.6677 -1.413
3490 8 2 -0.1200 670.867 182.0157 0.0
3491 8 3 -0.0600 672.355 182.0157 0.0
3492 8 1 -0.1800 672.999 181.6087 1.276
3493 8 4 0.0600 670.551 182.5307 -0.95
3494 8 4 0.0600 670.4 181.01670000000001 -0.06
3495 8 4 0.0600 672.77 181.5097 -0.869
3496 8 4 0.0600 674.087 181.5017 1.067
3497 8 4 0.0600 672.943 182.3587 2.075
3498 8 4 0.0600 672.686 180.6027 1.652
3499 8 2 -0.1200 674.355 182.0157 0.0
3500 8 3 -0.0600 675.8430000000001 182.0157 0.0
3501 8 1 -0.1800 676.4870000000001 180.7397 -0.4069999999999999
3502 8 4 0.0600 674.0390000000001 182.9657 0.5149999999999999
3503 8 4 0.0600 673.888 182.0757 -0.999
3504 8 4 0.0600 676.258 182.8847 -0.506
3505 8 4 0.0600 677.575 180.9487 -0.5139999999999999
3506 8 4 0.0600 676.431 179.94070000000002 0.34300000000000014
3507 8 4 0.0600 676.1740000000001 180.36370000000002 -1.413
3508 8 2 -0.1200 677.843 182.0157 0.0
3509 8 3 -0.0600 679.331 182.0157 0.0
3510 8 1 -0.1800 679.975 181.6087 1.276
3511 8 4 0.0600 677.527 182.5307 -0.95
3512 8 4 0.0600 677.376 181.01670000000001 -0.06
3513 8 4 0.0600 679.746 181.5097 -0.869
3514 8 4 0.0600 681.063 181.5017 1.067
3515 8 4 0.0600 679.919 182.3587 2.075
3516 8 4 0.0600 679.662 180.6027 1.652
3517 8 2 -0.1200 681.331 182.0157 0.0
3518 8 3 -0.0600 682.8190000000001 182.0157 0.0
3519 8 1 -0.1800 683.4630000000001 180.7397 -0.4069999999999999
3520 8 4 0.0600 681.0150000000001 182.9657 0.5149999999999999
3521 8 4 0.0600 680.864 182.0757 -0.999
3522 8 4 0.0600 683.234 182.8847 -0.506
3523 8 4 0.0600 684.551 180.9487 -0.5139999999999999
3524 8 4 0.0600 683.407 179.94070000000002 0.34300000000000014
3525 8 4 0.0600 683.1500000000001 180.36370000000002 -1.413
3526 8 2 -0.1200 684.819 182.0157 0.0
3527 8 3 -0.0600 686.307 182.0157 0.0
3528 8 1 -0.1800 686.951 181.6087 -1.276
3529 8 4 0.0600 684.503 182.5307 0.95
3530 8 4 0.0600 684.352 181.01670000000001 0.06
3531 8 4 0.0600 686.722 181.5097 0.869
3532 8 4 0.0600 688.039 181.5017 -1.067
3533 8 4 0.0600 686.895 182.3587 -2.075
3534 8 4 0.0600 686.638 180.6027 -1.652
3535 8 2 -0.1200 688.307 182.0157 0.0
3536 8 3 -0.0600 689.7950000000001 182.0157 0.0
3537 8 1 -0.1800 690.4390000000001 180.7397 -0.4069999999999999
3538 8 4 0.0600 687.9910000000001 182.9657 0.5149999999999999
3539 8 4 0.0600 687.84 182.0757 -0.999
3540 8 4 0.0600 690.21 182.8847 -0.506
3541 8 4 0.0600 691.527 180.9487 -0.5139999999999999
3542 8 4 0.0600 690.383 179.94070000000002 0.34300000000000014
3543 8 4 0.0600 690.1260000000001 180.36370000000002 -1.413
3544 8 2 -0.1200 691.795 182.0157 0.0
3545 8 3 -0.0600 693.283 182.0157 0.0
3546 8 1 -0.1800 693.927 181.6087 -1.276
3547 8 4 0.0600 691.479 182.5307 0.95
3548 8 4 0.0600 691.328 181.01670000000001 0.06
3549 8 4 0.0600 693.698 181.5097 0.869
3550 8 4 0.0600 695.015 181.5017 -1.067
3551 8 4 0.0600 693.871 182.3587 -2.075
3552 8 4 0.0600 693.614 180.6027 -1.652
3553 8 2 -0.1200 695.283 182.0157 0.0
3554 8 3 -0.0600 696.7710000000001 182.0157 0.0
3555 8 1 -0.1800 697.4150000000001 180.7397 -0.4069999999999999
3556 8 4 0.0600 694.9670000000001 182.9657 0.5149999999999999
3557 8 4 0.0600 694.816 182.0757 -0.999
3558 8 4 0.0600 697.186 182.8847 -0.506
3559 8 4 0.0600 698.503 180.9487 -0.5139999999999999
3560 8 4 0.0600 697.359 179.94070000000002 0.34300000000000014
3561 8 4 0.0600 697.1020000000001 180.36370000000002 -1.413
3562 8 2 -0.1200 698.771 182.0157 0.0
3563 8 3 -0.0600 700.259 182.0157 0.0
3564 8 1 -0.1800 700.903 181.6087 -1.276
3565 8 4 0.0600 698.455 182.5307 0.95
3566 8 4 0.0600 698.304 181.01670000000001 0.06
3567 8 4 0.0600 700.674 181.5097 0.869
3568 8 4 0.0600 701.991 181.5017 -1.067
3569 8 4 0.0600 700.847 182.3587 -2.075
3570 8 4 0.0600 700.59 180.6027 -1.652
3571 8 2 -0.1200 702.259 182.0157 0.0
3572 8 3 -0.0600 703.7470000000001 182.0157 0.0
3573 8 1 -0.1800 704.3910000000001 183.29170000000002 -0.40700000000000003
3574 8 4 0.0600 701.9430000000001 181.06570000000002 0.5150000000000001
3575 8 4 0.0600 701.792 181.9557 -0.999
3576 8 4 0.0600 704.162 181.1467 -0.506
3577 8 4 0.0600 705.479 183.08270000000002 -0.5140000000000001
3578 8 4 0.0600 704.335 184.0907 0.3429999999999999
3579 8 4 0.0600 704.0780000000001 183.6677 -1.413
3580 8 2 -0.1200 705.747 182.0157 0.0
3581 8 3 -0.0600 707.235 182.0157 0.0
3582 8 1 -0.1800 707.879 181.6087 1.276
3583 8 4 0.0600 705.431 182.5307 -0.95
3584 8 4 0.0600 705.28 181.01670000000001 -0.06
3585 8 4 0.0600 707.65 181.5097 -0.869
3586 8 4 0.0600 708.967 181.5017 1.067
3587 8 4 0.0600 707.823 182.3587 2.075
3588 8 4 0.0600 707.566 180.6027 1.652
3589 8 2 -0.1200 709.235 182.0157 0.0
3590 8 3 -0.0600 710.7230000000001 182.0157 0.0
3591 8 1 -0.1800 711.3670000000001 180.7397 -0.4069999999999999
3592 8 4 0.0600 708.9190000000001 182.9657 0.5149999999999999
3593 8 4 0.0600 708.768 182.0757 -0.999
3594 8 4 0.0600 711.138 182.8847 -0.506
3595 8 4 0.0600 712.455 180.9487 -0.5139999999999999
3596 8 4 0.0600 711.311 179.94070000000002 0.34300000000000014
3597 8 4 0.0600 711.0540000000001 180.36370000000002 -1.413
3598 8 2 -0.1200 712.723 182.0157 0.0
3599 8 3 -0.0600 714.211 182.0157 0.0
3600 8 1 -0.1800 714.855 181.6087 -1.276
3601 8 4 0.0600 712.407 182.5307 0.95
3602 8 4 0.0600 712.256 181.01670000000001 0.06
3603 8 4 0.0600 714.626 181.5097 0.869
3604 8 4 0.0600 715.943 181.5017 -1.067
3605 8 4 0.0600 714.799 182.3587 -2.075
3606 8 4 0.0600 714.542 180.6027 -1.652
3607 8 2 -0.1200 715.284 182.0157 0.0
3608 8 2 -0.1200 716.6320000000001 181.6857 0.57
3609 8 1 -0.1800 717.653 182.4727 -0.24500000000000002
3610 8 4 0.0600 714.517 181.66070000000002 0.703
3611 8 4 0.0600 715.221 181.57670000000002 -1.008
3612 8 4 0.0600 716.789 180.5987 0.5030000000000001
3613 8 4 0.0600 716.763 181.9907 1.618
3614 8 4 0.0600 717.484 182.3777 -1.33
3615 8 4 0.0600 717.547 183.5217 0.05699999999999991
3616 8 4 0.0600 718.6260000000001 182.0157 0.0
3617 9 1 -0.1800 -0.742 364.0313 0.0
3618 9 3 -0.0600 0.742 364.0313 0.0
3619 9 1 -0.1800 1.388 363.6073 -1.258
3620 9 4 0.0600 -1.219 363.0833 -0.325
3621 9 4 0.0600 -1.121 364.8043 -0.716
3622 9 4 0.0600 -1.079 364.3223 1.017
3623 9 4 0.0600 1.231 363.7393 0.93
3624 9 4 0.0600 2.311 364.2333 -1.4
3625 9 4 0.0600 1.704 362.53229999999996 -1.29
3626 9 4 0.0600 0.684 363.7723 -2.096
3627 9 2 -0.1200 2.74 364.0313 0.0
3628 9 3 -0.0600 4.228 364.0313 0.0
3629 9 1 -0.1800 4.872 365.3073 -0.40700000000000003
3630 9 4 0.0600 2.424 363.0813 0.5150000000000001
3631 9 4 0.0600 2.2729999999999997 363.9713 -0.999
3632 9 4 0.0600 4.643 363.16229999999996 -0.506
3633 9 4 0.0600 5.96 365.0983 -0.5140000000000001
3634 9 4 0.0600 4.816 366.1063 0.3429999999999999
3635 9 4 0.0600 4.559 365.6833 -1.413
3636 9 2 -0.1200 6.228000000000001 364.0313 0.0
3637 9 3 -0.0600 7.716 364.0313 0.0
3638 9 1 -0.1800 8.36 363.6243 1.276
3639 9 4 0.0600 5.912000000000001 364.5463 -0.95
3640 9 4 0.0600 5.761 363.03229999999996 -0.06
3641 9 4 0.0600 8.131 363.5253 -0.869
3642 9 4 0.0600 9.448 363.5173 1.067
3643 9 4 0.0600 8.304 364.3743 2.075
3644 9 4 0.0600 8.047 362.6183 1.652
3645 9 2 -0.1200 9.716000000000001 364.0313 0.0
3646 9 3 -0.0600 11.204 364.0313 0.0
3647 9 1 -0.1800 11.848 362.7553 -0.4069999999999999
3648 9 4 0.0600 9.4 364.9813 0.5149999999999999
3649 9 4 0.0600 9.249 364.0913 -0.999
3650 9 4 0.0600 11.619000000000002 364.9003 -0.506
3651 9 4 0.0600 12.936 362.9643 -0.5139999999999999
3652 9 4 0.0600 11.792000000000002 361.9563 0.34300000000000014
3653 9 4 0.0600 11.535 362.3793 -1.413
3654 9 2 -0.1200 13.204 364.0313 0.0
3655 9 3 -0.0600 14.692 364.0313 0.0
3656 9 1 -0.1800 15.336 363.6243 1.276
3657 9 4 0.0600 12.888 364.5463 -0.95
3658 9 4 0.0600 12.737 363.03229999999996 -0.06
3659 9 4 0.0600 15.107000000000001 363.5253 -0.869
3660 9 4 0.0600 16.424 363.5173 1.067
3661 9 4 0.0600 15.280000000000001 364.3743 2.075
3662 9 4 0.0600 15.023 362.6183 1.652
3663 9 2 -0.1200 16.692 364.0313 0.0
3664 9 3 -0.0600 18.18 364.0313 0.0
3665 9 1 -0.1800 18.823999999999998 362.7553 -0.4069999999999999
3666 9 4 0.0600 16.376 364.9813 0.5149999999999999
3667 9 4 0.0600 16.225 364.0913 -0.999
3668 9 4 0.0600 18.595 364.9003 -0.506
3669 9 4 0.0600 19.912 362.9643 -0.5139999999999999
3670 9 4 0.0600 18.768 361.9563 0.34300000000000014
3671 9 4 0.0600 18.511 362.3793 -1.413
3672 9 2 -0.1200 20.18 364.0313 0.0
3673 9 3 -0.0600 21.668 364.0313 0.0
3674 9 1 -0.1800 22.311999999999998 363.6243 1.276
3675 9 4 0.0600 19.864 364.5463 -0.95
3676 9 4 0.0600 19.713 363.03229999999996 -0.06
3677 9 4 0.0600 22.083 363.5253 -0.869
3678 9 4 0.0600 23.4 363.5173 1.067
3679 9 4 0.0600 22.256 364.3743 2.075
3680 9 4 0.0600 21.999 362.6183 1.652
3681 9 2 -0.1200 23.668 364.0313 0.0
3682 9 3 -0.0600 25.156 364.0313 0.0
3683 9 1 -0.1800 25.799999999999997 365.3073 -0.40700000000000003
3684 9 4 0.0600 23.352 363.0813 0.5150000000000001
3685 9 4 0.0600 23.201 363.9713 -0.999
3686 9 4 0.0600 25.570999999999998 363.16229999999996 -0.506
3687 9 4 0.0600 26.887999999999998 365.0983 -0.5140000000000001
3688 9 4 0.0600 25.744 366.1063 0.3429999999999999
3689 9 4 0.0600 25.487 365.6833 -1.413
3690 9 2 -0.1200 27.156 364.0313 0.0
3691 9 3 -0.0600 28.644 364.0313 0.0
3692 9 1 -0.1800 29.287999999999997 363.6243 -1.276
3693 9 4 0.0600 26.84 364.5463 0.95
3694 9 4 0.0600 26.689 363.03229999999996 0.06
3695 9 4 0.0600 29.058999999999997 363.5253 0.869
3696 9 4 0.0600 30.375999999999998 363.5173 -1.067
3697 9 4 0.0600 29.232 364.3743 -2.075
3698 9 4 0.0600 28.974999999999998 362.6183 -1.652
3699 9 2 -0.1200 30.644000000000002 364.0313 0.0
3700 9 3 -0.0600 32.132000000000005 364.0313 0.0
3701 9 1 -0.1800 32.776 362.7553 -0.4069999999999999
3702 9 4 0.0600 30.328000000000003 364.9813 0.5149999999999999
3703 9 4 0.0600 30.177000000000003 364.0913 -0.999
3704 9 4 0.0600 32.547000000000004 364.9003 -0.506
3705 9 4 0.0600 33.864000000000004 362.9643 -0.5139999999999999
3706 9 4 0.0600 32.72 361.9563 0.34300000000000014
3707 9 4 0.0600 32.463 362.3793 -1.413
3708 9 2 -0.1200 34.132 364.0313 0.0
3709 9 3 -0.0600 35.62 364.0313 0.0
3710 9 1 -0.1800 36.263999999999996 363.6243 1.276
3711 9 4 0.0600 33.815999999999995 364.5463 -0.95
3712 9 4 0.0600 33.665 363.03229999999996 -0.06
3713 9 4 0.0600 36.035 363.5253 -0.869
3714 9 4 0.0600 37.352 363.5173 1.067
3715 9 4 0.0600 36.208 364.3743 2.075
3716 9 4 0.0600 35.951 362.6183 1.652
3717 9 2 -0.1200 37.62 364.0313 0.0
3718 9 3 -0.0600 39.108 364.0313 0.0
3719 9 1 -0.1800 39.751999999999995 362.7553 -0.4069999999999999
3720 9 4 0.0600 37.303999999999995 364.9813 0.5149999999999999
3721 9 4 0.0600 37.153 364.0913 -0.999
3722 9 4 0.0600 39.522999999999996 364.9003 -0.506
3723 9 4 0.0600 40.839999999999996 362.9643 -0.5139999999999999
3724 9 4 0.0600 39.696 361.9563 0.34300000000000014
3725 9 4 0.0600 39.439 362.3793 -1.413
3726 9 2 -0.1200 41.108 364.0313 0.0
3727 9 3 -0.0600 42.596 364.0313 0.0
3728 9 1 -0.1800 43.239999999999995 363.6243 -1.276
3729 9 4 0.0600 40.791999999999994 364.5463 0.95
3730 9 4 0.0600 40.641 363.03229999999996 0.06
3731 9 4 0.0600 43.010999999999996 363.5253 0.869
3732 9 4 0.0600 44.327999999999996 363.5173 -1.067
3733 9 4 0.0600 43.184 364.3743 -2.075
3734 9 4 0.0600 42.927 362.6183 -1.652
3735 9 2 -0.1200 44.596000000000004 364.0313 0.0
3736 9 3 -0.0600 46.084 364.0313 0.0
3737 9 1 -0.1800 46.728 365.3073 -0.40700000000000003
3738 9 4 0.0600 44.28 363.0813 0.5150000000000001
3739 9 4 0.0600 44.129000000000005 363.9713 -0.999
3740 9 4 0.0600 46.499 363.16229999999996 -0.506
3741 9 4 0.0600 47.816 365.0983 -0.5140000000000001
3742 9 4 0.0600 46.672000000000004 366.1063 0.3429999999999999
3743 9 4 0.0600 46.415000000000006 365.6833 -1.413
3744 9 2 -0.1200 48.084 364.0313 0.0
3745 9 3 -0.0600 49.572 364.0313 0.0
3746 9 1 -0.1800 50.216 363.6243 -1.276
3747 9 4 0.0600 47.768 364.5463 0.95
3748 9 4 0.0600 47.617000000000004 363.03229999999996 0.06
3749 9 4 0.0600 49.987 363.5253 0.869
3750 9 4 0.0600 51.304 363.5173 -1.067
3751 9 4 0.0600 50.160000000000004 364.3743 -2.075
3752 9 4 0.0600 49.903000000000006 362.6183 -1.652
3753 9 2 -0.1200 51.572 364.0313 0.0
3754 9 3 -0.0600 53.06 364.0313 0.0
3755 9 1 -0.1800 53.704 365.3073 -0.40700000000000003
3756 9 4 0.0600 51.256 363.0813 0.5150000000000001
3757 9 4 0.0600 51.105000000000004 363.9713 -0.999
3758 9 4 0.0600 53.475 363.16229999999996 -0.506
3759 9 4 0.0600 54.792 365.0983 -0.5140000000000001
3760 9 4 0.0600 53.648 366.1063 0.3429999999999999
3761 9 4 0.0600 53.391000000000005 365.6833 -1.413
3762 9 2 -0.1200 55.06 364.0313 0.0
3763 9 3 -0.0600 56.548 364.0313 0.0
3764 9 1 -0.1800 57.192 363.6243 -1.276
3765 9 4 0.0600 54.744 364.5463 0.95
3766 9 4 0.0600 54.593 363.03229999999996 0.06
3767 9 4 0.0600 56.963 363.5253 0.869
3768 9 4 0.0600 58.28 363.5173 -1.067
3769 9 4 0.0600 57.136 364.3743 -2.075
3770 9 4 0.0600 56.879000000000005 362.6183 -1.652
3771 9 2 -0.1200 58.548 364.0313 0.0
3772 9 3 -0.0600 60.036 364.0313 0.0
3773 9 1 -0.1800 60.68 362.7553 -0.4069999999999999
3774 9 4 0.0600 58.232 364.9813 0.5149999999999999
3775 9 4 0.0600 58.081 364.0913 -0.999
3776 9 4 0.0600 60.451 364.9003 -0.506
3777 9 4 0.0600 61.768 362.9643 -0.5139999999999999
3778 9 4 0.0600 60.624 361.9563 0.34300000000000014
3779 9 4 0.0600 60.367000000000004 362.3793 -1.413
3780 9 2 -0.1200 62.036 364.0313 0.0
3781 9 3 -0.0600 63.524 364.0313 0.0
3782 9 1 -0.1800 64.168 363.6243 1.276
3783 9 4 0.0600 61.72 364.5463 -0.95
3784 9 4 0.0600 61.569 363.03229999999996 -0.06
3785 9 4 0.0600 63.939 363.5253 -0.869
3786 9 4 0.0600 65.256 363.5173 1.067
3787 9 4 0.0600 64.112 364.3743 2.075
3788 9 4 0.0600 63.855000000000004 362.6183 1.652
3789 9 2 -0.1200 65.524 364.0313 0.0
3790 9 3 -0.0600 67.012 364.0313 0.0
3791 9 1 -0.1800 67.656 365.3073 -0.40700000000000003
3792 9 4 0.0600 65.208 363.0813 0.5150000000000001
3793 9 4 0.0600 65.057 363.9713 -0.999
3794 9 4 0.0600 67.427 363.16229999999996 -0.506
3795 9 4 0.0600 68.744 365.0983 -0.5140000000000001
3796 9 4 0.0600 67.6 366.1063 0.3429999999999999
3797 9 4 0.0600 67.343 365.6833 -1.413
3798 9 2 -0.1200 69.012 364.0313 0.0
3799 9 3 -0.0600 70.5 364.0313 0.0
3800 9 1 -0.1800 71.144 363.6243 -1.276
3801 9 4 0.0600 68.696 364.5463 0.95
3802 9 4 0.0600 68.545 363.03229999999996 0.06
3803 9 4 0.0600 70.915 363.5253 0.869
3804 9 4 0.0600 72.232 363.5173 -1.067
3805 9 4 0.0600 71.088 364.3743 -2.075
3806 9 4 0.0600 70.831 362.6183 -1.652
3807 9 2 -0.1200 72.5 364.0313 0.0
3808 9 3 -0.0600 73.988 364.0313 0.0
3809 9 1 -0.1800 74.632 362.7553 -0.4069999999999999
3810 9 4 0.0600 72.184 364.9813 0.5149999999999999
3811 9 4 0.0600 72.033 364.0913 -0.999
3812 9 4 0.0600 74.403 364.9003 -0.506
3813 9 4 0.0600 75.72 362.9643 -0.5139999999999999
3814 9 4 0.0600 74.576 361.9563 0.34300000000000014
3815 9 4 0.0600 74.319 362.3793 -1.413
3816 9 2 -0.1200 75.988 364.0313 0.0
3817 9 3 -0.0600 77.476 364.0313 0.0
3818 9 1 -0.1800 78.12 363.6243 1.276
3819 9 4 0.0600 75.672 364.5463 -0.95
3820 9 4 0.0600 75.521 363.03229999999996 -0.06
3821 9 4 0.0600 77.891 363.5253 -0.869
3822 9 4 0.0600 79.208 363.5173 1.067
3823 9 4 0.0600 78.064 364.3743 2.075
3824 9 4 0.0600 77.807 362.6183 1.652
3825 9 2 -0.1200 79.476 364.0313 0.0
3826 9 3 -0.0600 80.964 364.0313 0.0
3827 9 1 -0.1800 81.608 362.7553 -0.4069999999999999
3828 9 4 0.0600 79.16 364.9813 0.5149999999999999
3829 9 4 0.0600 79.009 364.0913 -0.999
3830 9 4 0.0600 81.379 364.9003 -0.506
3831 9 4 0.0600 82.696 362.9643 -0.5139999999999999
3832 9 4 0.0600 81.55199999999999 361.9563 0.34300000000000014
3833 9 4 0.0600 81.295 362.3793 -1.413
3834 9 2 -0.1200 82.964 364.0313 0.0
3835 9 3 -0.0600 84.452 364.0313 0.0
3836 9 1 -0.1800 85.096 363.6243 -1.276
3837 9 4 0.0600 82.648 364.5463 0.95
3838 9 4 0.0600 82.497 363.03229999999996 0.06
3839 9 4 0.0600 84.867 363.5253 0.869
3840 9 4 0.0600 86.184 363.5173 -1.067
3841 9 4 0.0600 85.03999999999999 364.3743 -2.075
3842 9 4 0.0600 84.783 362.6183 -1.652
3843 9 2 -0.1200 86.452 364.0313 0.0
3844 9 3 -0.0600 87.94 364.0313 0.0
3845 9 1 -0.1800 88.584 365.3073 -0.40700000000000003
3846 9 4 0.0600 86.136 363.0813 0.5150000000000001
3847 9 4 0.0600 85.985 363.9713 -0.999
3848 9 4 0.0600 88.355 363.16229999999996 -0.506
3849 9 4 0.0600 89.672 365.0983 -0.5140000000000001
3850 9 4 0.0600 88.52799999999999 366.1063 0.3429999999999999
3851 9 4 0.0600 88.271 365.6833 -1.413
3852 9 2 -0.1200 89.94 364.0313 0.0
3853 9 3 -0.0600 91.428 364.0313 0.0
3854 9 1 -0.1800 92.072 363.6243 1.276
3855 9 4 0.0600 89.624 364.5463 -0.95
3856 9 4 0.0600 89.473 363.03229999999996 -0.06
3857 9 4 0.0600 91.843 363.5253 -0.869
3858 9 4 0.0600 93.16 363.5173 1.067
3859 9 4 0.0600 92.01599999999999 364.3743 2.075
3860 9 4 0.0600 91.759 362.6183 1.652
3861 9 2 -0.1200 93.428 364.0313 0.0
3862 9 3 -0.0600 94.916 364.0313 0.0
3863 9 1 -0.1800 95.56 362.7553 -0.4069999999999999
3864 9 4 0.0600 93.112 364.9813 0.5149999999999999
3865 9 4 0.0600 92.961 364.0913 -0.999
3866 9 4 0.0600 95.331 364.9003 -0.506
3867 9 4 0.0600 96.648 362.9643 -0.5139999999999999
3868 9 4 0.0600 95.50399999999999 361.9563 0.34300000000000014
3869 9 4 0.0600 95.247 362.3793 -1.413
3870 9 2 -0.1200 96.916 364.0313 0.0
3871 9 3 -0.0600 98.404 364.0313 0.0
3872 9 1 -0.1800 99.048 363.6243 -1.276
3873 9 4 0.0600 96.6 364.5463 0.95
3874 9 4 0.0600 96.449 363.03229999999996 0.06
3875 9 4 0.0600 98.819 363.5253 0.869
3876 9 4 0.0600 100.136 363.5173 -1.067
3877 9 4 0.0600 98.99199999999999 364.3743 -2.075
3878 9 4 0.0600 98.735 362.6183 -1.652
3879 9 2 -0.1200 100.404 364.0313 0.0
3880 9 3 -0.0600 101.892 364.0313 0.0
3881 9 1 -0.1800 102.536 365.3073 -0.40700000000000003
3882 9 4 0.0600 100.088 363.0813 0.5150000000000001
3883 9 4 0.0600 99.937 363.9713 -0.999
3884 9 4 0.0600 102.307 363.16229999999996 -0.506
3885 9 4 0.0600 103.624 365.0983 -0.5140000000000001
3886 9 4 0.0600 102.47999999999999 366.1063 0.3429999999999999
3887 9 4 0.0600 102.223 365.6833 -1.413
3888 9 2 -0.1200 103.892 364.0313 0.0
3889 9 3 -0.0600 105.38 364.0313 0.0
3890 9 1 -0.1800 106.024 363.6243 -1.276
3891 9 4 0.0600 103.576 364.5463 0.95
3892 9 4 0.0600 103.425 363.03229999999996 0.06
3893 9 4 0.0600 105.795 363.5253 0.869
3894 9 4 0.0600 107.112 363.5173 -1.067
3895 9 4 0.0600 105.96799999999999 364.3743 -2.075
3896 9 4 0.0600 105.711 362.6183 -1.652
3897 9 2 -0.1200 107.38 364.0313 0.0
3898 9 3 -0.0600 108.868 364.0313 0.0
3899 9 1 -0.1800 109.512 362.7553 -0.4069999999999999
3900 9 4 0.0600 107.064 364.9813 0.5149999999999999
3901 9 4 0.0600 106.913 364.0913 -0.999
3902 9 4 0.0600 109.283 364.9003 -0.506
3903 9 4 0.0600 110.6 362.9643 -0.5139999999999999
3904 9 4 0.0600 109.45599999999999 361.9563 0.34300000000000014
3905 9 4 0.0600 109.199 362.3793 -1.413
3906 9 2 -0.1200 110.868 364.0313 0.0
3907 9 3 -0.0600 112.356 364.0313 0.0
3908 9 1 -0.1800 113.0 363.6243 -1.276
3909 9 4 0.0600 110.55199999999999 364.5463 0.95
3910 9 4 0.0600 110.401 363.03229999999996 0.06
3911 9 4 0.0600 112.771 363.5253 0.869
3912 9 4 0.0600 114.088 363.5173 -1.067
3913 9 4 0.0600 112.94399999999999 364.3743 -2.075
3914 9 4 0.0600 112.687 362.6183 -1.652
3915 9 2 -0.1200 114.356 364.0313 0.0
3916 9 3 -0.0600 115.844 364.0313 0.0
3917 9 1 -0.1800 116.488 365.3073 -0.40700000000000003
3918 9 4 0.0600 114.03999999999999 363.0813 0.5150000000000001
3919 9 4 0.0600 113.889 363.9713 -0.999
3920 9 4 0.0600 116.259 363.16229999999996 -0.506
3921 9 4 0.0600 117.576 365.0983 -0.5140000000000001
3922 9 4 0.0600 116.43199999999999 366.1063 0.3429999999999999
3923 9 4 0.0600 116.175 365.6833 -1.413
3924 9 2 -0.1200 117.844 364.0313 0.0
3925 9 3 -0.0600 119.332 364.0313 0.0
3926 9 1 -0.1800 119.976 363.6243 -1.276
3927 9 4 0.0600 117.52799999999999 364.5463 0.95
3928 9 4 0.0600 117.377 363.03229999999996 0.06
3929 9 4 0.0600 119.747 363.5253 0.869
3930 9 4 0.0600 121.064 363.5173 -1.067
3931 9 4 0.0600 119.91999999999999 364.3743 -2.075
3932 9 4 0.0600 119.663 362.6183 -1.652
3933 9 2 -0.1200 121.332 364.0313 0.0
3934 9 3 -0.0600 122.82 364.0313 0.0
3935 9 1 -0.1800 123.464 365.3073 -0.40700000000000003
3936 9 4 0.0600 121.01599999999999 363.0813 0.5150000000000001
3937 9 4 0.0600 120.865 363.9713 -0.999
3938 9 4 0.0600 123.235 363.16229999999996 -0.506
3939 9 4 0.0600 124.55199999999999 365.0983 -0.5140000000000001
3940 9 4 0.0600 123.40799999999999 366.1063 0.3429999999999999
3941 9 4 0.0600 123.151 365.6833 -1.413
3942 9 2 -0.1200 124.82 364.0313 0.0
3943 9 3 -0.0600 126.30799999999999 364.0313 0.0
3944 9 1 -0.1800 126.952 363.6243 1.276
3945 9 4 0.0600 124.50399999999999 364.5463 -0.95
3946 9 4 0.0600 124.353 363.03229999999996 -0.06
3947 9 4 0.0600 126.723 363.5253 -0.869
3948 9 4 0.0600 128.04 363.5173 1.067
3949 9 4 0.0600 126.89599999999999 364.3743 2.075
3950 9 4 0.0600 126.639 362.6183 1.652
3951 9 2 -0.1200 128.308 364.0313 0.0
3952 9 3 -0.0600 129.796 364.0313 0.0
3953 9 1 -0.1800 130.44 362.7553 -0.4069999999999999
3954 9 4 0.0600 127.99199999999999 364.9813 0.5149999999999999
3955 9 4 0.0600 127.841 364.0913 -0.999
3956 9 4 0.0600 130.21099999999998 364.9003 -0.506
3957 9 4 0.0600 131.528 362.9643 -0.5139999999999999
3958 9 4 0.0600 130.384 361.9563 0.34300000000000014
3959 9 4 0.0600 130.12699999999998 362.3793 -1.413
3960 9 2 -0.1200 131.796 364.0313 0.0
3961 9 3 -0.0600 133.284 364.0313 0.0
3962 9 1 -0.1800 133.928 363.6243 -1.276
3963 9 4 0.0600 131.48 364.5463 0.95
3964 9 4 0.0600 131.32899999999998 363.03229999999996 0.06
3965 9 4 0.0600 133.69899999999998 363.5253 0.869
3966 9 4 0.0600 135.016 363.5173 -1.067
3967 9 4 0.0600 133.87199999999999 364.3743 -2.075
3968 9 4 0.0600 133.61499999999998 362.6183 -1.652
3969 9 2 -0.1200 135.284 364.0313 0.0
3970 9 3 -0.0600 136.772 364.0313 0.0
3971 9 1 -0.1800 137.416 362.7553 -0.4069999999999999
3972 9 4 0.0600 134.968 364.9813 0.5149999999999999
3973 9 4 0.0600 134.81699999999998 364.0913 -0.999
3974 9 4 0.0600 137.18699999999998 364.9003 -0.506
3975 9 4 0.0600 138.504 362.9643 -0.5139999999999999
3976 9 4 0.0600 137.35999999999999 361.9563 0.34300000000000014
3977 9 4 0.0600 137.10299999999998 362.3793 -1.413
3978 9 2 -0.1200 138.772 364.0313 0.0
3979 9 3 -0.0600 140.26 364.0313 0.0
3980 9 1 -0.1800 140.904 363.6243 -1.276
3981 9 4 0.0600 138.456 364.5463 0.95
3982 9 4 0.0600 138.30499999999998 363.03229999999996 0.06
3983 9 4 0.0600 140.67499999999998 363.5253 0.869
3984 9 4 0.0600 141.992 363.5173 -1.067
3985 9 4 0.0600 140.84799999999998 364.3743 -2.075
3986 9 4 0.0600 140.59099999999998 362.6183 -1.652
3987 9 2 -0.1200 142.26 364.0313 0.0
3988 9 3 -0.0600 143.748 364.0313 0.0
3989 9 1 -0.1800 144.392 362.7553 -0.4069999999999999
3990 9 4 0.0600 141.944 364.9813 0.5149999999999999
3991 9 4 0.0600 141.79299999999998 364.0913 -0.999
3992 9 4 0.0600 144.16299999999998 364.9003 -0.506
3993 9 4 0.0600 145.48 362.9643 -0.5139999999999999
3994 9 4 0.0600 144.33599999999998 361.9563 0.34300000000000014
3995 9 4 0.0600 144.07899999999998 362.3793 -1.413
3996 9 2 -0.1200 145.748 364.0313 0.0
3997 9 3 -0.0600 147.236 364.0313 0.0
3998 9 1 -0.1800 147.88 363.6243 -1.276
3999 9 4 0.0600 145.432 364.5463 0.95
4000 9 4 0.0600 145.28099999999998 363.03229999999996 0.06
4001 9 4 0.0600 147.65099999999998 363.5253 0.869
4002 9 4 0.0600 148.968 363.5173 -1.067
4003 9 4 0.0600 147.82399999999998 364.3743 -2.075
4004 9 4 0.0600 147.56699999999998 362.6183 -1.652
4005 9 2 -0.1200 149.236 364.0313 0.0
4006 9 3 -0.0600 150.724 364.0313 0.0
4007 9 1 -0.1800 151.368 362.7553 -0.4069999999999999
4008 9 4 0.0600 148.92 364.9813 0.5149999999999999
4009 9 4 0.0600 148.76899999999998 364.0913 -0.999
4010 9 4 0.0600 151.13899999999998 364.9003 -0.506
4011 9 4 0.0600 152.456 362.9643 -0.5139999999999999
4012 9 4 0.0600 151.31199999999998 361.9563 0.34300000000000014
4013 9 4 0.0600 151.05499999999998 362.3793 -1.413
4014 9 2 -0.1200 152.724 364.0313 0.0
4015 9 3 -0.0600 154.212 364.0313 0.0
4016 9 1 -0.1800 154.856 363.6243 1.276
4017 9 4 0.0600 152.408 364.5463 -0.95
4018 9 4 0.0600 152.25699999999998 363.03229999999996 -0.06
4019 9 4 0.0600 154.62699999999998 363.5253 -0.869
4020 9 4 0.0600 155.944 363.5173 1.067
4021 9 4 0.0600 154.79999999999998 364.3743 2.075
4022 9 4 0.0600 154.54299999999998 362.6183 1.652
4023 9 2 -0.1200 156.212 364.0313 0.0
4024 9 3 -0.0600 157.7 364.0313 0.0
4025 9 1 -0.1800 158.344 362.7553 -0.4069999999999999
4026 9 4 0.0600 155.896 364.9813 0.5149999999999999
4027 9 4 0.0600 155.74499999999998 364.0913 -0.999
4028 9 4 0.0600 158.11499999999998 364.9003 -0.506
4029 9 4 0.0600 159.432 362.9643 -0.5139999999999999
4030 9 4 0.0600 158.28799999999998 361.9563 0.34300000000000014
4031 9 4 0.0600 158.03099999999998 362.3793 -1.413
4032 9 2 -0.1200 159.7 364.0313 0.0
4033 9 3 -0.0600 161.188 364.0313 0.0
4034 9 1 -0.1800 161.832 363.6243 1.276
4035 9 4 0.0600 159.384 364.5463 -0.95
4036 9 4 0.0600 159.23299999999998 363.03229999999996 -0.06
4037 9 4 0.0600 161.60299999999998 363.5253 -0.869
4038 9 4 0.0600 162.92 363.5173 1.067
4039 9 4 0.0600 161.77599999999998 364.3743 2.075
4040 9 4 0.0600 161.51899999999998 362.6183 1.652
4041 9 2 -0.1200 163.188 364.0313 0.0
4042 9 3 -0.0600 164.676 364.0313 0.0
4043 9 1 -0.1800 165.32 362.7553 -0.4069999999999999
4044 9 4 0.0600 162.87199999999999 364.9813 0.5149999999999999
4045 9 4 0.0600 162.72099999999998 364.0913 -0.999
4046 9 4 0.0600 165.09099999999998 364.9003 -0.506
4047 9 4 0.0600 166.408 362.9643 -0.5139999999999999
4048 9 4 0.0600 165.26399999999998 361.9563 0.34300000000000014
4049 9 4 0.0600 165.00699999999998 362.3793 -1.413
4050 9 2 -0.1200 166.676 364.0313 0.0
4051 9 3 -0.0600 168.164 364.0313 0.0
4052 9 1 -0.1800 168.808 363.6243 1.276
4053 9 4 0.0600 166.35999999999999 364.5463 -0.95
4054 9 4 0.0600 166.20899999999997 363.03229999999996 -0.06
4055 9 4 0.0600 168.57899999999998 363.5253 -0.869
4056 9 4 0.0600 169.896 363.5173 1.067
4057 9 4 0.0600 168.75199999999998 364.3743 2.075
4058 9 4 0.0600 168.49499999999998 362.6183 1.652
4059 9 2 -0.1200 169.237 364.0313 0.0
4060 9 2 -0.1200 170.58499999999998 363.7013 0.57
4061 9 1 -0.1800 171.606 364.4883 -0.24500000000000002
4062 9 4 0.0600 168.47 363.67629999999997 0.703
4063 9 4 0.0600 169.17399999999998 363.59229999999997 -1.008
4064 9 4 0.0600 170.742 362.6143 0.5030000000000001
4065 9 4 0.0600 170.71599999999998 364.0063 1.618
4066 9 4 0.0600 171.43699999999998 364.3933 -1.33
4067 9 4 0.0600 171.5 365.53729999999996 0.05699999999999991
4068 9 4 0.0600 172.57899999999998 364.0313 0.0
4069 10 1 -0.1800 181.27370000000002 364.0313 0.0
4070 10 3 -0.0600 182.7577 364.0313 0.0
4071 10 1 -0.1800 183.40370000000001 363.6073 -1.258
4072 10 4 0.0600 180.79670000000002 363.0833 -0.325
4073 10 4 0.0600 180.8947 364.8043 -0.716
4074 10 4 0.0600 180.9367 364.3223 1.017
4075 10 4 0.0600 183.2467 363.7393 0.93
4076 10 4 0.0600 184.32670000000002 364.2333 -1.4
4077 10 4 0.0600 183.71970000000002 362.53229999999996 -1.29
4078 10 4 0.0600 182.6997 363.7723 -2.096
4079 10 2 -0.1200 184.75570000000002 364.0313 0.0
4080 10 3 -0.0600 186.24370000000002 364.0313 0.0
4081 10 1 -0.1800 186.88770000000002 365.3073 -0.40700000000000003
4082 10 4 0.0600 184.43970000000002 363.0813 0.5150000000000001
4083 10 4 0.0600 184.2887 363.9713 -0.999
4084 10 4 0.0600 186.6587 363.16229999999996 -0.506
4085 10 4 0.0600 187.97570000000002 365.0983 -0.5140000000000001
4086 10 4 0.0600 186.8317 366.1063 0.3429999999999999
4087 10 4 0.0600 186.5747 365.6833 -1.413
4088 10 2 -0.1200 188.24370000000002 364.0313 0.0
4089 10 3 -0.0600 189.73170000000002 364.0313 0.0
4090 10 1 -0.1800 190.37570000000002 363.6243 -1.276
4091 10 4 0.0600 187.92770000000002 364.5463 0.95
4092 10 4 0.0600 187.7767 363.03229999999996 0.06
4093 10 4 0.0600 190.1467 363.5253 0.869
4094 10 4 0.0600 191.46370000000002 363.5173 -1.067
4095 10 4 0.0600 190.3197 364.3743 -2.075
4096 10 4 0.0600 190.0627 362.6183 -1.652
4097 10 2 -0.1200 191.73170000000002 364.0313 0.0
4098 10 3 -0.0600 193.21970000000002 364.0313 0.0
4099 10 1 -0.1800 193.86370000000002 365.3073 -0.40700000000000003
4100 10 4 0.0600 191.41570000000002 363.0813 0.5150000000000001
4101 10 4 0.0600 191.2647 363.9713 -0.999
4102 10 4 0.0600 193.6347 363.16229999999996 -0.506
4103 10 4 0.0600 194.95170000000002 365.0983 -0.5140000000000001
4104 10 4 0.0600 193.8077 366.1063 0.3429999999999999
4105 10 4 0.0600 193.5507 365.6833 -1.413
4106 10 2 -0.1200 195.21970000000002 364.0313 0.0
4107 10 3 -0.0600 196.70770000000002 364.0313 0.0
4108 10 1 -0.1800 197.35170000000002 363.6243 -1.276
4109 10 4 0.0600 194.90370000000001 364.5463 0.95
4110 10 4 0.0600 194.7527 363.03229999999996 0.06
4111 10 4 0.0600 197.1227 363.5253 0.869
4112 10 4 0.0600 198.43970000000002 363.5173 -1.067
4113 10 4 0.0600 197.2957 364.3743 -2.075
4114 10 4 0.0600 197.0387 362.6183 -1.652
4115 10 2 -0.1200 198.70770000000002 364.0313 0.0
4116 10 3 -0.0600 200.19570000000002 364.0313 0.0
4117 10 1 -0.1800 200.83970000000002 362.7553 -0.4069999999999999
4118 10 4 0.0600 198.39170000000001 364.9813 0.5149999999999999
4119 10 4 0.0600 198.2407 364.0913 -0.999
4120 10 4 0.0600 200.6107 364.9003 -0.506
4121 10 4 0.0600 201.92770000000002 362.9643 -0.5139999999999999
4122 10 4 0.0600 200.7837 361.9563 0.34300000000000014
4123 10 4 0.0600 200.5267 362.3793 -1.413
4124 10 2 -0.1200 202.19570000000002 364.0313 0.0
4125 10 3 -0.0600 203.68370000000002 364.0313 0.0
4126 10 1 -0.1800 204.32770000000002 363.6243 1.276
4127 10 4 0.0600 201.8797 364.5463 -0.95
4128 10 4 0.0600 201.7287 363.03229999999996 -0.06
4129 10 4 0.0600 204.0987 363.5253 -0.869
4130 10 4 0.0600 205.41570000000002 363.5173 1.067
4131 10 4 0.0600 204.2717 364.3743 2.075
4132 10 4 0.0600 204.0147 362.6183 1.652
4133 10 2 -0.1200 205.68370000000002 364.0313 0.0
4134 10 3 -0.0600 207.17170000000002 364.0313 0.0
4135 10 1 -0.1800 207.81570000000002 365.3073 -0.40700000000000003
4136 10 4 0.0600 205.3677 363.0813 0.5150000000000001
4137 10 4 0.0600 205.2167 363.9713 -0.999
4138 10 4 0.0600 207.5867 363.16229999999996 -0.506
4139 10 4 0.0600 208.90370000000001 365.0983 -0.5140000000000001
4140 10 4 0.0600 207.7597 366.1063 0.3429999999999999
4141 10 4 0.0600 207.5027 365.6833 -1.413
4142 10 2 -0.1200 209.17170000000002 364.0313 0.0
4143 10 3 -0.0600 210.65970000000002 364.0313 0.0
4144 10 1 -0.1800 211.30370000000002 363.6243 -1.276
4145 10 4 0.0600 208.8557 364.5463 0.95
4146 10 4 0.0600 208.7047 363.03229999999996 0.06
4147 10 4 0.0600 211.0747 363.5253 0.869
4148 10 4 0.0600 212.39170000000001 363.5173 -1.067
4149 10 4 0.0600 211.2477 364.3743 -2.075
4150 10 4 0.0600 210.9907 362.6183 -1.652
4151 10 2 -0.1200 212.65970000000002 364.0313 0.0
4152 10 3 -0.0600 214.14770000000001 364.0313 0.0
4153 10 1 -0.1800 214.79170000000002 362.7553 -0.4069999999999999
4154 10 4 0.0600 212.3437 364.9813 0.5149999999999999
4155 10 4 0.0600 212.1927 364.0913 -0.999
4156 10 4 0.0600 214.5627 364.9003 -0.506
4157 10 4 0.0600 215.8797 362.9643 -0.5139999999999999
4158 10 4 0.0600 214.7357 361.9563 0.34300000000000014
4159 10 4 0.0600 214.4787 362.3793 -1.413
4160 10 2 -0.1200 216.14770000000001 364.0313 0.0
4161 10 3 -0.0600 217.6357 364.0313 0.0
4162 10 1 -0.1800 218.27970000000002 363.6243 -1.276
4163 10 4 0.0600 215.8317 364.5463 0.95
4164 10 4 0.0600 215.6807 363.03229999999996 0.06
4165 10 4 0.0600 218.0507 363.5253 0.869
4166 10 4 0.0600 219.3677 363.5173 -1.067
4167 10 4 0.0600 218.2237 364.3743 -2.075
4168 10 4 0.0600 217.9667 362.6183 -1.652
4169 10 2 -0.1200 219.6357 364.0313 0.0
4170 10 3 -0.0600 221.1237 364.0313 0.0
4171 10 1 -0.1800 221.76770000000002 365.3073 -0.40700000000000003
4172 10 4 0.0600 219.3197 363.0813 0.5150000000000001
4173 10 4 0.0600 219.1687 363.9713 -0.999
4174 10 4 0.0600 221.5387 363.16229999999996 -0.506
4175 10 4 0.0600 222.8557 365.0983 -0.5140000000000001
4176 10 4 0.0600 221.7117 366.1063 0.3429999999999999
4177 10 4 0.0600 221.4547 365.6833 -1.413
4178 10 2 -0.1200 223.1237 364.0313 0.0
4179 10 3 -0.0600 224.6117 364.0313 0.0
4180 10 1 -0.1800 225.25570000000002 363.6243 -1.276
4181 10 4 0.0600 222.8077 364.5463 0.95
4182 10 4 0.0600 222.6567 363.03229999999996 0.06
4183 10 4 0.0600 225.0267 363.5253 0.869
4184 10 4 0.0600 226.3437 363.5173 -1.067
4185 10 4 0.0600 225.1997 364.3743 -2.075
4186 10 4 0.0600 224.9427 362.6183 -1.652
4187 10 2 -0.1200 226.6117 364.0313 0.0
4188 10 3 -0.0600 228.0997 364.0313 0.0
4189 10 1 -0.1800 228.74370000000002 365.3073 -0.40700000000000003
4190 10 4 0.0600 226.2957 363.0813 0.5150000000000001
4191 10 4 0.0600 226.1447 363.9713 -0.999
4192 10 4 0.0600 228.5147 363.16229999999996 -0.506
4193 10 4 0.0600 229.8317 365.0983 -0.5140000000000001
4194 10 4 0.0600 228.6877 366.1063 0.3429999999999999
4195 10 4 0.0600 228.4307 365.6833 -1.413
4196 10 2 -0.1200 230.0997 364.0313 0.0
4197 10 3 -0.0600 231.5877 364.0313 0.0
4198 10 1 -0.1800 232.23170000000002 363.6243 1.276
4199 10 4 0.0600 229.7837 364.5463 -0.95
4200 10 4 0.0600 229.6327 363.03229999999996 -0.06
4201 10 4 0.0600 232.0027 363.5253 -0.869
4202 10 4 0.0600 233.3197 363.5173 1.067
4203 10 4 0.0600 232.1757 364.3743 2.075
4204 10 4 0.0600 231.9187 362.6183 1.652
4205 10 2 -0.1200 233.5877 364.0313 0.0
4206 10 3 -0.0600 235.0757 364.0313 0.0
4207 10 1 -0.1800 235.71970000000002 362.7553 -0.4069999999999999
4208 10 4 0.0600 233.2717 364.9813 0.5149999999999999
4209 10 4 0.0600 233.1207 364.0913 -0.999
4210 10 4 0.0600 235.4907 364.9003 -0.506
4211 10 4 0.0600 236.8077 362.9643 -0.5139999999999999
4212 10 4 0.0600 235.6637 361.9563 0.34300000000000014
4213 10 4 0.0600 235.4067 362.3793 -1.413
4214 10 2 -0.1200 237.0757 364.0313 0.0
4215 10 3 -0.0600 238.5637 364.0313 0.0
4216 10 1 -0.1800 239.20770000000002 363.6243 1.276
4217 10 4 0.0600 236.7597 364.5463 -0.95
4218 10 4 0.0600 236.6087 363.03229999999996 -0.06
4219 10 4 0.0600 238.9787 363.5253 -0.869
4220 10 4 0.0600 240.2957 363.5173 1.067
4221 10 4 0.0600 239.1517 364.3743 2.075
4222 10 4 0.0600 238.8947 362.6183 1.652
4223 10 2 -0.1200 240.5637 364.0313 0.0
4224 10 3 -0.0600 242.0517 364.0313 0.0
4225 10 1 -0.1800 242.69570000000002 362.7553 -0.4069999999999999
4226 10 4 0.0600 240.2477 364.9813 0.5149999999999999
4227 10 4 0.0600 240.0967 364.0913 -0.999
4228 10 4 0.0600 242.4667 364.9003 -0.506
4229 10 4 0.0600 243.7837 362.9643 -0.5139999999999999
4230 10 4 0.0600 242.6397 361.9563 0.34300000000000014
4231 10 4 0.0600 242.3827 362.3793 -1.413
4232 10 2 -0.1200 244.0517 364.0313 0.0
4233 10 3 -0.0600 245.5397 364.0313 0.0
4234 10 1 -0.1800 246.18370000000002 363.6243 -1.276
4235 10 4 0.0600 243.7357 364.5463 0.95
4236 10 4 0.0600 243.5847 363.03229999999996 0.06
4237 10 4 0.0600 245.9547 363.5253 0.869
4238 10 4 0.0600 247.2717 363.5173 -1.067
4239 10 4 0.0600 246.1277 364.3743 -2.075
4240 10 4 0.0600 245.8707 362.6183 -1.652
4241 10 2 -0.1200 247.5397 364.0313 0.0
4242 10 3 -0.0600 249.0277 364.0313 0.0
4243 10 1 -0.1800 249.67170000000002 362.7553 -0.4069999999999999
4244 10 4 0.0600 247.2237 364.9813 0.5149999999999999
4245 10 4 0.0600 247.0727 364.0913 -0.999
4246 10 4 0.0600 249.4427 364.9003 -0.506
4247 10 4 0.0600 250.7597 362.9643 -0.5139999999999999
4248 10 4 0.0600 249.6157 361.9563 0.34300000000000014
4249 10 4 0.0600 249.3587 362.3793 -1.413
4250 10 2 -0.1200 251.0277 364.0313 0.0
4251 10 3 -0.0600 252.5157 364.0313 0.0
4252 10 1 -0.1800 253.15970000000002 363.6243 -1.276
4253 10 4 0.0600 250.7117 364.5463 0.95
4254 10 4 0.0600 250.5607 363.03229999999996 0.06
4255 10 4 0.0600 252.9307 363.5253 0.869
4256 10 4 0.0600 254.2477 363.5173 -1.067
4257 10 4 0.0600 253.1037 364.3743 -2.075
4258 10 4 0.0600 252.8467 362.6183 -1.652
4259 10 2 -0.1200 254.5157 364.0313 0.0
4260 10 3 -0.0600 256.00370000000004 364.0313 0.0
4261 10 1 -0.1800 256.6477 362.7553 -0.4069999999999999
4262 10 4 0.0600 254.1997 364.9813 0.5149999999999999
4263 10 4 0.0600 254.0487 364.0913 -0.999
4264 10 4 0.0600 256.4187 364.9003 -0.506
4265 10 4 0.0600 257.7357 362.9643 -0.5139999999999999
4266 10 4 0.0600 256.5917 361.9563 0.34300000000000014
4267 10 4 0.0600 256.3347 362.3793 -1.413
4268 10 2 -0.1200 258.0037 364.0313 0.0
4269 10 3 -0.0600 259.49170000000004 364.0313 0.0
4270 10 1 -0.1800 260.1357 363.6243 1.276
4271 10 4 0.0600 257.6877 364.5463 -0.95
4272 10 4 0.0600 257.5367 363.03229999999996 -0.06
4273 10 4 0.0600 259.9067 363.5253 -0.869
4274 10 4 0.0600 261.2237 363.5173 1.067
4275 10 4 0.0600 260.0797 364.3743 2.075
4276 10 4 0.0600 259.8227 362.6183 1.652
4277 10 2 -0.1200 261.4917 364.0313 0.0
4278 10 3 -0.0600 262.97970000000004 364.0313 0.0
4279 10 1 -0.1800 263.6237 365.3073 -0.40700000000000003
4280 10 4 0.0600 261.1757 363.0813 0.5150000000000001
4281 10 4 0.0600 261.0247 363.9713 -0.999
4282 10 4 0.0600 263.3947 363.16229999999996 -0.506
4283 10 4 0.0600 264.7117 365.0983 -0.5140000000000001
4284 10 4 0.0600 263.5677 366.1063 0.3429999999999999
4285 10 4 0.0600 263.3107 365.6833 -1.413
4286 10 2 -0.1200 264.9797 364.0313 0.0
4287 10 3 -0.0600 266.46770000000004 364.0313 0.0
4288 10 1 -0.1800 267.1117 363.6243 1.276
4289 10 4 0.0600 264.6637 364.5463 -0.95
4290 10 4 0.0600 264.5127 363.03229999999996 -0.06
4291 10 4 0.0600 266.8827 363.5253 -0.869
4292 10 4 0.0600 268.1997 363.5173 1.067
4293 10 4 0.0600 267.0557 364.3743 2.075
4294 10 4 0.0600 266.7987 362.6183 1.652
4295 10 2 -0.1200 268.4677 364.0313 0.0
4296 10 3 -0.0600 269.95570000000004 364.0313 0.0
4297 10 1 -0.1800 270.5997 365.3073 -0.40700000000000003
4298 10 4 0.0600 268.1517 363.0813 0.5150000000000001
4299 10 4 0.0600 268.0007 363.9713 -0.999
4300 10 4 0.0600 270.3707 363.16229999999996 -0.506
4301 10 4 0.0600 271.6877 365.0983 -0.5140000000000001
4302 10 4 0.0600 270.5437 366.1063 0.3429999999999999
4303 10 4 0.0600 270.2867 365.6833 -1.413
4304 10 2 -0.1200 271.9557 364.0313 0.0
4305 10 3 -0.0600 273.44370000000004 364.0313 0.0
4306 10 1 -0.1800 274.0877 363.6243 1.276
4307 10 4 0.0600 271.6397 364.5463 -0.95
4308 10 4 0.0600 271.4887 363.03229999999996 -0.06
4309 10 4 0.0600 273.8587 363.5253 -0.869
4310 10 4 0.0600 275.1757 363.5173 1.067
4311 10 4 0.0600 274.0317 364.3743 2.075
4312 10 4 0.0600 273.7747 362.6183 1.652
4313 10 2 -0.1200 275.4437 364.0313 0.0
4314 10 3 -0.0600 276.93170000000003 364.0313 0.0
4315 10 1 -0.1800 277.5757 362.7553 -0.4069999999999999
4316 10 4 0.0600 275.1277 364.9813 0.5149999999999999
4317 10 4 0.0600 274.9767 364.0913 -0.999
4318 10 4 0.0600 277.3467 364.9003 -0.506
4319 10 4 0.0600 278.6637 362.9643 -0.5139999999999999
4320 10 4 0.0600 277.5197 361.9563 0.34300000000000014
4321 10 4 0.0600 277.2627 362.3793 -1.413
4322 10 2 -0.1200 278.9317 364.0313 0.0
4323 10 3 -0.0600 280.41970000000003 364.0313 0.0
4324 10 1 -0.1800 281.0637 363.6243 -1.276
4325 10 4 0.0600 278.6157 364.5463 0.95
4326 10 4 0.0600 278.4647 363.03229999999996 0.06
4327 10 4 0.0600 280.8347 363.5253 0.869
4328 10 4 0.0600 282.1517 363.5173 -1.067
4329 10 4 0.0600 281.0077 364.3743 -2.075
4330 10 4 0.0600 280.7507 362.6183 -1.652
4331 10 2 -0.1200 282.4197 364.0313 0.0
4332 10 3 -0.0600 283.90770000000003 364.0313 0.0
4333 10 1 -0.1800 284.5517 365.3073 -0.40700000000000003
4334 10 4 0.0600 282.1037 363.0813 0.5150000000000001
4335 10 4 0.0600 281.9527 363.9713 -0.999
4336 10 4 0.0600 284.3227 363.16229999999996 -0.506
4337 10 4 0.0600 285.6397 365.0983 -0.5140000000000001
4338 10 4 0.0600 284.4957 366.1063 0.3429999999999999
4339 10 4 0.0600 284.2387 365.6833 -1.413
4340 10 2 -0.1200 285.9077 364.0313 0.0
4341 10 3 -0.0600 287.39570000000003 364.0313 0.0
4342 10 1 -0.1800 288.0397 363.6243 1.276
4343 10 4 0.0600 285.5917 364.5463 -0.95
4344 10 4 0.0600 285.4407 363.03229999999996 -0.06
4345 10 4 0.0600 287.8107 363.5253 -0.869
4346 10 4 0.0600 289.1277 363.5173 1.067
4347 10 4 0.0600 287.9837 364.3743 2.075
4348 10 4 0.0600 287.7267 362.6183 1.652
4349 10 2 -0.1200 289.3957 364.0313 0.0
4350 10 3 -0.0600 290.88370000000003 364.0313 0.0
4351 10 1 -0.1800 291.5277 362.7553 -0.4069999999999999
4352 10 4 0.0600 289.0797 364.9813 0.5149999999999999
4353 10 4 0.0600 288.9287 364.0913 -0.999
4354 10 4 0.0600 291.2987 364.9003 -0.506
4355 10 4 0.0600 292.6157 362.9643 -0.5139999999999999
4356 10 4 0.0600 291.4717 361.9563 0.34300000000000014
4357 10 4 0.0600 291.2147 362.3793 -1.413
4358 10 2 -0.1200 292.8837 364.0313 0.0
4359 10 3 -0.0600 294.37170000000003 364.0313 0.0
4360 10 1 -0.1800 295.0157 363.6243 1.276
4361 10 4 0.0600 292.5677 364.5463 -0.95
4362 10 4 0.0600 292.4167 363.03229999999996 -0.06
4363 10 4 0.0600 294.7867 363.5253 -0.869
4364 10 4 0.0600 296.1037 363.5173 1.067
4365 10 4 0.0600 294.9597 364.3743 2.075
4366 10 4 0.0600 294.7027 362.6183 1.652
4367 10 2 -0.1200 296.3717 364.0313 0.0
4368 10 3 -0.0600 297.85970000000003 364.0313 0.0
4369 10 1 -0.1800 298.5037 365.3073 -0.40700000000000003
4370 10 4 0.0600 296.0557 363.0813 0.5150000000000001
4371 10 4 0.0600 295.9047 363.9713 -0.999
4372 10 4 0.0600 298.2747 363.16229999999996 -0.506
4373 10 4 0.0600 299.5917 365.0983 -0.5140000000000001
4374 10 4 0.0600 298.4477 366.1063 0.3429999999999999
4375 10 4 0.0600 298.1907 365.6833 -1.413
4376 10 2 -0.1200 299.8597 364.0313 0.0
4377 10 3 -0.0600 301.34770000000003 364.0313 0.0
4378 10 1 -0.1800 301.9917 363.6243 -1.276
4379 10 4 0.0600 299.5437 364.5463 0.95
4380 10 4 0.0600 299.3927 363.03229999999996 0.06
4381 10 4 0.0600 301.7627 363.5253 0.869
4382 10 4 0.0600 303.0797 363.5173 -1.067
4383 10 4 0.0600 301.9357 364.3743 -2.075
4384 10 4 0.0600 301.6787 362.6183 -1.652
4385 10 2 -0.1200 303.3477 364.0313 0.0
4386 10 3 -0.0600 304.83570000000003 364.0313 0.0
4387 10 1 -0.1800 305.4797 365.3073 -0.40700000000000003
4388 10 4 0.0600 303.0317 363.0813 0.5150000000000001
4389 10 4 0.0600 302.8807 363.9713 -0.999
4390 10 4 0.0600 305.2507 363.16229999999996 -0.506
4391 10 4 0.0600 306.5677 365.0983 -0.5140000000000001
4392 10 4 0.0600 305.4237 366.1063 0.3429999999999999
4393 10 4 0.0600 305.1667 365.6833 -1.413
4394 10 2 -0.1200 306.8357 364.0313 0.0
4395 10 3 -0.0600 308.32370000000003 364.0313 0.0
4396 10 1 -0.1800 308.9677 363.6243 1.276
4397 10 4 0.0600 306.5197 364.5463 -0.95
4398 10 4 0.0600 306.3687 363.03229999999996 -0.06
4399 10 4 0.0600 308.7387 363.5253 -0.869
4400 10 4 0.0600 310.0557 363.5173 1.067
4401 10 4 0.0600 308.9117 364.3743 2.075
4402 10 4 0.0600 308.6547 362.6183 1.652
4403 10 2 -0.1200 310.3237 364.0313 0.0
4404 10 3 -0.0600 311.81170000000003 364.0313 0.0
4405 10 1 -0.1800 312.4557 365.3073 -0.40700000000000003
4406 10 4 0.0600 310.0077 363.0813 0.5150000000000001
4407 10 4 0.0600 309.8567 363.9713 -0.999
4408 10 4 0.0600 312.2267 363.16229999999996 -0.506
4409 10 4 0.0600 313.5437 365.0983 -0.5140000000000001
4410 10 4 0.0600 312.3997 366.1063 0.3429999999999999
4411 10 4 0.0600 312.1427 365.6833 -1.413
4412 10 2 -0.1200 313.8117 364.0313 0.0
4413 10 3 -0.0600 315.29970000000003 364.0313 0.0
4414 10 1 -0.1800 315.9437 363.6243 1.276
4415 10 4 0.0600 313.4957 364.5463 -0.95
4416 10 4 0.0600 313.3447 363.03229999999996 -0.06
4417 10 4 0.0600 315.7147 363.5253 -0.869
4418 10 4 0.0600 317.0317 363.5173 1.067
4419 10 4 0.0600 315.8877 364.3743 2.075
4420 10 4 0.0600 315.6307 362.6183 1.652
4421 10 2 -0.1200 317.2997 364.0313 0.0
4422 10 3 -0.0600 318.78770000000003 364.0313 0.0
4423 10 1 -0.1800 319.4317 365.3073 -0.40700000000000003
4424 10 4 0.0600 316.9837 363.0813 0.5150000000000001
4425 10 4 0.0600 316.8327 363.9713 -0.999
4426 10 4 0.0600 319.2027 363.16229999999996 -0.506
4427 10 4 0.0600 320.5197 365.0983 -0.5140000000000001
4428 10 4 0.0600 319.3757 366.1063 0.3429999999999999
4429 10 4 0.0600 319.1187 365.6833 -1.413
4430 10 2 -0.1200 320.7877 364.0313 0.0
4431 10 3 -0.0600 322.27570000000003 364.0313 0.0
4432 10 1 -0.1800 322.9197 363.6243 -1.276
4433 10 4 0.0600 320.4717 364.5463 0.95
4434 10 4 0.0600 320.3207 363.03229999999996 0.06
4435 10 4 0.0600 322.6907 363.5253 0.869
4436 10 4 0.0600 324.0077 363.5173 -1.067
4437 10 4 0.0600 322.8637 364.3743 -2.075
4438 10 4 0.0600 322.6067 362.6183 -1.652
4439 10 2 -0.1200 324.2757 364.0313 0.0
4440 10 3 -0.0600 325.76370000000003 364.0313 0.0
4441 10 1 -0.1800 326.4077 365.3073 -0.40700000000000003
4442 10 4 0.0600 323.9597 363.0813 0.5150000000000001
4443 10 4 0.0600 323.8087 363.9713 -0.999
4444 10 4 0.0600 326.1787 363.16229999999996 -0.506
4445 10 4 0.0600 327.4957 365.0983 -0.5140000000000001
4446 10 4 0.0600 326.3517 366.1063 0.3429999999999999
4447 10 4 0.0600 326.0947 365.6833 -1.413
4448 10 2 -0.1200 327.7637 364.0313 0.0
4449 10 3 -0.0600 329.2517 364.0313 0.0
4450 10 1 -0.1800 329.8957 363.6243 1.276
4451 10 4 0.0600 327.4477 364.5463 -0.95
4452 10 4 0.0600 327.2967 363.03229999999996 -0.06
4453 10 4 0.0600 329.6667 363.5253 -0.869
4454 10 4 0.0600 330.9837 363.5173 1.067
4455 10 4 0.0600 329.8397 364.3743 2.075
4456 10 4 0.0600 329.5827 362.6183 1.652
4457 10 2 -0.1200 331.25169999999997 364.0313 0.0
4458 10 3 -0.0600 332.7397 364.0313 0.0
4459 10 1 -0.1800 333.3837 365.3073 -0.40700000000000003
4460 10 4 0.0600 330.9357 363.0813 0.5150000000000001
4461 10 4 0.0600 330.7847 363.9713 -0.999
4462 10 4 0.0600 333.1547 363.16229999999996 -0.506
4463 10 4 0.0600 334.4717 365.0983 -0.5140000000000001
4464 10 4 0.0600 333.3277 366.1063 0.3429999999999999
4465 10 4 0.0600 333.0707 365.6833 -1.413
4466 10 2 -0.1200 334.73969999999997 364.0313 0.0
4467 10 3 -0.0600 336.2277 364.0313 0.0
4468 10 1 -0.1800 336.8717 363.6243 1.276
4469 10 4 0.0600 334.4237 364.5463 -0.95
4470 10 4 0.0600 334.2727 363.03229999999996 -0.06
4471 10 4 0.0600 336.6427 363.5253 -0.869
4472 10 4 0.0600 337.9597 363.5173 1.067
4473 10 4 0.0600 336.8157 364.3743 2.075
4474 10 4 0.0600 336.5587 362.6183 1.652
4475 10 2 -0.1200 338.22769999999997 364.0313 0.0
4476 10 3 -0.0600 339.7157 364.0313 0.0
4477 10 1 -0.1800 340.3597 362.7553 -0.4069999999999999
4478 10 4 0.0600 337.9117 364.9813 0.5149999999999999
4479 10 4 0.0600 337.7607 364.0913 -0.999
4480 10 4 0.0600 340.1307 364.9003 -0.506
4481 10 4 0.0600 341.4477 362.9643 -0.5139999999999999
4482 10 4 0.0600 340.3037 361.9563 0.34300000000000014
4483 10 4 0.0600 340.0467 362.3793 -1.413
4484 10 2 -0.1200 341.71569999999997 364.0313 0.0
4485 10 3 -0.0600 343.2037 364.0313 0.0
4486 10 1 -0.1800 343.8477 363.6243 1.276
4487 10 4 0.0600 341.3997 364.5463 -0.95
4488 10 4 0.0600 341.2487 363.03229999999996 -0.06
4489 10 4 0.0600 343.6187 363.5253 -0.869
4490 10 4 0.0600 344.9357 363.5173 1.067
4491 10 4 0.0600 343.7917 364.3743 2.075
4492 10 4 0.0600 343.5347 362.6183 1.652
4493 10 2 -0.1200 345.20369999999997 364.0313 0.0
4494 10 3 -0.0600 346.6917 364.0313 0.0
4495 10 1 -0.1800 347.3357 365.3073 -0.40700000000000003
4496 10 4 0.0600 344.8877 363.0813 0.5150000000000001
4497 10 4 0.0600 344.7367 363.9713 -0.999
4498 10 4 0.0600 347.1067 363.16229999999996 -0.506
4499 10 4 0.0600 348.4237 365.0983 -0.5140000000000001
4500 10 4 0.0600 347.2797 366.1063 0.3429999999999999
4501 10 4 0.0600 347.0227 365.6833 -1.413
4502 10 2 -0.1200 348.69169999999997 364.0313 0.0
4503 10 3 -0.0600 350.1797 364.0313 0.0
4504 10 1 -0.1800 350.8237 363.6243 1.276
4505 10 4 0.0600 348.3757 364.5463 -0.95
4506 10 4 0.0600 348.2247 363.03229999999996 -0.06
4507 10 4 0.0600 350.5947 363.5253 -0.869
4508 10 4 0.0600 351.9117 363.5173 1.067
4509 10 4 0.0600 350.7677 364.3743 2.075
4510 10 4 0.0600 350.5107 362.6183 1.652
4511 10 2 -0.1200 351.2527 364.0313 0.0
4512 10 2 -0.1200 352.6007 364.36129999999997 0.57
4513 10 1 -0.1800 353.6217 363.5743 -0.24499999999999997
4514 10 4 0.0600 350.4857 364.3863 0.703
4515 10 4 0.0600 351.1897 364.4703 -1.008
4516 10 4 0.0600 352.7577 365.44829999999996 0.5029999999999999
4517 10 4 0.0600 352.7317 364.05629999999996 1.618
4518 10 4 0.0600 353.4527 363.66929999999996 -1.33
4519 10 4 0.0600 353.5157 362.5253 0.05700000000000009
4520 10 4 0.0600 354.5947 364.0313 0.0

Bonds

1 7 1 2
2 7 2 3
3 10 1 4
4 10 1 5
5 10 1 6
6 12 2 7
7 10 3 8
8 10 3 9
9 10 3 10
10 8 11 12
11 7 12 13
12 11 11 14
13 11 11 15
14 12 12 16
15 10 13 17
16 10 13 18
17 10 13 19
18 8 20 21
19 7 21 22
20 11 20 23
21 11 20 24
22 12 21 25
23 10 22 26
24 10 22 27
25 10 22 28
26 8 29 30
27 7 30 31
28 11 29 32
29 11 29 33
30 12 30 34
31 10 31 35
32 10 31 36
33 10 31 37
34 8 38 39
35 7 39 40
36 11 38 41
37 11 38 42
38 12 39 43
39 10 40 44
40 10 40 45
41 10 40 46
42 8 47 48
43 7 48 49
44 11 47 50
45 11 47 51
46 12 48 52
47 10 49 53
48 10 49 54
49 10 49 55
50 8 56 57
51 7 57 58
52 11 56 59
53 11 56 60
54 12 57 61
55 10 58 62
56 10 58 63
57 10 58 64
58 8 65 66
59 7 66 67
60 11 65 68
61 11 65 69
62 12 66 70
63 10 67 71
64 10 67 72
65 10 67 73
66 8 74 75
67 7 75 76
68 11 74 77
69 11 74 78
70 12 75 79
71 10 76 80
72 10 76 81
73 10 76 82
74 8 83 84
75 7 84 85
76 11 83 86
77 11 83 87
78 12 84 88
79 10 85 89
80 10 85 90
81 10 85 91
82 8 92 93
83 7 93 94
84 11 92 95
85 11 92 96
86 12 93 97
87 10 94 98
88 10 94 99
89 10 94 100
90 8 101 102
91 7 102 103
92 11 101 104
93 11 101 105
94 12 102 106
95 10 103 107
96 10 103 108
97 10 103 109
98 8 110 111
99 7 111 112
100 11 110 113
101 11 110 114
102 12 111 115
103 10 112 116
104 10 112 117
105 10 112 118
106 8 119 120
107 7 120 121
108 11 119 122
109 11 119 123
110 12 120 124
111 10 121 125
112 10 121 126
113 10 121 127
114 8 128 129
115 7 129 130
116 11 128 131
117 11 128 132
118 12 129 133
119 10 130 134
120 10 130 135
121 10 130 136
122 8 137 138
123 7 138 139
124 11 137 140
125 11 137 141
126 12 138 142
127 10 139 143
128 10 139 144
129 10 139 145
130 8 146 147
131 7 147 148
132 11 146 149
133 11 146 150
134 12 147 151
135 10 148 152
136 10 148 153
137 10 148 154
138 8 155 156
139 7 156 157
140 11 155 158
141 11 155 159
142 12 156 160
143 10 157 161
144 10 157 162
145 10 157 163
146 8 164 165
147 7 165 166
148 11 164 167
149 11 164 168
150 12 165 169
151 10 166 170
152 10 166 171
153 10 166 172
154 8 173 174
155 7 174 175
156 11 173 176
157 11 173 177
158 12 174 178
159 10 175 179
160 10 175 180
161 10 175 181
162 8 182 183
163 7 183 184
164 11 182 185
165 11 182 186
166 12 183 187
167 10 184 188
168 10 184 189
169 10 184 190
170 8 191 192
171 7 192 193
172 11 191 194
173 11 191 195
174 12 192 196
175 10 193 197
176 10 193 198
177 10 193 199
178 8 200 201
179 7 201 202
180 11 200 203
181 11 200 204
182 12 201 205
183 10 202 206
184 10 202 207
185 10 202 208
186 8 209 210
187 7 210 211
188 11 209 212
189 11 209 213
190 12 210 214
191 10 211 215
192 10 211 216
193 10 211 217
194 8 218 219
195 7 219 220
196 11 218 221
197 11 218 222
198 12 219 223
199 10 220 224
200 10 220 225
201 10 220 226
202 8 227 228
203 7 228 229
204 11 227 230
205 11 227 231
206 12 228 232
207 10 229 233
208 10 229 234
209 10 229 235
210 8 236 237
211 7 237 238
212 11 236 239
213 11 236 240
214 12 237 241
215 10 238 242
216 10 238 243
217 10 238 244
218 8 245 246
219 7 246 247
220 11 245 248
221 11 245 249
222 12 246 250
223 10 247 251
224 10 247 252
225 10 247 253
226 8 254 255
227 7 255 256
228 11 254 257
229 11 254 258
230 12 255 259
231 10 256 260
232 10 256 261
233 10 256 262
234 8 263 264
235 7 264 265
236 11 263 266
237 11 263 267
238 12 264 268
239 10 265 269
240 10 265 270
241 10 265 271
242 8 272 273
243 7 273 274
244 11 272 275
245 11 272 276
246 12 273 277
247 10 274 278
248 10 274 279
249 10 274 280
250 8 281 282
251 7 282 283
252 11 281 284
253 11 281 285
254 12 282 286
255 10 283 287
256 10 283 288
257 10 283 289
258 8 290 291
259 7 291 292
260 11 290 293
261 11 290 294
262 12 291 295
263 10 292 296
264 10 292 297
265 10 292 298
266 8 299 300
267 7 300 301
268 11 299 302
269 11 299 303
270 12 300 304
271 10 301 305
272 10 301 306
273 10 301 307
274 8 308 309
275 7 309 310
276 11 308 311
277 11 308 312
278 12 309 313
279 10 310 314
280 10 310 315
281 10 310 316
282 8 317 318
283 7 318 319
284 11 317 320
285 11 317 321
286 12 318 322
287 10 319 323
288 10 319 324
289 10 319 325
290 8 326 327
291 7 327 328
292 11 326 329
293 11 326 330
294 12 327 331
295 10 328 332
296 10 328 333
297 10 328 334
298 8 335 336
299 7 336 337
300 11 335 338
301 11 335 339
302 12 336 340
303 10 337 341
304 10 337 342
305 10 337 343
306 8 344 345
307 7 345 346
308 11 344 347
309 11 344 348
310 12 345 349
311 10 346 350
312 10 346 351
313 10 346 352
314 8 353 354
315 7 354 355
316 11 353 356
317 11 353 357
318 12 354 358
319 10 355 359
320 10 355 360
321 10 355 361
322 8 362 363
323 7 363 364
324 11 362 365
325 11 362 366
326 12 363 367
327 10 364 368
328 10 364 369
329 10 364 370
330 8 371 372
331 7 372 373
332 11 371 374
333 11 371 375
334 12 372 376
335 10 373 377
336 10 373 378
337 10 373 379
338 8 380 381
339 7 381 382
340 11 380 383
341 11 380 384
342 12 381 385
343 10 382 386
344 10 382 387
345 10 382 388
346 8 389 390
347 7 390 391
348 11 389 392
349 11 389 393
350 12 390 394
351 10 391 395
352 10 391 396
353 10 391 397
354 8 398 399
355 7 399 400
356 11 398 401
357 11 398 402
358 12 399 403
359 10 400 404
360 10 400 405
361 10 400 406
362 8 407 408
363 7 408 409
364 11 407 410
365 11 407 411
366 12 408 412
367 10 409 413
368 10 409 414
369 10 409 415
370 8 416 417
371 7 417 418
372 11 416 419
373 11 416 420
374 12 417 421
375 10 418 422
376 10 418 423
377 10 418 424
378 8 425 426
379 7 426 427
380 11 425 428
381 11 425 429
382 12 426 430
383 10 427 431
384 10 427 432
385 10 427 433
386 8 434 435
387 7 435 436
388 11 434 437
389 11 434 438
390 12 435 439
391 10 436 440
392 10 436 441
393 10 436 442
394 5 443 444
395 4 444 445
396 11 443 446
397 11 443 447
398 11 444 448
399 11 444 449
400 10 445 450
401 10 445 451
402 10 445 452
403 8 2 11
404 8 12 20
405 8 21 29
406 8 30 38
407 8 39 47
408 8 48 56
409 8 57 65
410 8 66 74
411 8 75 83
412 8 84 92
413 8 93 101
414 8 102 110
415 8 111 119
416 8 120 128
417 8 129 137
418 8 138 146
419 8 147 155
420 8 156 164
421 8 165 173
422 8 174 182
423 8 183 191
424 8 192 200
425 8 201 209
426 8 210 218
427 8 219 227
428 8 228 236
429 8 237 245
430 8 246 254
431 8 255 263
432 8 264 272
433 8 273 281
434 8 282 290
435 8 291 299
436 8 300 308
437 8 309 317
438 8 318 326
439 8 327 335
440 8 336 344
441 8 345 353
442 8 354 362
443 8 363 371
444 8 372 380
445 8 381 389
446 8 390 398
447 8 399 407
448 8 408 416
449 8 417 425
450 8 426 434
451 8 435 443
452 7 453 454
453 7 454 455
454 10 453 456
455 10 453 457
456 10 453 458
457 12 454 459
458 10 455 460
459 10 455 461
460 10 455 462
461 8 463 464
462 7 464 465
463 11 463 466
464 11 463 467
465 12 464 468
466 10 465 469
467 10 465 470
468 10 465 471
469 8 472 473
470 7 473 474
471 11 472 475
472 11 472 476
473 12 473 477
474 10 474 478
475 10 474 479
476 10 474 480
477 8 481 482
478 7 482 483
479 11 481 484
480 11 481 485
481 12 482 486
482 10 483 487
483 10 483 488
484 10 483 489
485 8 490 491
486 7 491 492
487 11 490 493
488 11 490 494
489 12 491 495
490 10 492 496
491 10 492 497
492 10 492 498
493 8 499 500
494 7 500 501
495 11 499 502
496 11 499 503
497 12 500 504
498 10 501 505
499 10 501 506
500 10 501 507
501 8 508 509
502 7 509 510
503 11 508 511
504 11 508 512
505 12 509 513
506 10 510 514
507 10 510 515
508 10 510 516
509 8 517 518
510 7 518 519
511 11 517 520
512 11 517 521
513 12 518 522
514 10 519 523
515 10 519 524
516 10 519 525
517 8 526 527
518 7 527 528
519 11 526 529
520 11 526 530
521 12 527 531
522 10 528 532
523 10 528 533
524 10 528 534
525 8 535 536
526 7 536 537
527 11 535 538
528 11 535 539
529 12 536 540
530 10 537 541
531 10 537 542
532 10 537 543
533 8 544 545
534 7 545 546
535 11 544 547
536 11 544 548
537 12 545 549
538 10 546 550
539 10 546 551
540 10 546 552
541 8 553 554
542 7 554 555
543 11 553 556
544 11 553 557
545 12 554 558
546 10 555 559
547 10 555 560
548 10 555 561
549 8 562 563
550 7 563 564
551 11 562 565
552 11 562 566
553 12 563 567
554 10 564 568
555 10 564 569
556 10 564 570
557 8 571 572
558 7 572 573
559 11 571 574
560 11 571 575
561 12 572 576
562 10 573 577
563 10 573 578
564 10 573 579
565 8 580 581
566 7 581 582
567 11 580 583
568 11 580 584
569 12 581 585
570 10 582 586
571 10 582 587
572 10 582 588
573 8 589 590
574 7 590 591
575 11 589 592
576 11 589 593
577 12 590 594
578 10 591 595
579 10 591 596
580 10 591 597
581 8 598 599
582 7 599 600
583 11 598 601
584 11 598 602
585 12 599 603
586 10 600 604
587 10 600 605
588 10 600 606
589 8 607 608
590 7 608 609
591 11 607 610
592 11 607 611
593 12 608 612
594 10 609 613
595 10 609 614
596 10 609 615
597 8 616 617
598 7 617 618
599 11 616 619
600 11 616 620
601 12 617 621
602 10 618 622
603 10 618 623
604 10 618 624
605 8 625 626
606 7 626 627
607 11 625 628
608 11 625 629
609 12 626 630
610 10 627 631
611 10 627 632
612 10 627 633
613 8 634 635
614 7 635 636
615 11 634 637
616 11 634 638
617 12 635 639
618 10 636 640
619 10 636 641
620 10 636 642
621 8 643 644
622 7 644 645
623 11 643 646
624 11 643 647
625 12 644 648
626 10 645 649
627 10 645 650
628 10 645 651
629 8 652 653
630 7 653 654
631 11 652 655
632 11 652 656
633 12 653 657
634 10 654 658
635 10 654 659
636 10 654 660
637 8 661 662
638 7 662 663
639 11 661 664
640 11 661 665
641 12 662 666
642 10 663 667
643 10 663 668
644 10 663 669
645 8 670 671
646 7 671 672
647 11 670 673
648 11 670 674
649 12 671 675
650 10 672 676
651 10 672 677
652 10 672 678
653 8 679 680
654 7 680 681
655 11 679 682
656 11 679 683
657 12 680 684
658 10 681 685
659 10 681 686
660 10 681 687
661 8 688 689
662 7 689 690
663 11 688 691
664 11 688 692
665 12 689 693
666 10 690 694
667 10 690 695
668 10 690 696
669 8 697 698
670 7 698 699
671 11 697 700
672 11 697 701
673 12 698 702
674 10 699 703
675 10 699 704
676 10 699 705
677 8 706 707
678 7 707 708
679 11 706 709
680 11 706 710
681 12 707 711
682 10 708 712
683 10 708 713
684 10 708 714
685 8 715 716
686 7 716 717
687 11 715 718
688 11 715 719
689 12 716 720
690 10 717 721
691 10 717 722
692 10 717 723
693 8 724 725
694 7 725 726
695 11 724 727
696 11 724 728
697 12 725 729
698 10 726 730
699 10 726 731
700 10 726 732
701 8 733 734
702 7 734 735
703 11 733 736
704 11 733 737
705 12 734 738
706 10 735 739
707 10 735 740
708 10 735 741
709 8 742 743
710 7 743 744
711 11 742 745
712 11 742 746
713 12 743 747
714 10 744 748
715 10 744 749
716 10 744 750
717 8 751 752
718 7 752 753
719 11 751 754
720 11 751 755
721 12 752 756
722 10 753 757
723 10 753 758
724 10 753 759
725 8 760 761
726 7 761 762
727 11 760 763
728 11 760 764
729 12 761 765
730 10 762 766
731 10 762 767
732 10 762 768
733 8 769 770
734 7 770 771
735 11 769 772
736 11 769 773
737 12 770 774
738 10 771 775
739 10 771 776
740 10 771 777
741 8 778 779
742 7 779 780
743 11 778 781
744 11 778 782
745 12 779 783
746 10 780 784
747 10 780 785
748 10 780 786
749 8 787 788
750 7 788 789
751 11 787 790
752 11 787 791
753 12 788 792
754 10 789 793
755 10 789 794
756 10 789 795
757 8 796 797
758 7 797 798
759 11 796 799
760 11 796 800
761 12 797 801
762 10 798 802
763 10 798 803
764 10 798 804
765 8 805 806
766 7 806 807
767 11 805 808
768 11 805 809
769 12 806 810
770 10 807 811
771 10 807 812
772 10 807 813
773 8 814 815
774 7 815 816
775 11 814 817
776 11 814 818
777 12 815 819
778 10 816 820
779 10 816 821
780 10 816 822
781 8 823 824
782 7 824 825
783 11 823 826
784 11 823 827
785 12 824 828
786 10 825 829
787 10 825 830
788 10 825 831
789 8 832 833
790 7 833 834
791 11 832 835
792 11 832 836
793 12 833 837
794 10 834 838
795 10 834 839
796 10 834 840
797 8 841 842
798 7 842 843
799 11 841 844
800 11 841 845
801 12 842 846
802 10 843 847
803 10 843 848
804 10 843 849
805 8 850 851
806 7 851 852
807 11 850 853
808 11 850 854
809 12 851 855
810 10 852 856
811 10 852 857
812 10 852 858
813 8 859 860
814 7 860 861
815 11 859 862
816 11 859 863
817 12 860 864
818 10 861 865
819 10 861 866
820 10 861 867
821 8 868 869
822 7 869 870
823 11 868 871
824 11 868 872
825 12 869 873
826 10 870 874
827 10 870 875
828 10 870 876
829 8 877 878
830 7 878 879
831 11 877 880
832 11 877 881
833 12 878 882
834 10 879 883
835 10 879 884
836 10 879 885
837 8 886 887
838 7 887 888
839 11 886 889
840 11 886 890
841 12 887 891
842 10 888 892
843 10 888 893
844 10 888 894
845 5 895 896
846 4 896 897
847 11 895 898
848 11 895 899
849 11 896 900
850 11 896 901
851 10 897 902
852 10 897 903
853 10 897 904
854 8 454 463
855 8 464 472
856 8 473 481
857 8 482 490
858 8 491 499
859 8 500 508
860 8 509 517
861 8 518 526
862 8 527 535
863 8 536 544
864 8 545 553
865 8 554 562
866 8 563 571
867 8 572 580
868 8 581 589
869 8 590 598
870 8 599 607
871 8 608 616
872 8 617 625
873 8 626 634
874 8 635 643
875 8 644 652
876 8 653 661
877 8 662 670
878 8 671 679
879 8 680 688
880 8 689 697
881 8 698 706
882 8 707 715
883 8 716 724
884 8 725 733
885 8 734 742
886 8 743 751
887 8 752 760
888 8 761 769
889 8 770 778
890 8 779 787
891 8 788 796
892 8 797 805
893 8 806 814
894 8 815 823
895 8 824 832
896 8 833 841
897 8 842 850
898 8 851 859
899 8 860 868
900 8 869 877
901 8 878 886
902 8 887 895
903 7 905 906
904 7 906 907
905 10 905 908
906 10 905 909
907 10 905 910
908 12 906 911
909 10 907 912
910 10 907 913
911 10 907 914
912 8 915 916
913 7 916 917
914 11 915 918
915 11 915 919
916 12 916 920
917 10 917 921
918 10 917 922
919 10 917 923
920 8 924 925
921 7 925 926
922 11 924 927
923 11 924 928
924 12 925 929
925 10 926 930
926 10 926 931
927 10 926 932
928 8 933 934
929 7 934 935
930 11 933 936
931 11 933 937
932 12 934 938
933 10 935 939
934 10 935 940
935 10 935 941
936 8 942 943
937 7 943 944
938 11 942 945
939 11 942 946
940 12 943 947
941 10 944 948
942 10 944 949
943 10 944 950
944 8 951 952
945 7 952 953
946 11 951 954
947 11 951 955
948 12 952 956
949 10 953 957
950 10 953 958
951 10 953 959
952 8 960 961
953 7 961 962
954 11 960 963
955 11 960 964
956 12 961 965
957 10 962 966
958 10 962 967
959 10 962 968
960 8 969 970
961 7 970 971
962 11 969 972
963 11 969 973
964 12 970 974
965 10 971 975
966 10 971 976
967 10 971 977
968 8 978 979
969 7 979 980
970 11 978 981
971 11 978 982
972 12 979 983
973 10 980 984
974 10 980 985
975 10 980 986
976 8 987 988
977 7 988 989
978 11 987 990
979 11 987 991
980 12 988 992
981 10 989 993
982 10 989 994
983 10 989 995
984 8 996 997
985 7 997 998
986 11 996 999
987 11 996 1000
988 12 997 1001
989 10 998 1002
990 10 998 1003
991 10 998 1004
992 8 1005 1006
993 7 1006 1007
994 11 1005 1008
995 11 1005 1009
996 12 1006 1010
997 10 1007 1011
998 10 1007 1012
999 10 1007 1013
1000 8 1014 1015
1001 7 1015 1016
1002 11 1014 1017
1003 11 1014 1018
1004 12 1015 1019
1005 10 1016 1020
1006 10 1016 1021
1007 10 1016 1022
1008 8 1023 1024
1009 7 1024 1025
1010 11 1023 1026
1011 11 1023 1027
1012 12 1024 1028
1013 10 1025 1029
1014 10 1025 1030
1015 10 1025 1031
1016 8 1032 1033
1017 7 1033 1034
1018 11 1032 1035
1019 11 1032 1036
1020 12 1033 1037
1021 10 1034 1038
1022 10 1034 1039
1023 10 1034 1040
1024 8 1041 1042
1025 7 1042 1043
1026 11 1041 1044
1027 11 1041 1045
1028 12 1042 1046
1029 10 1043 1047
1030 10 1043 1048
1031 10 1043 1049
1032 8 1050 1051
1033 7 1051 1052
1034 11 1050 1053
1035 11 1050 1054
1036 12 1051 1055
1037 10 1052 1056
1038 10 1052 1057
1039 10 1052 1058
1040 8 1059 1060
1041 7 1060 1061
1042 11 1059 1062
1043 11 1059 1063
1044 12 1060 1064
1045 10 1061 1065
1046 10 1061 1066
1047 10 1061 1067
1048 8 1068 1069
1049 7 1069 1070
1050 11 1068 1071
1051 11 1068 1072
1052 12 1069 1073
1053 10 1070 1074
1054 10 1070 1075
1055 10 1070 1076
1056 8 1077 1078
1057 7 1078 1079
1058 11 1077 1080
1059 11 1077 1081
1060 12 1078 1082
1061 10 1079 1083
1062 10 1079 1084
1063 10 1079 1085
1064 8 1086 1087
1065 7 1087 1088
1066 11 1086 1089
1067 11 1086 1090
1068 12 1087 1091
1069 10 1088 1092
1070 10 1088 1093
1071 10 1088 1094
1072 8 1095 1096
1073 7 1096 1097
1074 11 1095 1098
1075 11 1095 1099
1076 12 1096 1100
1077 10 1097 1101
1078 10 1097 1102
1079 10 1097 1103
1080 8 1104 1105
1081 7 1105 1106
1082 11 1104 1107
1083 11 1104 1108
1084 12 1105 1109
1085 10 1106 1110
1086 10 1106 1111
1087 10 1106 1112
1088 8 1113 1114
1089 7 1114 1115
1090 11 1113 1116
1091 11 1113 1117
1092 12 1114 1118
1093 10 1115 1119
1094 10 1115 1120
1095 10 1115 1121
1096 8 1122 1123
1097 7 1123 1124
1098 11 1122 1125
1099 11 1122 1126
1100 12 1123 1127
1101 10 1124 1128
1102 10 1124 1129
1103 10 1124 1130
1104 8 1131 1132
1105 7 1132 1133
1106 11 1131 1134
1107 11 1131 1135
1108 12 1132 1136
1109 10 1133 1137
1110 10 1133 1138
1111 10 1133 1139
1112 8 1140 1141
1113 7 1141 1142
1114 11 1140 1143
1115 11 1140 1144
1116 12 1141 1145
1117 10 1142 1146
1118 10 1142 1147
1119 10 1142 1148
1120 8 1149 1150
1121 7 1150 1151
1122 11 1149 1152
1123 11 1149 1153
1124 12 1150 1154
1125 10 1151 1155
1126 10 1151 1156
1127 10 1151 1157
1128 8 1158 1159
1129 7 1159 1160
1130 11 1158 1161
1131 11 1158 1162
1132 12 1159 1163
1133 10 1160 1164
1134 10 1160 1165
1135 10 1160 1166
1136 8 1167 1168
1137 7 1168 1169
1138 11 1167 1170
1139 11 1167 1171
1140 12 1168 1172
1141 10 1169 1173
1142 10 1169 1174
1143 10 1169 1175
1144 8 1176 1177
1145 7 1177 1178
1146 11 1176 1179
1147 11 1176 1180
1148 12 1177 1181
1149 10 1178 1182
1150 10 1178 1183
1151 10 1178 1184
1152 8 1185 1186
1153 7 1186 1187
1154 11 1185 1188
1155 11 1185 1189
1156 12 1186 1190
1157 10 1187 1191
1158 10 1187 1192
1159 10 1187 1193
1160 8 1194 1195
1161 7 1195 1196
1162 11 1194 1197
1163 11 1194 1198
1164 12 1195 1199
1165 10 1196 1200
1166 10 1196 1201
1167 10 1196 1202
1168 8 1203 1204
1169 7 1204 1205
1170 11 1203 1206
1171 11 1203 1207
1172 12 1204 1208
1173 10 1205 1209
1174 10 1205 1210
1175 10 1205 1211
1176 8 1212 1213
1177 7 1213 1214
1178 11 1212 1215
1179 11 1212 1216
1180 12 1213 1217
1181 10 1214 1218
1182 10 1214 1219
1183 10 1214 1220
1184 8 1221 1222
1185 7 1222 1223
1186 11 1221 1224
1187 11 1221 1225
1188 12 1222 1226
1189 10 1223 1227
1190 10 1223 1228
1191 10 1223 1229
1192 8 1230 1231
1193 7 1231 1232
1194 11 1230 1233
1195 11 1230 1234
1196 12 1231 1235
1197 10 1232 1236
1198 10 1232 1237
1199 10 1232 1238
1200 8 1239 1240
1201 7 1240 1241
1202 11 1239 1242
1203 11 1239 1243
1204 12 1240 1244
1205 10 1241 1245
1206 10 1241 1246
1207 10 1241 1247
1208 8 1248 1249
1209 7 1249 1250
1210 11 1248 1251
1211 11 1248 1252
1212 12 1249 1253
1213 10 1250 1254
1214 10 1250 1255
1215 10 1250 1256
1216 8 1257 1258
1217 7 1258 1259
1218 11 1257 1260
1219 11 1257 1261
1220 12 1258 1262
1221 10 1259 1263
1222 10 1259 1264
1223 10 1259 1265
1224 8 1266 1267
1225 7 1267 1268
1226 11 1266 1269
1227 11 1266 1270
1228 12 1267 1271
1229 10 1268 1272
1230 10 1268 1273
1231 10 1268 1274
1232 8 1275 1276
1233 7 1276 1277
1234 11 1275 1278
1235 11 1275 1279
1236 12 1276 1280
1237 10 1277 1281
1238 10 1277 1282
1239 10 1277 1283
1240 8 1284 1285
1241 7 1285 1286
1242 11 1284 1287
1243 11 1284 1288
1244 12 1285 1289
1245 10 1286 1290
1246 10 1286 1291
1247 10 1286 1292
1248 8 1293 1294
1249 7 1294 1295
1250 11 1293 1296
1251 11 1293 1297
1252 12 1294 1298
1253 10 1295 1299
1254 10 1295 1300
1255 10 1295 1301
1256 8 1302 1303
1257 7 1303 1304
1258 11 1302 1305
1259 11 1302 1306
1260 12 1303 1307
1261 10 1304 1308
1262 10 1304 1309
1263 10 1304 1310
1264 8 1311 1312
1265 7 1312 1313
1266 11 1311 1314
1267 11 1311 1315
1268 12 1312 1316
1269 10 1313 1317
1270 10 1313 1318
1271 10 1313 1319
1272 8 1320 1321
1273 7 1321 1322
1274 11 1320 1323
1275 11 1320 1324
1276 12 1321 1325
1277 10 1322 1326
1278 10 1322 1327
1279 10 1322 1328
1280 8 1329 1330
1281 7 1330 1331
1282 11 1329 1332
1283 11 1329 1333
1284 12 1330 1334
1285 10 1331 1335
1286 10 1331 1336
1287 10 1331 1337
1288 8 1338 1339
1289 7 1339 1340
1290 11 1338 1341
1291 11 1338 1342
1292 12 1339 1343
1293 10 1340 1344
1294 10 1340 1345
1295 10 1340 1346
1296 5 1347 1348
1297 4 1348 1349
1298 11 1347 1350
1299 11 1347 1351
1300 11 1348 1352
1301 11 1348 1353
1302 10 1349 1354
1303 10 1349 1355
1304 10 1349 1356
1305 8 906 915
1306 8 916 924
1307 8 925 933
1308 8 934 942
1309 8 943 951
1310 8 952 960
1311 8 961 969
1312 8 970 978
1313 8 979 987
1314 8 988 996
1315 8 997 1005
1316 8 1006 1014
1317 8 1015 1023
1318 8 1024 1032
1319 8 1033 1041
1320 8 1042 1050
1321 8 1051 1059
1322 8 1060 1068
1323 8 1069 1077
1324 8 1078 1086
1325 8 1087 1095
1326 8 1096 1104
1327 8 1105 1113
1328 8 1114 1122
1329 8 1123 1131
1330 8 1132 1140
1331 8 1141 1149
1332 8 1150 1158
1333 8 1159 1167
1334 8 1168 1176
1335 8 1177 1185
1336 8 1186 1194
1337 8 1195 1203
1338 8 1204 1212
1339 8 1213 1221
1340 8 1222 1230
1341 8 1231 1239
1342 8 1240 1248
1343 8 1249 1257
1344 8 1258 1266
1345 8 1267 1275
1346 8 1276 1284
1347 8 1285 1293
1348 8 1294 1302
1349 8 1303 1311
1350 8 1312 1320
1351 8 1321 1329
1352 8 1330 1338
1353 8 1339 1347
1354 7 1357 1358
1355 7 1358 1359
1356 10 1357 1360
1357 10 1357 1361
1358 10 1357 1362
1359 12 1358 1363
1360 10 1359 1364
1361 10 1359 1365
1362 10 1359 1366
1363 8 1367 1368
1364 7 1368 1369
1365 11 1367 1370
1366 11 1367 1371
1367 12 1368 1372
1368 10 1369 1373
1369 10 1369 1374
1370 10 1369 1375
1371 8 1376 1377
1372 7 1377 1378
1373 11 1376 1379
1374 11 1376 1380
1375 12 1377 1381
1376 10 1378 1382
1377 10 1378 1383
1378 10 1378 1384
1379 8 1385 1386
1380 7 1386 1387
1381 11 1385 1388
1382 11 1385 1389
1383 12 1386 1390
1384 10 1387 1391
1385 10 1387 1392
1386 10 1387 1393
1387 8 1394 1395
1388 7 1395 1396
1389 11 1394 1397
1390 11 1394 1398
1391 12 1395 1399
1392 10 1396 1400
1393 10 1396 1401
1394 10 1396 1402
1395 8 1403 1404
1396 7 1404 1405
1397 11 1403 1406
1398 11 1403 1407
1399 12 1404 1408
1400 10 1405 1409
1401 10 1405 1410
1402 10 1405 1411
1403 8 1412 1413
1404 7 1413 1414
1405 11 1412 1415
1406 11 1412 1416
1407 12 1413 1417
1408 10 1414 1418
1409 10 1414 1419
1410 10 1414 1420
1411 8 1421 1422
1412 7 1422 1423
1413 11 1421 1424
1414 11 1421 1425
1415 12 1422 1426
1416 10 1423 1427
1417 10 1423 1428
1418 10 1423 1429
1419 8 1430 1431
1420 7 1431 1432
1421 11 1430 1433
1422 11 1430 1434
1423 12 1431 1435
1424 10 1432 1436
1425 10 1432 1437
1426 10 1432 1438
1427 8 1439 1440
1428 7 1440 1441
1429 11 1439 1442
1430 11 1439 1443
1431 12 1440 1444
1432 10 1441 1445
1433 10 1441 1446
1434 10 1441 1447
1435 8 1448 1449
1436 7 1449 1450
1437 11 1448 1451
1438 11 1448 1452
1439 12 1449 1453
1440 10 1450 1454
1441 10 1450 1455
1442 10 1450 1456
1443 8 1457 1458
1444 7 1458 1459
1445 11 1457 1460
1446 11 1457 1461
1447 12 1458 1462
1448 10 1459 1463
1449 10 1459 1464
1450 10 1459 1465
1451 8 1466 1467
1452 7 1467 1468
1453 11 1466 1469
1454 11 1466 1470
1455 12 1467 1471
1456 10 1468 1472
1457 10 1468 1473
1458 10 1468 1474
1459 8 1475 1476
1460 7 1476 1477
1461 11 1475 1478
1462 11 1475 1479
1463 12 1476 1480
1464 10 1477 1481
1465 10 1477 1482
1466 10 1477 1483
1467 8 1484 1485
1468 7 1485 1486
1469 11 1484 1487
1470 11 1484 1488
1471 12 1485 1489
1472 10 1486 1490
1473 10 1486 1491
1474 10 1486 1492
1475 8 1493 1494
1476 7 1494 1495
1477 11 1493 1496
1478 11 1493 1497
1479 12 1494 1498
1480 10 1495 1499
1481 10 1495 1500
1482 10 1495 1501
1483 8 1502 1503
1484 7 1503 1504
1485 11 1502 1505
1486 11 1502 1506
1487 12 1503 1507
1488 10 1504 1508
1489 10 1504 1509
1490 10 1504 1510
1491 8 1511 1512
1492 7 1512 1513
1493 11 1511 1514
1494 11 1511 1515
1495 12 1512 1516
1496 10 1513 1517
1497 10 1513 1518
1498 10 1513 1519
1499 8 1520 1521
1500 7 1521 1522
1501 11 1520 1523
1502 11 1520 1524
1503 12 1521 1525
1504 10 1522 1526
1505 10 1522 1527
1506 10 1522 1528
1507 8 1529 1530
1508 7 1530 1531
1509 11 1529 1532
1510 11 1529 1533
1511 12 1530 1534
1512 10 1531 1535
1513 10 1531 1536
1514 10 1531 1537
1515 8 1538 1539
1516 7 1539 1540
1517 11 1538 1541
1518 11 1538 1542
1519 12 1539 1543
1520 10 1540 1544
1521 10 1540 1545
1522 10 1540 1546
1523 8 1547 1548
1524 7 1548 1549
1525 11 1547 1550
1526 11 1547 1551
1527 12 1548 1552
1528 10 1549 1553
1529 10 1549 1554
1530 10 1549 1555
1531 8 1556 1557
1532 7 1557 1558
1533 11 1556 1559
1534 11 1556 1560
1535 12 1557 1561
1536 10 1558 1562
1537 10 1558 1563
1538 10 1558 1564
1539 8 1565 1566
1540 7 1566 1567
1541 11 1565 1568
1542 11 1565 1569
1543 12 1566 1570
1544 10 1567 1571
1545 10 1567 1572
1546 10 1567 1573
1547 8 1574 1575
1548 7 1575 1576
1549 11 1574 1577
1550 11 1574 1578
1551 12 1575 1579
1552 10 1576 1580
1553 10 1576 1581
1554 10 1576 1582
1555 8 1583 1584
1556 7 1584 1585
1557 11 1583 1586
1558 11 1583 1587
1559 12 1584 1588
1560 10 1585 1589
1561 10 1585 1590
1562 10 1585 1591
1563 8 1592 1593
1564 7 1593 1594
1565 11 1592 1595
1566 11 1592 1596
1567 12 1593 1597
1568 10 1594 1598
1569 10 1594 1599
1570 10 1594 1600
1571 8 1601 1602
1572 7 1602 1603
1573 11 1601 1604
1574 11 1601 1605
1575 12 1602 1606
1576 10 1603 1607
1577 10 1603 1608
1578 10 1603 1609
1579 8 1610 1611
1580 7 1611 1612
1581 11 1610 1613
1582 11 1610 1614
1583 12 1611 1615
1584 10 1612 1616
1585 10 1612 1617
1586 10 1612 1618
1587 8 1619 1620
1588 7 1620 1621
1589 11 1619 1622
1590 11 1619 1623
1591 12 1620 1624
1592 10 1621 1625
1593 10 1621 1626
1594 10 1621 1627
1595 8 1628 1629
1596 7 1629 1630
1597 11 1628 1631
1598 11 1628 1632
1599 12 1629 1633
1600 10 1630 1634
1601 10 1630 1635
1602 10 1630 1636
1603 8 1637 1638
1604 7 1638 1639
1605 11 1637 1640
1606 11 1637 1641
1607 12 1638 1642
1608 10 1639 1643
1609 10 1639 1644
1610 10 1639 1645
1611 8 1646 1647
1612 7 1647 1648
1613 11 1646 1649
1614 11 1646 1650
1615 12 1647 1651
1616 10 1648 1652
1617 10 1648 1653
1618 10 1648 1654
1619 8 1655 1656
1620 7 1656 1657
1621 11 1655 1658
1622 11 1655 1659
1623 12 1656 1660
1624 10 1657 1661
1625 10 1657 1662
1626 10 1657 1663
1627 8 1664 1665
1628 7 1665 1666
1629 11 1664 1667
1630 11 1664 1668
1631 12 1665 1669
1632 10 1666 1670
1633 10 1666 1671
1634 10 1666 1672
1635 8 1673 1674
1636 7 1674 1675
1637 11 1673 1676
1638 11 1673 1677
1639 12 1674 1678
1640 10 1675 1679
1641 10 1675 1680
1642 10 1675 1681
1643 8 1682 1683
1644 7 1683 1684
1645 11 1682 1685
1646 11 1682 1686
1647 12 1683 1687
1648 10 1684 1688
1649 10 1684 1689
1650 10 1684 1690
1651 8 1691 1692
1652 7 1692 1693
1653 11 1691 1694
1654 11 1691 1695
1655 12 1692 1696
1656 10 1693 1697
1657 10 1693 1698
1658 10 1693 1699
1659 8 1700 1701
1660 7 1701 1702
1661 11 1700 1703
1662 11 1700 1704
1663 12 1701 1705
1664 10 1702 1706
1665 10 1702 1707
1666 10 1702 1708
1667 8 1709 1710
1668 7 1710 1711
1669 11 1709 1712
1670 11 1709 1713
1671 12 1710 1714
1672 10 1711 1715
1673 10 1711 1716
1674 10 1711 1717
1675 8 1718 1719
1676 7 1719 1720
1677 11 1718 1721
1678 11 1718 1722
1679 12 1719 1723
1680 10 1720 1724
1681 10 1720 1725
1682 10 1720 1726
1683 8 1727 1728
1684 7 1728 1729
1685 11 1727 1730
1686 11 1727 1731
1687 12 1728 1732
1688 10 1729 1733
1689 10 1729 1734
1690 10 1729 1735
1691 8 1736 1737
1692 7 1737 1738
1693 11 1736 1739
1694 11 1736 1740
1695 12 1737 1741
1696 10 1738 1742
1697 10 1738 1743
1698 10 1738 1744
1699 8 1745 1746
1700 7 1746 1747
1701 11 1745 1748
1702 11 1745 1749
1703 12 1746 1750
1704 10 1747 1751
1705 10 1747 1752
1706 10 1747 1753
1707 8 1754 1755
1708 7 1755 1756
1709 11 1754 1757
1710 11 1754 1758
1711 12 1755 1759
1712 10 1756 1760
1713 10 1756 1761
1714 10 1756 1762
1715 8 1763 1764
1716 7 1764 1765
1717 11 1763 1766
1718 11 1763 1767
1719 12 1764 1768
1720 10 1765 1769
1721 10 1765 1770
1722 10 1765 1771
1723 8 1772 1773
1724 7 1773 1774
1725 11 1772 1775
1726 11 1772 1776
1727 12 1773 1777
1728 10 1774 1778
1729 10 1774 1779
1730 10 1774 1780
1731 8 1781 1782
1732 7 1782 1783
1733 11 1781 1784
1734 11 1781 1785
1735 12 1782 1786
1736 10 1783 1787
1737 10 1783 1788
1738 10 1783 1789
1739 8 1790 1791
1740 7 1791 1792
1741 11 1790 1793
1742 11 1790 1794
1743 12 1791 1795
1744 10 1792 1796
1745 10 1792 1797
1746 10 1792 1798
1747 5 1799 1800
1748 4 1800 1801
1749 11 1799 1802
1750 11 1799 1803
1751 11 1800 1804
1752 11 1800 1805
1753 10 1801 1806
1754 10 1801 1807
1755 10 1801 1808
1756 8 1358 1367
1757 8 1368 1376
1758 8 1377 1385
1759 8 1386 1394
1760 8 1395 1403
1761 8 1404 1412
1762 8 1413 1421
1763 8 1422 1430
1764 8 1431 1439
1765 8 1440 1448
1766 8 1449 1457
1767 8 1458 1466
1768 8 1467 1475
1769 8 1476 1484
1770 8 1485 1493
1771 8 1494 1502
1772 8 1503 1511
1773 8 1512 1520
1774 8 1521 1529
1775 8 1530 1538
1776 8 1539 1547
1777 8 1548 1556
1778 8 1557 1565
1779 8 1566 1574
1780 8 1575 1583
1781 8 1584 1592
1782 8 1593 1601
1783 8 1602 1610
1784 8 1611 1619
1785 8 1620 1628
1786 8 1629 1637
1787 8 1638 1646
1788 8 1647 1655
1789 8 1656 1664
1790 8 1665 1673
1791 8 1674 1682
1792 8 1683 1691
1793 8 1692 1700
1794 8 1701 1709
1795 8 1710 1718
1796 8 1719 1727
1797 8 1728 1736
1798 8 1737 1745
1799 8 1746 1754
1800 8 1755 1763
1801 8 1764 1772
1802 8 1773 1781
1803 8 1782 1790
1804 8 1791 1799
1805 7 1809 1810
1806 7 1810 1811
1807 10 1809 1812
1808 10 1809 1813
1809 10 1809 1814
1810 12 1810 1815
1811 10 1811 1816
1812 10 1811 1817
1813 10 1811 1818
1814 8 1819 1820
1815 7 1820 1821
1816 11 1819 1822
1817 11 1819 1823
1818 12 1820 1824
1819 10 1821 1825
1820 10 1821 1826
1821 10 1821 1827
1822 8 1828 1829
1823 7 1829 1830
1824 11 1828 1831
1825 11 1828 1832
1826 12 1829 1833
1827 10 1830 1834
1828 10 1830 1835
1829 10 1830 1836
1830 8 1837 1838
1831 7 1838 1839
1832 11 1837 1840
1833 11 1837 1841
1834 12 1838 1842
1835 10 1839 1843
1836 10 1839 1844
1837 10 1839 1845
1838 8 1846 1847
1839 7 1847 1848
1840 11 1846 1849
1841 11 1846 1850
1842 12 1847 1851
1843 10 1848 1852
1844 10 1848 1853
1845 10 1848 1854
1846 8 1855 1856
1847 7 1856 1857
1848 11 1855 1858
1849 11 1855 1859
1850 12 1856 1860
1851 10 1857 1861
1852 10 1857 1862
1853 10 1857 1863
1854 8 1864 1865
1855 7 1865 1866
1856 11 1864 1867
1857 11 1864 1868
1858 12 1865 1869
1859 10 1866 1870
1860 10 1866 1871
1861 10 1866 1872
1862 8 1873 1874
1863 7 1874 1875
1864 11 1873 1876
1865 11 1873 1877
1866 12 1874 1878
1867 10 1875 1879
1868 10 1875 1880
1869 10 1875 1881
1870 8 1882 1883
1871 7 1883 1884
1872 11 1882 1885
1873 11 1882 1886
1874 12 1883 1887
1875 10 1884 1888
1876 10 1884 1889
1877 10 1884 1890
1878 8 1891 1892
1879 7 1892 1893
1880 11 1891 1894
1881 11 1891 1895
1882 12 1892 1896
1883 10 1893 1897
1884 10 1893 1898
1885 10 1893 1899
1886 8 1900 1901
1887 7 1901 1902
1888 11 1900 1903
1889 11 1900 1904
1890 12 1901 1905
1891 10 1902 1906
1892 10 1902 1907
1893 10 1902 1908
1894 8 1909 1910
1895 7 1910 1911
1896 11 1909 1912
1897 11 1909 1913
1898 12 1910 1914
1899 10 1911 1915
1900 10 1911 1916
1901 10 1911 1917
1902 8 1918 1919
1903 7 1919 1920
1904 11 1918 1921
1905 11 1918 1922
1906 12 1919 1923
1907 10 1920 1924
1908 10 1920 1925
1909 10 1920 1926
1910 8 1927 1928
1911 7 1928 1929
1912 11 1927 1930
1913 11 1927 1931
1914 12 1928 1932
1915 10 1929 1933
1916 10 1929 1934
1917 10 1929 1935
1918 8 1936 1937
1919 7 1937 1938
1920 11 1936 1939
1921 11 1936 1940
1922 12 1937 1941
1923 10 1938 1942
1924 10 1938 1943
1925 10 1938 1944
1926 8 1945 1946
1927 7 1946 1947
1928 11 1945 1948
1929 11 1945 1949
1930 12 1946 1950
1931 10 1947 1951
1932 10 1947 1952
1933 10 1947 1953
1934 8 1954 1955
1935 7 1955 1956
1936 11 1954 1957
1937 11 1954 1958
1938 12 1955 1959
1939 10 1956 1960
1940 10 1956 1961
1941 10 1956 1962
1942 8 1963 1964
1943 7 1964 1965
1944 11 1963 1966
1945 11 1963 1967
1946 12 1964 1968
1947 10 1965 1969
1948 10 1965 1970
1949 10 1965 1971
1950 8 1972 1973
1951 7 1973 1974
1952 11 1972 1975
1953 11 1972 1976
1954 12 1973 1977
1955 10 1974 1978
1956 10 1974 1979
1957 10 1974 1980
1958 8 1981 1982
1959 7 1982 1983
1960 11 1981 1984
1961 11 1981 1985
1962 12 1982 1986
1963 10 1983 1987
1964 10 1983 1988
1965 10 1983 1989
1966 8 1990 1991
1967 7 1991 1992
1968 11 1990 1993
1969 11 1990 1994
1970 12 1991 1995
1971 10 1992 1996
1972 10 1992 1997
1973 10 1992 1998
1974 8 1999 2000
1975 7 2000 2001
1976 11 1999 2002
1977 11 1999 2003
1978 12 2000 2004
1979 10 2001 2005
1980 10 2001 2006
1981 10 2001 2007
1982 8 2008 2009
1983 7 2009 2010
1984 11 2008 2011
1985 11 2008 2012
1986 12 2009 2013
1987 10 2010 2014
1988 10 2010 2015
1989 10 2010 2016
1990 8 2017 2018
1991 7 2018 2019
1992 11 2017 2020
1993 11 2017 2021
1994 12 2018 2022
1995 10 2019 2023
1996 10 2019 2024
1997 10 2019 2025
1998 8 2026 2027
1999 7 2027 2028
2000 11 2026 2029
2001 11 2026 2030
2002 12 2027 2031
2003 10 2028 2032
2004 10 2028 2033
2005 10 2028 2034
2006 8 2035 2036
2007 7 2036 2037
2008 11 2035 2038
2009 11 2035 2039
2010 12 2036 2040
2011 10 2037 2041
2012 10 2037 2042
2013 10 2037 2043
2014 8 2044 2045
2015 7 2045 2046
2016 11 2044 2047
2017 11 2044 2048
2018 12 2045 2049
2019 10 2046 2050
2020 10 2046 2051
2021 10 2046 2052
2022 8 2053 2054
2023 7 2054 2055
2024 11 2053 2056
2025 11 2053 2057
2026 12 2054 2058
2027 10 2055 2059
2028 10 2055 2060
2029 10 2055 2061
2030 8 2062 2063
2031 7 2063 2064
2032 11 2062 2065
2033 11 2062 2066
2034 12 2063 2067
2035 10 2064 2068
2036 10 2064 2069
2037 10 2064 2070
2038 8 2071 2072
2039 7 2072 2073
2040 11 2071 2074
2041 11 2071 2075
2042 12 2072 2076
2043 10 2073 2077
2044 10 2073 2078
2045 10 2073 2079
2046 8 2080 2081
2047 7 2081 2082
2048 11 2080 2083
2049 11 2080 2084
2050 12 2081 2085
2051 10 2082 2086
2052 10 2082 2087
2053 10 2082 2088
2054 8 2089 2090
2055 7 2090 2091
2056 11 2089 2092
2057 11 2089 2093
2058 12 2090 2094
2059 10 2091 2095
2060 10 2091 2096
2061 10 2091 2097
2062 8 2098 2099
2063 7 2099 2100
2064 11 2098 2101
2065 11 2098 2102
2066 12 2099 2103
2067 10 2100 2104
2068 10 2100 2105
2069 10 2100 2106
2070 8 2107 2108
2071 7 2108 2109
2072 11 2107 2110
2073 11 2107 2111
2074 12 2108 2112
2075 10 2109 2113
2076 10 2109 2114
2077 10 2109 2115
2078 8 2116 2117
2079 7 2117 2118
2080 11 2116 2119
2081 11 2116 2120
2082 12 2117 2121
2083 10 2118 2122
2084 10 2118 2123
2085 10 2118 2124
2086 8 2125 2126
2087 7 2126 2127
2088 11 2125 2128
2089 11 2125 2129
2090 12 2126 2130
2091 10 2127 2131
2092 10 2127 2132
2093 10 2127 2133
2094 8 2134 2135
2095 7 2135 2136
2096 11 2134 2137
2097 11 2134 2138
2098 12 2135 2139
2099 10 2136 2140
2100 10 2136 2141
2101 10 2136 2142
2102 8 2143 2144
2103 7 2144 2145
2104 11 2143 2146
2105 11 2143 2147
2106 12 2144 2148
2107 10 2145 2149
2108 10 2145 2150
2109 10 2145 2151
2110 8 2152 2153
2111 7 2153 2154
2112 11 2152 2155
2113 11 2152 2156
2114 12 2153 2157
2115 10 2154 2158
2116 10 2154 2159
2117 10 2154 2160
2118 8 2161 2162
2119 7 2162 2163
2120 11 2161 2164
2121 11 2161 2165
2122 12 2162 2166
2123 10 2163 2167
2124 10 2163 2168
2125 10 2163 2169
2126 8 2170 2171
2127 7 2171 2172
2128 11 2170 2173
2129 11 2170 2174
2130 12 2171 2175
2131 10 2172 2176
2132 10 2172 2177
2133 10 2172 2178
2134 8 2179 2180
2135 7 2180 2181
2136 11 2179 2182
2137 11 2179 2183
2138 12 2180 2184
2139 10 2181 2185
2140 10 2181 2186
2141 10 2181 2187
2142 8 2188 2189
2143 7 2189 2190
2144 11 2188 2191
2145 11 2188 2192
2146 12 2189 2193
2147 10 2190 2194
2148 10 2190 2195
2149 10 2190 2196
2150 8 2197 2198
2151 7 2198 2199
2152 11 2197 2200
2153 11 2197 2201
2154 12 2198 2202
2155 10 2199 2203
2156 10 2199 2204
2157 10 2199 2205
2158 8 2206 2207
2159 7 2207 2208
2160 11 2206 2209
2161 11 2206 2210
2162 12 2207 2211
2163 10 2208 2212
2164 10 2208 2213
2165 10 2208 2214
2166 8 2215 2216
2167 7 2216 2217
2168 11 2215 2218
2169 11 2215 2219
2170 12 2216 2220
2171 10 2217 2221
2172 10 2217 2222
2173 10 2217 2223
2174 8 2224 2225
2175 7 2225 2226
2176 11 2224 2227
2177 11 2224 2228
2178 12 2225 2229
2179 10 2226 2230
2180 10 2226 2231
2181 10 2226 2232
2182 8 2233 2234
2183 7 2234 2235
2184 11 2233 2236
2185 11 2233 2237
2186 12 2234 2238
2187 10 2235 2239
2188 10 2235 2240
2189 10 2235 2241
2190 8 2242 2243
2191 7 2243 2244
2192 11 2242 2245
2193 11 2242 2246
2194 12 2243 2247
2195 10 2244 2248
2196 10 2244 2249
2197 10 2244 2250
2198 5 2251 2252
2199 4 2252 2253
2200 11 2251 2254
2201 11 2251 2255
2202 11 2252 2256
2203 11 2252 2257
2204 10 2253 2258
2205 10 2253 2259
2206 10 2253 2260
2207 8 1810 1819
2208 8 1820 1828
2209 8 1829 1837
2210 8 1838 1846
2211 8 1847 1855
2212 8 1856 1864
2213 8 1865 1873
2214 8 1874 1882
2215 8 1883 1891
2216 8 1892 1900
2217 8 1901 1909
2218 8 1910 1918
2219 8 1919 1927
2220 8 1928 1936
2221 8 1937 1945
2222 8 1946 1954
2223 8 1955 1963
2224 8 1964 1972
2225 8 1973 1981
2226 8 1982 1990
2227 8 1991 1999
2228 8 2000 2008
2229 8 2009 2017
2230 8 2018 2026
2231 8 2027 2035
2232 8 2036 2044
2233 8 2045 2053
2234 8 2054 2062
2235 8 2063 2071
2236 8 2072 2080
2237 8 2081 2089
2238 8 2090 2098
2239 8 2099 2107
2240 8 2108 2116
2241 8 2117 2125
2242 8 2126 2134
2243 8 2135 2143
2244 8 2144 2152
2245 8 2153 2161
2246 8 2162 2170
2247 8 2171 2179
2248 8 2180 2188
2249 8 2189 2197
2250 8 2198 2206
2251 8 2207 2215
2252 8 2216 2224
2253 8 2225 2233
2254 8 2234 2242
2255 8 2243 2251
2256 7 2261 2262
2257 7 2262 2263
2258 10 2261 2264
2259 10 2261 2265
2260 10 2261 2266
2261 12 2262 2267
2262 10 2263 2268
2263 10 2263 2269
2264 10 2263 2270
2265 8 2271 2272
2266 7 2272 2273
2267 11 2271 2274
2268 11 2271 2275
2269 12 2272 2276
2270 10 2273 2277
2271 10 2273 2278
2272 10 2273 2279
2273 8 2280 2281
2274 7 2281 2282
2275 11 2280 2283
2276 11 2280 2284
2277 12 2281 2285
2278 10 2282 2286
2279 10 2282 2287
2280 10 2282 2288
2281 8 2289 2290
2282 7 2290 2291
2283 11 2289 2292
2284 11 2289 2293
2285 12 2290 2294
2286 10 2291 2295
2287 10 2291 2296
2288 10 2291 2297
2289 8 2298 2299
2290 7 2299 2300
2291 11 2298 2301
2292 11 2298 2302
2293 12 2299 2303
2294 10 2300 2304
2295 10 2300 2305
2296 10 2300 2306
2297 8 2307 2308
2298 7 2308 2309
2299 11 2307 2310
2300 11 2307 2311
2301 12 2308 2312
2302 10 2309 2313
2303 10 2309 2314
2304 10 2309 2315
2305 8 2316 2317
2306 7 2317 2318
2307 11 2316 2319
2308 11 2316 2320
2309 12 2317 2321
2310 10 2318 2322
2311 10 2318 2323
2312 10 2318 2324
2313 8 2325 2326
2314 7 2326 2327
2315 11 2325 2328
2316 11 2325 2329
2317 12 2326 2330
2318 10 2327 2331
2319 10 2327 2332
2320 10 2327 2333
2321 8 2334 2335
2322 7 2335 2336
2323 11 2334 2337
2324 11 2334 2338
2325 12 2335 2339
2326 10 2336 2340
2327 10 2336 2341
2328 10 2336 2342
2329 8 2343 2344
2330 7 2344 2345
2331 11 2343 2346
2332 11 2343 2347
2333 12 2344 2348
2334 10 2345 2349
2335 10 2345 2350
2336 10 2345 2351
2337 8 2352 2353
2338 7 2353 2354
2339 11 2352 2355
2340 11 2352 2356
2341 12 2353 2357
2342 10 2354 2358
2343 10 2354 2359
2344 10 2354 2360
2345 8 2361 2362
2346 7 2362 2363
2347 11 2361 2364
2348 11 2361 2365
2349 12 2362 2366
2350 10 2363 2367
2351 10 2363 2368
2352 10 2363 2369
2353 8 2370 2371
2354 7 2371 2372
2355 11 2370 2373
2356 11 2370 2374
2357 12 2371 2375
2358 10 2372 2376
2359 10 2372 2377
2360 10 2372 2378
2361 8 2379 2380
2362 7 2380 2381
2363 11 2379 2382
2364 11 2379 2383
2365 12 2380 2384
2366 10 2381 2385
2367 10 2381 2386
2368 10 2381 2387
2369 8 2388 2389
2370 7 2389 2390
2371 11 2388 2391
2372 11 2388 2392
2373 12 2389 2393
2374 10 2390 2394
2375 10 2390 2395
2376 10 2390 2396
2377 8 2397 2398
2378 7 2398 2399
2379 11 2397 2400
2380 11 2397 2401
2381 12 2398 2402
2382 10 2399 2403
2383 10 2399 2404
2384 10 2399 2405
2385 8 2406 2407
2386 7 2407 2408
2387 11 2406 2409
2388 11 2406 2410
2389 12 2407 2411
2390 10 2408 2412
2391 10 2408 2413
2392 10 2408 2414
2393 8 2415 2416
2394 7 2416 2417
2395 11 2415 2418
2396 11 2415 2419
2397 12 2416 2420
2398 10 2417 2421
2399 10 2417 2422
2400 10 2417 2423
2401 8 2424 2425
2402 7 2425 2426
2403 11 2424 2427
2404 11 2424 2428
2405 12 2425 2429
2406 10 2426 2430
2407 10 2426 2431
2408 10 2426 2432
2409 8 2433 2434
2410 7 2434 2435
2411 11 2433 2436
2412 11 2433 2437
2413 12 2434 2438
2414 10 2435 2439
2415 10 2435 2440
2416 10 2435 2441
2417 8 2442 2443
2418 7 2443 2444
2419 11 2442 2445
2420 11 2442 2446
2421 12 2443 2447
2422 10 2444 2448
2423 10 2444 2449
2424 10 2444 2450
2425 8 2451 2452
2426 7 2452 2453
2427 11 2451 2454
2428 11 2451 2455
2429 12 2452 2456
2430 10 2453 2457
2431 10 2453 2458
2432 10 2453 2459
2433 8 2460 2461
2434 7 2461 2462
2435 11 2460 2463
2436 11 2460 2464
2437 12 2461 2465
2438 10 2462 2466
2439 10 2462 2467
2440 10 2462 2468
2441 8 2469 2470
2442 7 2470 2471
2443 11 2469 2472
2444 11 2469 2473
2445 12 2470 2474
2446 10 2471 2475
2447 10 2471 2476
2448 10 2471 2477
2449 8 2478 2479
2450 7 2479 2480
2451 11 2478 2481
2452 11 2478 2482
2453 12 2479 2483
2454 10 2480 2484
2455 10 2480 2485
2456 10 2480 2486
2457 8 2487 2488
2458 7 2488 2489
2459 11 2487 2490
2460 11 2487 2491
2461 12 2488 2492
2462 10 2489 2493
2463 10 2489 2494
2464 10 2489 2495
2465 8 2496 2497
2466 7 2497 2498
2467 11 2496 2499
2468 11 2496 2500
2469 12 2497 2501
2470 10 2498 2502
2471 10 2498 2503
2472 10 2498 2504
2473 8 2505 2506
2474 7 2506 2507
2475 11 2505 2508
2476 11 2505 2509
2477 12 2506 2510
2478 10 2507 2511
2479 10 2507 2512
2480 10 2507 2513
2481 8 2514 2515
2482 7 2515 2516
2483 11 2514 2517
2484 11 2514 2518
2485 12 2515 2519
2486 10 2516 2520
2487 10 2516 2521
2488 10 2516 2522
2489 8 2523 2524
2490 7 2524 2525
2491 11 2523 2526
2492 11 2523 2527
2493 12 2524 2528
2494 10 2525 2529
2495 10 2525 2530
2496 10 2525 2531
2497 8 2532 2533
2498 7 2533 2534
2499 11 2532 2535
2500 11 2532 2536
2501 12 2533 2537
2502 10 2534 2538
2503 10 2534 2539
2504 10 2534 2540
2505 8 2541 2542
2506 7 2542 2543
2507 11 2541 2544
2508 11 2541 2545
2509 12 2542 2546
2510 10 2543 2547
2511 10 2543 2548
2512 10 2543 2549
2513 8 2550 2551
2514 7 2551 2552
2515 11 2550 2553
2516 11 2550 2554
2517 12 2551 2555
2518 10 2552 2556
2519 10 2552 2557
2520 10 2552 2558
2521 8 2559 2560
2522 7 2560 2561
2523 11 2559 2562
2524 11 2559 2563
2525 12 2560 2564
2526 10 2561 2565
2527 10 2561 2566
2528 10 2561 2567
2529 8 2568 2569
2530 7 2569 2570
2531 11 2568 2571
2532 11 2568 2572
2533 12 2569 2573
2534 10 2570 2574
2535 10 2570 2575
2536 10 2570 2576
2537 8 2577 2578
2538 7 2578 2579
2539 11 2577 2580
2540 11 2577 2581
2541 12 2578 2582
2542 10 2579 2583
2543 10 2579 2584
2544 10 2579 2585
2545 8 2586 2587
2546 7 2587 2588
2547 11 2586 2589
2548 11 2586 2590
2549 12 2587 2591
2550 10 2588 2592
2551 10 2588 2593
2552 10 2588 2594
2553 8 2595 2596
2554 7 2596 2597
2555 11 2595 2598
2556 11 2595 2599
2557 12 2596 2600
2558 10 2597 2601
2559 10 2597 2602
2560 10 2597 2603
2561 8 2604 2605
2562 7 2605 2606
2563 11 2604 2607
2564 11 2604 2608
2565 12 2605 2609
2566 10 2606 2610
2567 10 2606 2611
2568 10 2606 2612
2569 8 2613 2614
2570 7 2614 2615
2571 11 2613 2616
2572 11 2613 2617
2573 12 2614 2618
2574 10 2615 2619
2575 10 2615 2620
2576 10 2615 2621
2577 8 2622 2623
2578 7 2623 2624
2579 11 2622 2625
2580 11 2622 2626
2581 12 2623 2627
2582 10 2624 2628
2583 10 2624 2629
2584 10 2624 2630
2585 8 2631 2632
2586 7 2632 2633
2587 11 2631 2634
2588 11 2631 2635
2589 12 2632 2636
2590 10 2633 2637
2591 10 2633 2638
2592 10 2633 2639
2593 8 2640 2641
2594 7 2641 2642
2595 11 2640 2643
2596 11 2640 2644
2597 12 2641 2645
2598 10 2642 2646
2599 10 2642 2647
2600 10 2642 2648
2601 8 2649 2650
2602 7 2650 2651
2603 11 2649 2652
2604 11 2649 2653
2605 12 2650 2654
2606 10 2651 2655
2607 10 2651 2656
2608 10 2651 2657
2609 8 2658 2659
2610 7 2659 2660
2611 11 2658 2661
2612 11 2658 2662
2613 12 2659 2663
2614 10 2660 2664
2615 10 2660 2665
2616 10 2660 2666
2617 8 2667 2668
2618 7 2668 2669
2619 11 2667 2670
2620 11 2667 2671
2621 12 2668 2672
2622 10 2669 2673
2623 10 2669 2674
2624 10 2669 2675
2625 8 2676 2677
2626 7 2677 2678
2627 11 2676 2679
2628 11 2676 2680
2629 12 2677 2681
2630 10 2678 2682
2631 10 2678 2683
2632 10 2678 2684
2633 8 2685 2686
2634 7 2686 2687
2635 11 2685 2688
2636 11 2685 2689
2637 12 2686 2690
2638 10 2687 2691
2639 10 2687 2692
2640 10 2687 2693
2641 8 2694 2695
2642 7 2695 2696
2643 11 2694 2697
2644 11 2694 2698
2645 12 2695 2699
2646 10 2696 2700
2647 10 2696 2701
2648 10 2696 2702
2649 5 2703 2704
2650 4 2704 2705
2651 11 2703 2706
2652 11 2703 2707
2653 11 2704 2708
2654 11 2704 2709
2655 10 2705 2710
2656 10 2705 2711
2657 10 2705 2712
2658 8 2262 2271
2659 8 2272 2280
2660 8 2281 2289
2661 8 2290 2298
2662 8 2299 2307
2663 8 2308 2316
2664 8 2317 2325
2665 8 2326 2334
2666 8 2335 2343
2667 8 2344 2352
2668 8 2353 2361
2669 8 2362 2370
2670 8 2371 2379
2671 8 2380 2388
2672 8 2389 2397
2673 8 2398 2406
2674 8 2407 2415
2675 8 2416 2424
2676 8 2425 2433
2677 8 2434 2442
2678 8 2443 2451
2679 8 2452 2460
2680 8 2461 2469
2681 8 2470 2478
2682 8 2479 2487
2683 8 2488 2496
2684 8 2497 2505
2685 8 2506 2514
2686 8 2515 2523
2687 8 2524 2532
2688 8 2533 2541
2689 8 2542 2550
2690 8 2551 2559
2691 8 2560 2568
2692 8 2569 2577
2693 8 2578 2586
2694 8 2587 2595
2695 8 2596 2604
2696 8 2605 2613
2697 8 2614 2622
2698 8 2623 2631
2699 8 2632 2640
2700 8 2641 2649
2701 8 2650 2658
2702 8 2659 2667
2703 8 2668 2676
2704 8 2677 2685
2705 8 2686 2694
2706 8 2695 2703
2707 7 2713 2714
2708 7 2714 2715
2709 10 2713 2716
2710 10 2713 2717
2711 10 2713 2718
2712 12 2714 2719
2713 10 2715 2720
2714 10 2715 2721
2715 10 2715 2722
2716 8 2723 2724
2717 7 2724 2725
2718 11 2723 2726
2719 11 2723 2727
2720 12 2724 2728
2721 10 2725 2729
2722 10 2725 2730
2723 10 2725 2731
2724 8 2732 2733
2725 7 2733 2734
2726 11 2732 2735
2727 11 2732 2736
2728 12 2733 2737
2729 10 2734 2738
2730 10 2734 2739
2731 10 2734 2740
2732 8 2741 2742
2733 7 2742 2743
2734 11 2741 2744
2735 11 2741 2745
2736 12 2742 2746
2737 10 2743 2747
2738 10 2743 2748
2739 10 2743 2749
2740 8 2750 2751
2741 7 2751 2752
2742 11 2750 2753
2743 11 2750 2754
2744 12 2751 2755
2745 10 2752 2756
2746 10 2752 2757
2747 10 2752 2758
2748 8 2759 2760
2749 7 2760 2761
2750 11 2759 2762
2751 11 2759 2763
2752 12 2760 2764
2753 10 2761 2765
2754 10 2761 2766
2755 10 2761 2767
2756 8 2768 2769
2757 7 2769 2770
2758 11 2768 2771
2759 11 2768 2772
2760 12 2769 2773
2761 10 2770 2774
2762 10 2770 2775
2763 10 2770 2776
2764 8 2777 2778
2765 7 2778 2779
2766 11 2777 2780
2767 11 2777 2781
2768 12 2778 2782
2769 10 2779 2783
2770 10 2779 2784
2771 10 2779 2785
2772 8 2786 2787
2773 7 2787 2788
2774 11 2786 2789
2775 11 2786 2790
2776 12 2787 2791
2777 10 2788 2792
2778 10 2788 2793
2779 10 2788 2794
2780 8 2795 2796
2781 7 2796 2797
2782 11 2795 2798
2783 11 2795 2799
2784 12 2796 2800
2785 10 2797 2801
2786 10 2797 2802
2787 10 2797 2803
2788 8 2804 2805
2789 7 2805 2806
2790 11 2804 2807
2791 11 2804 2808
2792 12 2805 2809
2793 10 2806 2810
2794 10 2806 2811
2795 10 2806 2812
2796 8 2813 2814
2797 7 2814 2815
2798 11 2813 2816
2799 11 2813 2817
2800 12 2814 2818
2801 10 2815 2819
2802 10 2815 2820
2803 10 2815 2821
2804 8 2822 2823
2805 7 2823 2824
2806 11 2822 2825
2807 11 2822 2826
2808 12 2823 2827
2809 10 2824 2828
2810 10 2824 2829
2811 10 2824 2830
2812 8 2831 2832
2813 7 2832 2833
2814 11 2831 2834
2815 11 2831 2835
2816 12 2832 2836
2817 10 2833 2837
2818 10 2833 2838
2819 10 2833 2839
2820 8 2840 2841
2821 7 2841 2842
2822 11 2840 2843
2823 11 2840 2844
2824 12 2841 2845
2825 10 2842 2846
2826 10 2842 2847
2827 10 2842 2848
2828 8 2849 2850
2829 7 2850 2851
2830 11 2849 2852
2831 11 2849 2853
2832 12 2850 2854
2833 10 2851 2855
2834 10 2851 2856
2835 10 2851 2857
2836 8 2858 2859
2837 7 2859 2860
2838 11 2858 2861
2839 11 2858 2862
2840 12 2859 2863
2841 10 2860 2864
2842 10 2860 2865
2843 10 2860 2866
2844 8 2867 2868
2845 7 2868 2869
2846 11 2867 2870
2847 11 2867 2871
2848 12 2868 2872
2849 10 2869 2873
2850 10 2869 2874
2851 10 2869 2875
2852 8 2876 2877
2853 7 2877 2878
2854 11 2876 2879
2855 11 2876 2880
2856 12 2877 2881
2857 10 2878 2882
2858 10 2878 2883
2859 10 2878 2884
2860 8 2885 2886
2861 7 2886 2887
2862 11 2885 2888
2863 11 2885 2889
2864 12 2886 2890
2865 10 2887 2891
2866 10 2887 2892
2867 10 2887 2893
2868 8 2894 2895
2869 7 2895 2896
2870 11 2894 2897
2871 11 2894 2898
2872 12 2895 2899
2873 10 2896 2900
2874 10 2896 2901
2875 10 2896 2902
2876 8 2903 2904
2877 7 2904 2905
2878 11 2903 2906
2879 11 2903 2907
2880 12 2904 2908
2881 10 2905 2909
2882 10 2905 2910
2883 10 2905 2911
2884 8 2912 2913
2885 7 2913 2914
2886 11 2912 2915
2887 11 2912 2916
2888 12 2913 2917
2889 10 2914 2918
2890 10 2914 2919
2891 10 2914 2920
2892 8 2921 2922
2893 7 2922 2923
2894 11 2921 2924
2895 11 2921 2925
2896 12 2922 2926
2897 10 2923 2927
2898 10 2923 2928
2899 10 2923 2929
2900 8 2930 2931
2901 7 2931 2932
2902 11 2930 2933
2903 11 2930 2934
2904 12 2931 2935
2905 10 2932 2936
2906 10 2932 2937
2907 10 2932 2938
2908 8 2939 2940
2909 7 2940 2941
2910 11 2939 2942
2911 11 2939 2943
2912 12 2940 2944
2913 10 2941 2945
2914 10 2941 2946
2915 10 2941 2947
2916 8 2948 2949
2917 7 2949 2950
2918 11 2948 2951
2919 11 2948 2952
2920 12 2949 2953
2921 10 2950 2954
2922 10 2950 2955
2923 10 2950 2956
2924 8 2957 2958
2925 7 2958 2959
2926 11 2957 2960
2927 11 2957 2961
2928 12 2958 2962
2929 10 2959 2963
2930 10 2959 2964
2931 10 2959 2965
2932 8 2966 2967
2933 7 2967 2968
2934 11 2966 2969
2935 11 2966 2970
2936 12 2967 2971
2937 10 2968 2972
2938 10 2968 2973
2939 10 2968 2974
2940 8 2975 2976
2941 7 2976 2977
2942 11 2975 2978
2943 11 2975 2979
2944 12 2976 2980
2945 10 2977 2981
2946 10 2977 2982
2947 10 2977 2983
2948 8 2984 2985
2949 7 2985 2986
2950 11 2984 2987
2951 11 2984 2988
2952 12 2985 2989
2953 10 2986 2990
2954 10 2986 2991
2955 10 2986 2992
2956 8 2993 2994
2957 7 2994 2995
2958 11 2993 2996
2959 11 2993 2997
2960 12 2994 2998
2961 10 2995 2999
2962 10 2995 3000
2963 10 2995 3001
2964 8 3002 3003
2965 7 3003 3004
2966 11 3002 3005
2967 11 3002 3006
2968 12 3003 3007
2969 10 3004 3008
2970 10 3004 3009
2971 10 3004 3010
2972 8 3011 3012
2973 7 3012 3013
2974 11 3011 3014
2975 11 3011 3015
2976 12 3012 3016
2977 10 3013 3017
2978 10 3013 3018
2979 10 3013 3019
2980 8 3020 3021
2981 7 3021 3022
2982 11 3020 3023
2983 11 3020 3024
2984 12 3021 3025
2985 10 3022 3026
2986 10 3022 3027
2987 10 3022 3028
2988 8 3029 3030
2989 7 3030 3031
2990 11 3029 3032
2991 11 3029 3033
2992 12 3030 3034
2993 10 3031 3035
2994 10 3031 3036
2995 10 3031 3037
2996 8 3038 3039
2997 7 3039 3040
2998 11 3038 3041
2999 11 3038 3042
3000 12 3039 3043
3001 10 3040 3044
3002 10 3040 3045
3003 10 3040 3046
3004 8 3047 3048
3005 7 3048 3049
3006 11 3047 3050
3007 11 3047 3051
3008 12 3048 3052
3009 10 3049 3053
3010 10 3049 3054
3011 10 3049 3055
3012 8 3056 3057
3013 7 3057 3058
3014 11 3056 3059
3015 11 3056 3060
3016 12 3057 3061
3017 10 3058 3062
3018 10 3058 3063
3019 10 3058 3064
3020 8 3065 3066
3021 7 3066 3067
3022 11 3065 3068
3023 11 3065 3069
3024 12 3066 3070
3025 10 3067 3071
3026 10 3067 3072
3027 10 3067 3073
3028 8 3074 3075
3029 7 3075 3076
3030 11 3074 3077
3031 11 3074 3078
3032 12 3075 3079
3033 10 3076 3080
3034 10 3076 3081
3035 10 3076 3082
3036 8 3083 3084
3037 7 3084 3085
3038 11 3083 3086
3039 11 3083 3087
3040 12 3084 3088
3041 10 3085 3089
3042 10 3085 3090
3043 10 3085 3091
3044 8 3092 3093
3045 7 3093 3094
3046 11 3092 3095
3047 11 3092 3096
3048 12 3093 3097
3049 10 3094 3098
3050 10 3094 3099
3051 10 3094 3100
3052 8 3101 3102
3053 7 3102 3103
3054 11 3101 3104
3055 11 3101 3105
3056 12 3102 3106
3057 10 3103 3107
3058 10 3103 3108
3059 10 3103 3109
3060 8 3110 3111
3061 7 3111 3112
3062 11 3110 3113
3063 11 3110 3114
3064 12 3111 3115
3065 10 3112 3116
3066 10 3112 3117
3067 10 3112 3118
3068 8 3119 3120
3069 7 3120 3121
3070 11 3119 3122
3071 11 3119 3123
3072 12 3120 3124
3073 10 3121 3125
3074 10 3121 3126
3075 10 3121 3127
3076 8 3128 3129
3077 7 3129 3130
3078 11 3128 3131
3079 11 3128 3132
3080 12 3129 3133
3081 10 3130 3134
3082 10 3130 3135
3083 10 3130 3136
3084 8 3137 3138
3085 7 3138 3139
3086 11 3137 3140
3087 11 3137 3141
3088 12 3138 3142
3089 10 3139 3143
3090 10 3139 3144
3091 10 3139 3145
3092 8 3146 3147
3093 7 3147 3148
3094 11 3146 3149
3095 11 3146 3150
3096 12 3147 3151
3097 10 3148 3152
3098 10 3148 3153
3099 10 3148 3154
3100 5 3155 3156
3101 4 3156 3157
3102 11 3155 3158
3103 11 3155 3159
3104 11 3156 3160
3105 11 3156 3161
3106 10 3157 3162
3107 10 3157 3163
3108 10 3157 3164
3109 8 2714 2723
3110 8 2724 2732
3111 8 2733 2741
3112 8 2742 2750
3113 8 2751 2759
3114 8 2760 2768
3115 8 2769 2777
3116 8 2778 2786
3117 8 2787 2795
3118 8 2796 2804
3119 8 2805 2813
3120 8 2814 2822
3121 8 2823 2831
3122 8 2832 2840
3123 8 2841 2849
3124 8 2850 2858
3125 8 2859 2867
3126 8 2868 2876
3127 8 2877 2885
3128 8 2886 2894
3129 8 2895 2903
3130 8 2904 2912
3131 8 2913 2921
3132 8 2922 2930
3133 8 2931 2939
3134 8 2940 2948
3135 8 2949 2957
3136 8 2958 2966
3137 8 2967 2975
3138 8 2976 2984
3139 8 2985 2993
3140 8 2994 3002
3141 8 3003 3011
3142 8 3012 3020
3143 8 3021 3029
3144 8 3030 3038
3145 8 3039 3047
3146 8 3048 3056
3147 8 3057 3065
3148 8 3066 3074
3149 8 3075 3083
3150 8 3084 3092
3151 8 3093 3101
3152 8 3102 3110
3153 8 3111 3119
3154 8 3120 3128
3155 8 3129 3137
3156 8 3138 3146
3157 8 3147 3155
3158 7 3165 3166
3159 7 3166 3167
3160 10 3165 3168
3161 10 3165 3169
3162 10 3165 3170
3163 12 3166 3171
3164 10 3167 3172
3165 10 3167 3173
3166 10 3167 3174
3167 8 3175 3176
3168 7 3176 3177
3169 11 3175 3178
3170 11 3175 3179
3171 12 3176 3180
3172 10 3177 3181
3173 10 3177 3182
3174 10 3177 3183
3175 8 3184 3185
3176 7 3185 3186
3177 11 3184 3187
3178 11 3184 3188
3179 12 3185 3189
3180 10 3186 3190
3181 10 3186 3191
3182 10 3186 3192
3183 8 3193 3194
3184 7 3194 3195
3185 11 3193 3196
3186 11 3193 3197
3187 12 3194 3198
3188 10 3195 3199
3189 10 3195 3200
3190 10 3195 3201
3191 8 3202 3203
3192 7 3203 3204
3193 11 3202 3205
3194 11 3202 3206
3195 12 3203 3207
3196 10 3204 3208
3197 10 3204 3209
3198 10 3204 3210
3199 8 3211 3212
3200 7 3212 3213
3201 11 3211 3214
3202 11 3211 3215
3203 12 3212 3216
3204 10 3213 3217
3205 10 3213 3218
3206 10 3213 3219
3207 8 3220 3221
3208 7 3221 3222
3209 11 3220 3223
3210 11 3220 3224
3211 12 3221 3225
3212 10 3222 3226
3213 10 3222 3227
3214 10 3222 3228
3215 8 3229 3230
3216 7 3230 3231
3217 11 3229 3232
3218 11 3229 3233
3219 12 3230 3234
3220 10 3231 3235
3221 10 3231 3236
3222 10 3231 3237
3223 8 3238 3239
3224 7 3239 3240
3225 11 3238 3241
3226 11 3238 3242
3227 12 3239 3243
3228 10 3240 3244
3229 10 3240 3245
3230 10 3240 3246
3231 8 3247 3248
3232 7 3248 3249
3233 11 3247 3250
3234 11 3247 3251
3235 12 3248 3252
3236 10 3249 3253
3237 10 3249 3254
3238 10 3249 3255
3239 8 3256 3257
3240 7 3257 3258
3241 11 3256 3259
3242 11 3256 3260
3243 12 3257 3261
3244 10 3258 3262
3245 10 3258 3263
3246 10 3258 3264
3247 8 3265 3266
3248 7 3266 3267
3249 11 3265 3268
3250 11 3265 3269
3251 12 3266 3270
3252 10 3267 3271
3253 10 3267 3272
3254 10 3267 3273
3255 8 3274 3275
3256 7 3275 3276
3257 11 3274 3277
3258 11 3274 3278
3259 12 3275 3279
3260 10 3276 3280
3261 10 3276 3281
3262 10 3276 3282
3263 8 3283 3284
3264 7 3284 3285
3265 11 3283 3286
3266 11 3283 3287
3267 12 3284 3288
3268 10 3285 3289
3269 10 3285 3290
3270 10 3285 3291
3271 8 3292 3293
3272 7 3293 3294
3273 11 3292 3295
3274 11 3292 3296
3275 12 3293 3297
3276 10 3294 3298
3277 10 3294 3299
3278 10 3294 3300
3279 8 3301 3302
3280 7 3302 3303
3281 11 3301 3304
3282 11 3301 3305
3283 12 3302 3306
3284 10 3303 3307
3285 10 3303 3308
3286 10 3303 3309
3287 8 3310 3311
3288 7 3311 3312
3289 11 3310 3313
3290 11 3310 3314
3291 12 3311 3315
3292 10 3312 3316
3293 10 3312 3317
3294 10 3312 3318
3295 8 3319 3320
3296 7 3320 3321
3297 11 3319 3322
3298 11 3319 3323
3299 12 3320 3324
3300 10 3321 3325
3301 10 3321 3326
3302 10 3321 3327
3303 8 3328 3329
3304 7 3329 3330
3305 11 3328 3331
3306 11 3328 3332
3307 12 3329 3333
3308 10 3330 3334
3309 10 3330 3335
3310 10 3330 3336
3311 8 3337 3338
3312 7 3338 3339
3313 11 3337 3340
3314 11 3337 3341
3315 12 3338 3342
3316 10 3339 3343
3317 10 3339 3344
3318 10 3339 3345
3319 8 3346 3347
3320 7 3347 3348
3321 11 3346 3349
3322 11 3346 3350
3323 12 3347 3351
3324 10 3348 3352
3325 10 3348 3353
3326 10 3348 3354
3327 8 3355 3356
3328 7 3356 3357
3329 11 3355 3358
3330 11 3355 3359
3331 12 3356 3360
3332 10 3357 3361
3333 10 3357 3362
3334 10 3357 3363
3335 8 3364 3365
3336 7 3365 3366
3337 11 3364 3367
3338 11 3364 3368
3339 12 3365 3369
3340 10 3366 3370
3341 10 3366 3371
3342 10 3366 3372
3343 8 3373 3374
3344 7 3374 3375
3345 11 3373 3376
3346 11 3373 3377
3347 12 3374 3378
3348 10 3375 3379
3349 10 3375 3380
3350 10 3375 3381
3351 8 3382 3383
3352 7 3383 3384
3353 11 3382 3385
3354 11 3382 3386
3355 12 3383 3387
3356 10 3384 3388
3357 10 3384 3389
3358 10 3384 3390
3359 8 3391 3392
3360 7 3392 3393
3361 11 3391 3394
3362 11 3391 3395
3363 12 3392 3396
3364 10 3393 3397
3365 10 3393 3398
3366 10 3393 3399
3367 8 3400 3401
3368 7 3401 3402
3369 11 3400 3403
3370 11 3400 3404
3371 12 3401 3405
3372 10 3402 3406
3373 10 3402 3407
3374 10 3402 3408
3375 8 3409 3410
3376 7 3410 3411
3377 11 3409 3412
3378 11 3409 3413
3379 12 3410 3414
3380 10 3411 3415
3381 10 3411 3416
3382 10 3411 3417
3383 8 3418 3419
3384 7 3419 3420
3385 11 3418 3421
3386 11 3418 3422
3387 12 3419 3423
3388 10 3420 3424
3389 10 3420 3425
3390 10 3420 3426
3391 8 3427 3428
3392 7 3428 3429
3393 11 3427 3430
3394 11 3427 3431
3395 12 3428 3432
3396 10 3429 3433
3397 10 3429 3434
3398 10 3429 3435
3399 8 3436 3437
3400 7 3437 3438
3401 11 3436 3439
3402 11 3436 3440
3403 12 3437 3441
3404 10 3438 3442
3405 10 3438 3443
3406 10 3438 3444
3407 8 3445 3446
3408 7 3446 3447
3409 11 3445 3448
3410 11 3445 3449
3411 12 3446 3450
3412 10 3447 3451
3413 10 3447 3452
3414 10 3447 3453
3415 8 3454 3455
3416 7 3455 3456
3417 11 3454 3457
3418 11 3454 3458
3419 12 3455 3459
3420 10 3456 3460
3421 10 3456 3461
3422 10 3456 3462
3423 8 3463 3464
3424 7 3464 3465
3425 11 3463 3466
3426 11 3463 3467
3427 12 3464 3468
3428 10 3465 3469
3429 10 3465 3470
3430 10 3465 3471
3431 8 3472 3473
3432 7 3473 3474
3433 11 3472 3475
3434 11 3472 3476
3435 12 3473 3477
3436 10 3474 3478
3437 10 3474 3479
3438 10 3474 3480
3439 8 3481 3482
3440 7 3482 3483
3441 11 3481 3484
3442 11 3481 3485
3443 12 3482 3486
3444 10 3483 3487
3445 10 3483 3488
3446 10 3483 3489
3447 8 3490 3491
3448 7 3491 3492
3449 11 3490 3493
3450 11 3490 3494
3451 12 3491 3495
3452 10 3492 3496
3453 10 3492 3497
3454 10 3492 3498
3455 8 3499 3500
3456 7 3500 3501
3457 11 3499 3502
3458 11 3499 3503
3459 12 3500 3504
3460 10 3501 3505
3461 10 3501 3506
3462 10 3501 3507
3463 8 3508 3509
3464 7 3509 3510
3465 11 3508 3511
3466 11 3508 3512
3467 12 3509 3513
3468 10 3510 3514
3469 10 3510 3515
3470 10 3510 3516
3471 8 3517 3518
3472 7 3518 3519
3473 11 3517 3520
3474 11 3517 3521
3475 12 3518 3522
3476 10 3519 3523
3477 10 3519 3524
3478 10 3519 3525
3479 8 3526 3527
3480 7 3527 3528
3481 11 3526 3529
3482 11 3526 3530
3483 12 3527 3531
3484 10 3528 3532
3485 10 3528 3533
3486 10 3528 3534
3487 8 3535 3536
3488 7 3536 3537
3489 11 3535 3538
3490 11 3535 3539
3491 12 3536 3540
3492 10 3537 3541
3493 10 3537 3542
3494 10 3537 3543
3495 8 3544 3545
3496 7 3545 3546
3497 11 3544 3547
3498 11 3544 3548
3499 12 3545 3549
3500 10 3546 3550
3501 10 3546 3551
3502 10 3546 3552
3503 8 3553 3554
3504 7 3554 3555
3505 11 3553 3556
3506 11 3553 3557
3507 12 3554 3558
3508 10 3555 3559
3509 10 3555 3560
3510 10 3555 3561
3511 8 3562 3563
3512 7 3563 3564
3513 11 3562 3565
3514 11 3562 3566
3515 12 3563 3567
3516 10 3564 3568
3517 10 3564 3569
3518 10 3564 3570
3519 8 3571 3572
3520 7 3572 3573
3521 11 3571 3574
3522 11 3571 3575
3523 12 3572 3576
3524 10 3573 3577
3525 10 3573 3578
3526 10 3573 3579
3527 8 3580 3581
3528 7 3581 3582
3529 11 3580 3583
3530 11 3580 3584
3531 12 3581 3585
3532 10 3582 3586
3533 10 3582 3587
3534 10 3582 3588
3535 8 3589 3590
3536 7 3590 3591
3537 11 3589 3592
3538 11 3589 3593
3539 12 3590 3594
3540 10 3591 3595
3541 10 3591 3596
3542 10 3591 3597
3543 8 3598 3599
3544 7 3599 3600
3545 11 3598 3601
3546 11 3598 3602
3547 12 3599 3603
3548 10 3600 3604
3549 10 3600 3605
3550 10 3600 3606
3551 5 3607 3608
3552 4 3608 3609
3553 11 3607 3610
3554 11 3607 3611
3555 11 3608 3612
3556 11 3608 3613
3557 10 3609 3614
3558 10 3609 3615
3559 10 3609 3616
3560 8 3166 3175
3561 8 3176 3184
3562 8 3185 3193
3563 8 3194 3202
3564 8 3203 3211
3565 8 3212 3220
3566 8 3221 3229
3567 8 3230 3238
3568 8 3239 3247
3569 8 3248 3256
3570 8 3257 3265
3571 8 3266 3274
3572 8 3275 3283
3573 8 3284 3292
3574 8 3293 3301
3575 8 3302 3310
3576 8 3311 3319
3577 8 3320 3328
3578 8 3329 3337
3579 8 3338 3346
3580 8 3347 3355
3581 8 3356 3364
3582 8 3365 3373
3583 8 3374 3382
3584 8 3383 3391
3585 8 3392 3400
3586 8 3401 3409
3587 8 3410 3418
3588 8 3419 3427
3589 8 3428 3436
3590 8 3437 3445
3591 8 3446 3454
3592 8 3455 3463
3593 8 3464 3472
3594 8 3473 3481
3595 8 3482 3490
3596 8 3491 3499
3597 8 3500 3508
3598 8 3509 3517
3599 8 3518 3526
3600 8 3527 3535
3601 8 3536 3544
3602 8 3545 3553
3603 8 3554 3562
3604 8 3563 3571
3605 8 3572 3580
3606 8 3581 3589
3607 8 3590 3598
3608 8 3599 3607
3609 7 3617 3618
3610 7 3618 3619
3611 10 3617 3620
3612 10 3617 3621
3613 10 3617 3622
3614 12 3618 3623
3615 10 3619 3624
3616 10 3619 3625
3617 10 3619 3626
3618 8 3627 3628
3619 7 3628 3629
3620 11 3627 3630
3621 11 3627 3631
3622 12 3628 3632
3623 10 3629 3633
3624 10 3629 3634
3625 10 3629 3635
3626 8 3636 3637
3627 7 3637 3638
3628 11 3636 3639
3629 11 3636 3640
3630 12 3637 3641
3631 10 3638 3642
3632 10 3638 3643
3633 10 3638 3644
3634 8 3645 3646
3635 7 3646 3647
3636 11 3645 3648
3637 11 3645 3649
3638 12 3646 3650
3639 10 3647 3651
3640 10 3647 3652
3641 10 3647 3653
3642 8 3654 3655
3643 7 3655 3656
3644 11 3654 3657
3645 11 3654 3658
3646 12 3655 3659
3647 10 3656 3660
3648 10 3656 3661
3649 10 3656 3662
3650 8 3663 3664
3651 7 3664 3665
3652 11 3663 3666
3653 11 3663 3667
3654 12 3664 3668
3655 10 3665 3669
3656 10 3665 3670
3657 10 3665 3671
3658 8 3672 3673
3659 7 3673 3674
3660 11 3672 3675
3661 11 3672 3676
3662 12 3673 3677
3663 10 3674 3678
3664 10 3674 3679
3665 10 3674 3680
3666 8 3681 3682
3667 7 3682 3683
3668 11 3681 3684
3669 11 3681 3685
3670 12 3682 3686
3671 10 3683 3687
3672 10 3683 3688
3673 10 3683 3689
3674 8 3690 3691
3675 7 3691 3692
3676 11 3690 3693
3677 11 3690 3694
3678 12 3691 3695
3679 10 3692 3696
3680 10 3692 3697
3681 10 3692 3698
3682 8 3699 3700
3683 7 3700 3701
3684 11 3699 3702
3685 11 3699 3703
3686 12 3700 3704
3687 10 3701 3705
3688 10 3701 3706
3689 10 3701 3707
3690 8 3708 3709
3691 7 3709 3710
3692 11 3708 3711
3693 11 3708 3712
3694 12 3709 3713
3695 10 3710 3714
3696 10 3710 3715
3697 10 3710 3716
3698 8 3717 3718
3699 7 3718 3719
3700 11 3717 3720
3701 11 3717 3721
3702 12 3718 3722
3703 10 3719 3723
3704 10 3719 3724
3705 10 3719 3725
3706 8 3726 3727
3707 7 3727 3728
3708 11 3726 3729
3709 11 3726 3730
3710 12 3727 3731
3711 10 3728 3732
3712 10 3728 3733
3713 10 3728 3734
3714 8 3735 3736
3715 7 3736 3737
3716 11 3735 3738
3717 11 3735 3739
3718 12 3736 3740
3719 10 3737 3741
3720 10 3737 3742
3721 10 3737 3743
3722 8 3744 3745
3723 7 3745 3746
3724 11 3744 3747
3725 11 3744 3748
3726 12 3745 3749
3727 10 3746 3750
3728 10 3746 3751
3729 10 3746 3752
3730 8 3753 3754
3731 7 3754 3755
3732 11 3753 3756
3733 11 3753 3757
3734 12 3754 3758
3735 10 3755 3759
3736 10 3755 3760
3737 10 3755 3761
3738 8 3762 3763
3739 7 3763 3764
3740 11 3762 3765
3741 11 3762 3766
3742 12 3763 3767
3743 10 3764 3768
3744 10 3764 3769
3745 10 3764 3770
3746 8 3771 3772
3747 7 3772 3773
3748 11 3771 3774
3749 11 3771 3775
3750 12 3772 3776
3751 10 3773 3777
3752 10 3773 3778
3753 10 3773 3779
3754 8 3780 3781
3755 7 3781 3782
3756 11 3780 3783
3757 11 3780 3784
3758 12 3781 3785
3759 10 3782 3786
3760 10 3782 3787
3761 10 3782 3788
3762 8 3789 3790
3763 7 3790 3791
3764 11 3789 3792
3765 11 3789 3793
3766 12 3790 3794
3767 10 3791 3795
3768 10 3791 3796
3769 10 3791 3797
3770 8 3798 3799
3771 7 3799 3800
3772 11 3798 3801
3773 11 3798 3802
3774 12 3799 3803
3775 10 3800 3804
3776 10 3800 3805
3777 10 3800 3806
3778 8 3807 3808
3779 7 3808 3809
3780 11 3807 3810
3781 11 3807 3811
3782 12 3808 3812
3783 10 3809 3813
3784 10 3809 3814
3785 10 3809 3815
3786 8 3816 3817
3787 7 3817 3818
3788 11 3816 3819
3789 11 3816 3820
3790 12 3817 3821
3791 10 3818 3822
3792 10 3818 3823
3793 10 3818 3824
3794 8 3825 3826
3795 7 3826 3827
3796 11 3825 3828
3797 11 3825 3829
3798 12 3826 3830
3799 10 3827 3831
3800 10 3827 3832
3801 10 3827 3833
3802 8 3834 3835
3803 7 3835 3836
3804 11 3834 3837
3805 11 3834 3838
3806 12 3835 3839
3807 10 3836 3840
3808 10 3836 3841
3809 10 3836 3842
3810 8 3843 3844
3811 7 3844 3845
3812 11 3843 3846
3813 11 3843 3847
3814 12 3844 3848
3815 10 3845 3849
3816 10 3845 3850
3817 10 3845 3851
3818 8 3852 3853
3819 7 3853 3854
3820 11 3852 3855
3821 11 3852 3856
3822 12 3853 3857
3823 10 3854 3858
3824 10 3854 3859
3825 10 3854 3860
3826 8 3861 3862
3827 7 3862 3863
3828 11 3861 3864
3829 11 3861 3865
3830 12 3862 3866
3831 10 3863 3867
3832 10 3863 3868
3833 10 3863 3869
3834 8 3870 3871
3835 7 3871 3872
3836 11 3870 3873
3837 11 3870 3874
3838 12 3871 3875
3839 10 3872 3876
3840 10 3872 3877
3841 10 3872 3878
3842 8 3879 3880
3843 7 3880 3881
3844 11 3879 3882
3845 11 3879 3883
3846 12 3880 3884
3847 10 3881 3885
3848 10 3881 3886
3849 10 3881 3887
3850 8 3888 3889
3851 7 3889 3890
3852 11 3888 3891
3853 11 3888 3892
3854 12 3889 3893
3855 10 3890 3894
3856 10 3890 3895
3857 10 3890 3896
3858 8 3897 3898
3859 7 3898 3899
3860 11 3897 3900
3861 11 3897 3901
3862 12 3898 3902
3863 10 3899 3903
3864 10 3899 3904
3865 10 3899 3905
3866 8 3906 3907
3867 7 3907 3908
3868 11 3906 3909
3869 11 3906 3910
3870 12 3907 3911
3871 10 3908 3912
3872 10 3908 3913
3873 10 3908 3914
3874 8 3915 3916
3875 7 3916 3917
3876 11 3915 3918
3877 11 3915 3919
3878 12 3916 3920
3879 10 3917 3921
3880 10 3917 3922
3881 10 3917 3923
3882 8 3924 3925
3883 7 3925 3926
3884 11 3924 3927
3885 11 3924 3928
3886 12 3925 3929
3887 10 3926 3930
3888 10 3926 3931
3889 10 3926 3932
3890 8 3933 3934
3891 7 3934 3935
3892 11 3933 3936
3893 11 3933 3937
3894 12 3934 3938
3895 10 3935 3939
3896 10 3935 3940
3897 10 3935 3941
3898 8 3942 3943
3899 7 3943 3944
3900 11 3942 3945
3901 11 3942 3946
3902 12 3943 3947
3903 10 3944 3948
3904 10 3944 3949
3905 10 3944 3950
3906 8 3951 3952
3907 7 3952 3953
3908 11 3951 3954
3909 11 3951 3955
3910 12 3952 3956
3911 10 3953 3957
3912 10 3953 3958
3913 10 3953 3959
3914 8 3960 3961
3915 7 3961 3962
3916 11 3960 3963
3917 11 3960 3964
3918 12 3961 3965
3919 10 3962 3966
3920 10 3962 3967
3921 10 3962 3968
3922 8 3969 3970
3923 7 3970 3971
3924 11 3969 3972
3925 11 3969 3973
3926 12 3970 3974
3927 10 3971 3975
3928 10 3971 3976
3929 10 3971 3977
3930 8 3978 3979
3931 7 3979 3980
3932 11 3978 3981
3933 11 3978 3982
3934 12 3979 3983
3935 10 3980 3984
3936 10 3980 3985
3937 10 3980 3986
3938 8 3987 3988
3939 7 3988 3989
3940 11 3987 3990
3941 11 3987 3991
3942 12 3988 3992
3943 10 3989 3993
3944 10 3989 3994
3945 10 3989 3995
3946 8 3996 3997
3947 7 3997 3998
3948 11 3996 3999
3949 11 3996 4000
3950 12 3997 4001
3951 10 3998 4002
3952 10 3998 4003
3953 10 3998 4004
3954 8 4005 4006
3955 7 4006 4007
3956 11 4005 4008
3957 11 4005 4009
3958 12 4006 4010
3959 10 4007 4011
3960 10 4007 4012
3961 10 4007 4013
3962 8 4014 4015
3963 7 4015 4016
3964 11 4014 4017
3965 11 4014 4018
3966 12 4015 4019
3967 10 4016 4020
3968 10 4016 4021
3969 10 4016 4022
3970 8 4023 4024
3971 7 4024 4025
3972 11 4023 4026
3973 11 4023 4027
3974 12 4024 4028
3975 10 4025 4029
3976 10 4025 4030
3977 10 4025 4031
3978 8 4032 4033
3979 7 4033 4034
3980 11 4032 4035
3981 11 4032 4036
3982 12 4033 4037
3983 10 4034 4038
3984 10 4034 4039
3985 10 4034 4040
3986 8 4041 4042
3987 7 4042 4043
3988 11 4041 4044
3989 11 4041 4045
3990 12 4042 4046
3991 10 4043 4047
3992 10 4043 4048
3993 10 4043 4049
3994 8 4050 4051
3995 7 4051 4052
3996 11 4050 4053
3997 11 4050 4054
3998 12 4051 4055
3999 10 4052 4056
4000 10 4052 4057
4001 10 4052 4058
4002 5 4059 4060
4003 4 4060 4061
4004 11 4059 4062
4005 11 4059 4063
4006 11 4060 4064
4007 11 4060 4065
4008 10 4061 4066
4009 10 4061 4067
4010 10 4061 4068
4011 8 3618 3627
4012 8 3628 3636
4013 8 3637 3645
4014 8 3646 3654
4015 8 3655 3663
4016 8 3664 3672
4017 8 3673 3681
4018 8 3682 3690
4019 8 3691 3699
4020 8 3700 3708
4021 8 3709 3717
4022 8 3718 3726
4023 8 3727 3735
4024 8 3736 3744
4025 8 3745 3753
4026 8 3754 3762
4027 8 3763 3771
4028 8 3772 3780
4029 8 3781 3789
4030 8 3790 3798
4031 8 3799 3807
4032 8 3808 3816
4033 8 3817 3825
4034 8 3826 3834
4035 8 3835 3843
4036 8 3844 3852
4037 8 3853 3861
4038 8 3862 3870
4039 8 3871 3879
4040 8 3880 3888
4041 8 3889 3897
4042 8 3898 3906
4043 8 3907 3915
4044 8 3916 3924
4045 8 3925 3933
4046 8 3934 3942
4047 8 3943 3951
4048 8 3952 3960
4049 8 3961 3969
4050 8 3970 3978
4051 8 3979 3987
4052 8 3988 3996
4053 8 3997 4005
4054 8 4006 4014
4055 8 4015 4023
4056 8 4024 4032
4057 8 4033 4041
4058 8 4042 4050
4059 8 4051 4059
4060 7 4069 4070
4061 7 4070 4071
4062 10 4069 4072
4063 10 4069 4073
4064 10 4069 4074
4065 12 4070 4075
4066 10 4071 4076
4067 10 4071 4077
4068 10 4071 4078
4069 8 4079 4080
4070 7 4080 4081
4071 11 4079 4082
4072 11 4079 4083
4073 12 4080 4084
4074 10 4081 4085
4075 10 4081 4086
4076 10 4081 4087
4077 8 4088 4089
4078 7 4089 4090
4079 11 4088 4091
4080 11 4088 4092
4081 12 4089 4093
4082 10 4090 4094
4083 10 4090 4095
4084 10 4090 4096
4085 8 4097 4098
4086 7 4098 4099
4087 11 4097 4100
4088 11 4097 4101
4089 12 4098 4102
4090 10 4099 4103
4091 10 4099 4104
4092 10 4099 4105
4093 8 4106 4107
4094 7 4107 4108
4095 11 4106 4109
4096 11 4106 4110
4097 12 4107 4111
4098 10 4108 4112
4099 10 4108 4113
4100 10 4108 4114
4101 8 4115 4116
4102 7 4116 4117
4103 11 4115 4118
4104 11 4115 4119
4105 12 4116 4120
4106 10 4117 4121
4107 10 4117 4122
4108 10 4117 4123
4109 8 4124 4125
4110 7 4125 4126
4111 11 4124 4127
4112 11 4124 4128
4113 12 4125 4129
4114 10 4126 4130
4115 10 4126 4131
4116 10 4126 4132
4117 8 4133 4134
4118 7 4134 4135
4119 11 4133 4136
4120 11 4133 4137
4121 12 4134 4138
4122 10 4135 4139
4123 10 4135 4140
4124 10 4135 4141
4125 8 4142 4143
4126 7 4143 4144
4127 11 4142 4145
4128 11 4142 4146
4129 12 4143 4147
4130 10 4144 4148
4131 10 4144 4149
4132 10 4144 4150
4133 8 4151 4152
4134 7 4152 4153
4135 11 4151 4154
4136 11 4151 4155
4137 12 4152 4156
4138 10 4153 4157
4139 10 4153 4158
4140 10 4153 4159
4141 8 4160 4161
4142 7 4161 4162
4143 11 4160 4163
4144 11 4160 4164
4145 12 4161 4165
4146 10 4162 4166
4147 10 4162 4167
4148 10 4162 4168
4149 8 4169 4170
4150 7 4170 4171
4151 11 4169 4172
4152 11 4169 4173
4153 12 4170 4174
4154 10 4171 4175
4155 10 4171 4176
4156 10 4171 4177
4157 8 4178 4179
4158 7 4179 4180
4159 11 4178 4181
4160 11 4178 4182
4161 12 4179 4183
4162 10 4180 4184
4163 10 4180 4185
4164 10 4180 4186
4165 8 4187 4188
4166 7 4188 4189
4167 11 4187 4190
4168 11 4187 4191
4169 12 4188 4192
4170 10 4189 4193
4171 10 4189 4194
4172 10 4189 4195
4173 8 4196 4197
4174 7 4197 4198
4175 11 4196 4199
4176 11 4196 4200
4177 12 4197 4201
4178 10 4198 4202
4179 10 4198 4203
4180 10 4198 4204
4181 8 4205 4206
4182 7 4206 4207
4183 11 4205 4208
4184 11 4205 4209
4185 12 4206 4210
4186 10 4207 4211
4187 10 4207 4212
4188 10 4207 4213
4189 8 4214 4215
4190 7 4215 4216
4191 11 4214 4217
4192 11 4214 4218
4193 12 4215 4219
4194 10 4216 4220
4195 10 4216 4221
4196 10 4216 4222
4197 8 4223 4224
4198 7 4224 4225
4199 11 4223 4226
4200 11 4223 4227
4201 12 4224 4228
4202 10 4225 4229
4203 10 4225 4230
4204 10 4225 4231
4205 8 4232 4233
4206 7 4233 4234
4207 11 4232 4235
4208 11 4232 4236
4209 12 4233 4237
4210 10 4234 4238
4211 10 4234 4239
4212 10 4234 4240
4213 8 4241 4242
4214 7 4242 4243
4215 11 4241 4244
4216 11 4241 4245
4217 12 4242 4246
4218 10 4243 4247
4219 10 4243 4248
4220 10 4243 4249
4221 8 4250 4251
4222 7 4251 4252
4223 11 4250 4253
4224 11 4250 4254
4225 12 4251 4255
4226 10 4252 4256
4227 10 4252 4257
4228 10 4252 4258
4229 8 4259 4260
4230 7 4260 4261
4231 11 4259 4262
4232 11 4259 4263
4233 12 4260 4264
4234 10 4261 4265
4235 10 4261 4266
4236 10 4261 4267
4237 8 4268 4269
4238 7 4269 4270
4239 11 4268 4271
4240 11 4268 4272
4241 12 4269 4273
4242 10 4270 4274
4243 10 4270 4275
4244 10 4270 4276
4245 8 4277 4278
4246 7 4278 4279
4247 11 4277 4280
4248 11 4277 4281
4249 12 4278 4282
4250 10 4279 4283
4251 10 4279 4284
4252 10 4279 4285
4253 8 4286 4287
4254 7 4287 4288
4255 11 4286 4289
4256 11 4286 4290
4257 12 4287 4291
4258 10 4288 4292
4259 10 4288 4293
4260 10 4288 4294
4261 8 4295 4296
4262 7 4296 4297
4263 11 4295 4298
4264 11 4295 4299
4265 12 4296 4300
4266 10 4297 4301
4267 10 4297 4302
4268 10 4297 4303
4269 8 4304 4305
4270 7 4305 4306
4271 11 4304 4307
4272 11 4304 4308
4273 12 4305 4309
4274 10 4306 4310
4275 10 4306 4311
4276 10 4306 4312
4277 8 4313 4314
4278 7 4314 4315
4279 11 4313 4316
4280 11 4313 4317
4281 12 4314 4318
4282 10 4315 4319
4283 10 4315 4320
4284 10 4315 4321
4285 8 4322 4323
4286 7 4323 4324
4287 11 4322 4325
4288 11 4322 4326
4289 12 4323 4327
4290 10 4324 4328
4291 10 4324 4329
4292 10 4324 4330
4293 8 4331 4332
4294 7 4332 4333
4295 11 4331 4334
4296 11 4331 4335
4297 12 4332 4336
4298 10 4333 4337
4299 10 4333 4338
4300 10 4333 4339
4301 8 4340 4341
4302 7 4341 4342
4303 11 4340 4343
4304 11 4340 4344
4305 12 4341 4345
4306 10 4342 4346
4307 10 4342 4347
4308 10 4342 4348
4309 8 4349 4350
4310 7 4350 4351
4311 11 4349 4352
4312 11 4349 4353
4313 12 4350 4354
4314 10 4351 4355
4315 10 4351 4356
4316 10 4351 4357
4317 8 4358 4359
4318 7 4359 4360
4319 11 4358 4361
4320 11 4358 4362
4321 12 4359 4363
4322 10 4360 4364
4323 10 4360 4365
4324 10 4360 4366
4325 8 4367 4368
4326 7 4368 4369
4327 11 4367 4370
4328 11 4367 4371
4329 12 4368 4372
4330 10 4369 4373
4331 10 4369 4374
4332 10 4369 4375
4333 8 4376 4377
4334 7 4377 4378
4335 11 4376 4379
4336 11 4376 4380
4337 12 4377 4381
4338 10 4378 4382
4339 10 4378 4383
4340 10 4378 4384
4341 8 4385 4386
4342 7 4386 4387
4343 11 4385 4388
4344 11 4385 4389
4345 12 4386 4390
4346 10 4387 4391
4347 10 4387 4392
4348 10 4387 4393
4349 8 4394 4395
4350 7 4395 4396
4351 11 4394 4397
4352 11 4394 4398
4353 12 4395 4399
4354 10 4396 4400
4355 10 4396 4401
4356 10 4396 4402
4357 8 4403 4404
4358 7 4404 4405
4359 11 4403 4406
4360 11 4403 4407
4361 12 4404 4408
4362 10 4405 4409
4363 10 4405 4410
4364 10 4405 4411
4365 8 4412 4413
4366 7 4413 4414
4367 11 4412 4415
4368 11 4412 4416
4369 12 4413 4417
4370 10 4414 4418
4371 10 4414 4419
4372 10 4414 4420
4373 8 4421 4422
4374 7 4422 4423
4375 11 4421 4424
4376 11 4421 4425
4377 12 4422 4426
4378 10 4423 4427
4379 10 4423 4428
4380 10 4423 4429
4381 8 4430 4431
4382 7 4431 4432
4383 11 4430 4433
4384 11 4430 4434
4385 12 4431 4435
4386 10 4432 4436
4387 10 4432 4437
4388 10 4432 4438
4389 8 4439 4440
4390 7 4440 4441
4391 11 4439 4442
4392 11 4439 4443
4393 12 4440 4444
4394 10 4441 4445
4395 10 4441 4446
4396 10 4441 4447
4397 8 4448 4449
4398 7 4449 4450
4399 11 4448 4451
4400 11 4448 4452
4401 12 4449 4453
4402 10 4450 4454
4403 10 4450 4455
4404 10 4450 4456
4405 8 4457 4458
4406 7 4458 4459
4407 11 4457 4460
4408 11 4457 4461
4409 12 4458 4462
4410 10 4459 4463
4411 10 4459 4464
4412 10 4459 4465
4413 8 4466 4467
4414 7 4467 4468
4415 11 4466 4469
4416 11 4466 4470
4417 12 4467 4471
4418 10 4468 4472
4419 10 4468 4473
4420 10 4468 4474
4421 8 4475 4476
4422 7 4476 4477
4423 11 4475 4478
4424 11 4475 4479
4425 12 4476 4480
4426 10 4477 4481
4427 10 4477 4482
4428 10 4477 4483
4429 8 4484 4485
4430 7 4485 4486
4431 11 4484 4487
4432 11 4484 4488
4433 12 4485 4489
4434 10 4486 4490
4435 10 4486 4491
4436 10 4486 4492
4437 8 4493 4494
4438 7 4494 4495
4439 11 4493 4496
4440 11 4493 4497
4441 12 4494 4498
4442 10 4495 4499
4443 10 4495 4500
4444 10 4495 4501
4445 8 4502 4503
4446 7 4503 4504
4447 11 4502 4505
4448 11 4502 4506
4449 12 4503 4507
4450 10 4504 4508
4451 10 4504 4509
4452 10 4504 4510
4453 5 4511 4512
4454 4 4512 4513
4455 11 4511 4514
4456 11 4511 4515
4457 11 4512 4516
4458 11 4512 4517
4459 10 4513 4518
4460 10 4513 4519
4461 10 4513 4520
4462 8 4070 4079
4463 8 4080 4088
4464 8 4089 4097
4465 8 4098 4106
4466 8 4107 4115
4467 8 4116 4124
4468 8 4125 4133
4469 8 4134 4142
4470 8 4143 4151
4471 8 4152 4160
4472 8 4161 4169
4473 8 4170 4178
4474 8 4179 4187
4475 8 4188 4196
4476 8 4197 4205
4477 8 4206 4214
4478 8 4215 4223
4479 8 4224 4232
4480 8 4233 4241
4481 8 4242 4250
4482 8 4251 4259
4483 8 4260 4268
4484 8 4269 4277
4485 8 4278 4286
4486 8 4287 4295
4487 8 4296 4304
4488 8 4305 4313
4489 8 4314 4322
4490 8 4323 4331
4491 8 4332 4340
4492 8 4341 4349
4493 8 4350 4358
4494 8 4359 4367
4495 8 4368 4376
4496 8 4377 4385
4497 8 4386 4394
4498 8 4395 4403
4499 8 4404 4412
4500 8 4413 4421
4501 8 4422 4430
4502 8 4431 4439
4503 8 4440 4448
4504 8 4449 4457
4505 8 4458 4466
4506 8 4467 4475
4507 8 4476 4484
4508 8 4485 4493
4509 8 4494 4502
4510 8 4503 4511

Angles

1 7 1 2 3
2 7 453 454 455
3 7 905 906 907
4 7 1357 1358 1359
5 7 1809 1810 1811
6 7 2261 2262 2263
7 7 2713 2714 2715
8 7 3165 3166 3167
9 7 3617 3618 3619
10 7 4069 4070 4071
11 13 443 444 445
12 13 895 896 897
13 13 1347 1348 1349
14 13 1799 1800 1801
15 13 2251 2252 2253
16 13 2703 2704 2705
17 13 3155 3156 3157
18 13 3607 3608 3609
19 13 4059 4060 4061
20 13 4511 4512 4513
21 16 11 12 13
22 16 1 2 11
23 16 3 2 11
24 16 20 21 22
25 16 13 12 20
26 16 29 30 31
27 16 22 21 29
28 16 38 39 40
29 16 31 30 38
30 16 47 48 49
31 16 40 39 47
32 16 56 57 58
33 16 49 48 56
34 16 65 66 67
35 16 58 57 65
36 16 74 75 76
37 16 67 66 74
38 16 83 84 85
39 16 76 75 83
40 16 92 93 94
41 16 85 84 92
42 16 101 102 103
43 16 94 93 101
44 16 110 111 112
45 16 103 102 110
46 16 119 120 121
47 16 112 111 119
48 16 128 129 130
49 16 121 120 128
50 16 137 138 139
51 16 130 129 137
52 16 146 147 148
53 16 139 138 146
54 16 155 156 157
55 16 148 147 155
56 16 164 165 166
57 16 157 156 164
58 16 173 174 175
59 16 166 165 173
60 16 182 183 184
61 16 175 174 182
62 16 191 192 193
63 16 184 183 191
64 16 200 201 202
65 16 193 192 200
66 16 209 210 211
67 16 202 201 209
68 16 218 219 220
69 16 211 210 218
70 16 227 228 229
71 16 220 219 227
72 16 236 237 238
73 16 229 228 236
74 16 245 246 247
75 16 238 237 245
76 16 254 255 256
77 16 247 246 254
78 16 263 264 265
79 16 256 255 263
80 16 272 273 274
81 16 265 264 272
82 16 281 282 283
83 16 274 273 281
84 16 290 291 292
85 16 283 282 290
86 16 299 300 301
87 16 292 291 299
88 16 308 309 310
89 16 301 300 308
90 16 317 318 319
91 16 310 309 317
92 16 326 327 328
93 16 319 318 326
94 16 335 336 337
95 16 328 327 335
96 16 344 345 346
97 16 337 336 344
98 16 353 354 355
99 16 346 345 353
100 16 362 363 364
101 16 355 354 362
102 16 371 372 373
103 16 364 363 371
104 16 380 381 382
105 16 373 372 380
106 16 389 390 391
107 16 382 381 389
108 16 398 399 400
109 16 391 390 398
110 16 407 408 409
111 16 400 399 407
112 16 416 417 418
113 16 409 408 416
114 16 425 426 427
115 16 418 417 425
116 16 434 435 436
117 16 427 426 434
118 16 436 435 443
119 16 463 464 465
120 16 453 454 463
121 16 455 454 463
122 16 472 473 474
123 16 465 464 472
124 16 481 482 483
125 16 474 473 481
126 16 490 491 492
127 16 483 482 490
128 16 499 500 501
129 16 492 491 499
130 16 508 509 510
131 16 501 500 508
132 16 517 518 519
133 16 510 509 517
134 16 526 527 528
135 16 519 518 526
136 16 535 536 537
137 16 528 527 535
138 16 544 545 546
139 16 537 536 544
140 16 553 554 555
141 16 546 545 553
142 16 562 563 564
143 16 555 554 562
144 16 571 572 573
145 16 564 563 571
146 16 580 581 582
147 16 573 572 580
148 16 589 590 591
149 16 582 581 589
150 16 598 599 600
151 16 591 590 598
152 16 607 608 609
153 16 600 599 607
154 16 616 617 618
155 16 609 608 616
156 16 625 626 627
157 16 618 617 625
158 16 634 635 636
159 16 627 626 634
160 16 643 644 645
161 16 636 635 643
162 16 652 653 654
163 16 645 644 652
164 16 661 662 663
165 16 654 653 661
166 16 670 671 672
167 16 663 662 670
168 16 679 680 681
169 16 672 671 679
170 16 688 689 690
171 16 681 680 688
172 16 697 698 699
173 16 690 689 697
174 16 706 707 708
175 16 699 698 706
176 16 715 716 717
177 16 708 707 715
178 16 724 725 726
179 16 717 716 724
180 16 733 734 735
181 16 726 725 733
182 16 742 743 744
183 16 735 734 742
184 16 751 752 753
185 16 744 743 751
186 16 760 761 762
187 16 753 752 760
188 16 769 770 771
189 16 762 761 769
190 16 778 779 780
191 16 771 770 778
192 16 787 788 789
193 16 780 779 787
194 16 796 797 798
195 16 789 788 796
196 16 805 806 807
197 16 798 797 805
198 16 814 815 816
199 16 807 806 814
200 16 823 824 825
201 16 816 815 823
202 16 832 833 834
203 16 825 824 832
204 16 841 842 843
205 16 834 833 841
206 16 850 851 852
207 16 843 842 850
208 16 859 860 861
209 16 852 851 859
210 16 868 869 870
211 16 861 860 868
212 16 877 878 879
213 16 870 869 877
214 16 886 887 888
215 16 879 878 886
216 16 888 887 895
217 16 915 916 917
218 16 905 906 915
219 16 907 906 915
220 16 924 925 926
221 16 917 916 924
222 16 933 934 935
223 16 926 925 933
224 16 942 943 944
225 16 935 934 942
226 16 951 952 953
227 16 944 943 951
228 16 960 961 962
229 16 953 952 960
230 16 969 970 971
231 16 962 961 969
232 16 978 979 980
233 16 971 970 978
234 16 987 988 989
235 16 980 979 987
236 16 996 997 998
237 16 989 988 996
238 16 1005 1006 1007
239 16 998 997 1005
240 16 1014 1015 1016
241 16 1007 1006 1014
242 16 1023 1024 1025
243 16 1016 1015 1023
244 16 1032 1033 1034
245 16 1025 1024 1032
246 16 1041 1042 1043
247 16 1034 1033 1041
248 16 1050 1051 1052
249 16 1043 1042 1050
250 16 1059 1060 1061
251 16 1052 1051 1059
252 16 1068 1069 1070
253 16 1061 1060 1068
254 16 1077 1078 1079
255 16 1070 1069 1077
256 16 1086 1087 1088
257 16 1079 1078 1086
258 16 1095 1096 1097
259 16 1088 1087 1095
260 16 1104 1105 1106
261 16 1097 1096 1104
262 16 1113 1114 1115
263 16 1106 1105 1113
264 16 1122 1123 1124
265 16 1115 1114 1122
266 16 1131 1132 1133
267 16 1124 1123 1131
268 16 1140 1141 1142
269 16 1133 1132 1140
270 16 1149 1150 1151
271 16 1142 1141 1149
272 16 1158 1159 1160
273 16 1151 1150 1158
274 16 1167 1168 1169
275 16 1160 1159 1167
276 16 1176 1177 1178
277 16 1169 1168 1176
278 16 1185 1186 1187
279 16 1178 1177 1185
280 16 1194 1195 1196
281 16 1187 1186 1194
282 16 1203 1204 1205
283 16 1196 1195 1203
284 16 1212 1213 1214
285 16 1205 1204 1212
286 16 1221 1222 1223
287 16 1214 1213 1221
288 16 1230 1231 1232
289 16 1223 1222 1230
290 16 1239 1240 1241
291 16 1232 1231 1239
292 16 1248 1249 1250
293 16 1241 1240 1248
294 16 1257 1258 1259
295 16 1250 1249 1257
296 16 1266 1267 1268
297 16 1259 1258 1266
298 16 1275 1276 1277
299 16 1268 1267 1275
300 16 1284 1285 1286
301 16 1277 1276 1284
302 16 1293 1294 1295
303 16 1286 1285 1293
304 16 1302 1303 1304
305 16 1295 1294 1302
306 16 1311 1312 1313
307 16 1304 1303 1311
308 16 1320 1321 1322
309 16 1313 1312 1320
310 16 1329 1330 1331
311 16 1322 1321 1329
312 16 1338 1339 1340
313 16 1331 1330 1338
314 16 1340 1339 1347
315 16 1367 1368 1369
316 16 1357 1358 1367
317 16 1359 1358 1367
318 16 1376 1377 1378
319 16 1369 1368 1376
320 16 1385 1386 1387
321 16 1378 1377 1385
322 16 1394 1395 1396
323 16 1387 1386 1394
324 16 1403 1404 1405
325 16 1396 1395 1403
326 16 1412 1413 1414
327 16 1405 1404 1412
328 16 1421 1422 1423
329 16 1414 1413 1421
330 16 1430 1431 1432
331 16 1423 1422 1430
332 16 1439 1440 1441
333 16 1432 1431 1439
334 16 1448 1449 1450
335 16 1441 1440 1448
336 16 1457 1458 1459
337 16 1450 1449 1457
338 16 1466 1467 1468
339 16 1459 1458 1466
340 16 1475 1476 1477
341 16 1468 1467 1475
342 16 1484 1485 1486
343 16 1477 1476 1484
344 16 1493 1494 1495
345 16 1486 1485 1493
346 16 1502 1503 1504
347 16 1495 1494 1502
348 16 1511 1512 1513
349 16 1504 1503 1511
350 16 1520 1521 1522
351 16 1513 1512 1520
352 16 1529 1530 1531
353 16 1522 1521 1529
354 16 1538 1539 1540
355 16 1531 1530 1538
356 16 1547 1548 1549
357 16 1540 1539 1547
358 16 1556 1557 1558
359 16 1549 1548 1556
360 16 1565 1566 1567
361 16 1558 1557 1565
362 16 1574 1575 1576
363 16 1567 1566 1574
364 16 1583 1584 1585
365 16 1576 1575 1583
366 16 1592 1593 1594
367 16 1585 1584 1592
368 16 1601 1602 1603
369 16 1594 1593 1601
370 16 1610 1611 1612
371 16 1603 1602 1610
372 16 1619 1620 1621
373 16 1612 1611 1619
374 16 1628 1629 1630
375 16 1621 1620 1628
376 16 1637 1638 1639
377 16 1630 1629 1637
378 16 1646 1647 1648
379 16 1639 1638 1646
380 16 1655 1656 1657
381 16 1648 1647 1655
382 16 1664 1665 1666
383 16 1657 1656 1664
384 16 1673 1674 1675
385 16 1666 1665 1673
386 16 1682 1683 1684
387 16 1675 1674 1682
388 16 1691 1692 1693
389 16 1684 1683 1691
390 16 1700 1701 1702
391 16 1693 1692 1700
392 16 1709 1710 1711
393 16 1702 1701 1709
394 16 1718 1719 1720
395 16 1711 1710 1718
396 16 1727 1728 1729
397 16 1720 1719 1727
398 16 1736 1737 1738
399 16 1729 1728 1736
400 16 1745 1746 1747
401 16 1738 1737 1745
402 16 1754 1755 1756
403 16 1747 1746 1754
404 16 1763 1764 1765
405 16 1756 1755 1763
406 16 1772 1773 1774
407 16 1765 1764 1772
408 16 1781 1782 1783
409 16 1774 1773 1781
410 16 1790 1791 1792
411 16 1783 1782 1790
412 16 1792 1791 1799
413 16 1819 1820 1821
414 16 1809 1810 1819
415 16 1811 1810 1819
416 16 1828 1829 1830
417 16 1821 1820 1828
418 16 1837 1838 1839
419 16 1830 1829 1837
420 16 1846 1847 1848
421 16 1839 1838 1846
422 16 1855 1856 1857
423 16 1848 1847 1855
424 16 1864 1865 1866
425 16 1857 1856 1864
426 16 1873 1874 1875
427 16 1866 1865 1873
428 16 1882 1883 1884
429 16 1875 1874 1882
430 16 1891 1892 1893
431 16 1884 1883 1891
432 16 1900 1901 1902
433 16 1893 1892 1900
434 16 1909 1910 1911
435 16 1902 1901 1909
436 16 1918 1919 1920
437 16 1911 1910 1918
438 16 1927 1928 1929
439 16 1920 1919 1927
440 16 1936 1937 1938
441 16 1929 1928 1936
442 16 1945 1946 1947
443 16 1938 1937 1945
444 16 1954 1955 1956
445 16 1947 1946 1954
446 16 1963 1964 1965
447 16 1956 1955 1963
448 16 1972 1973 1974
449 16 1965 1964 1972
450 16 1981 1982 1983
451 16 1974 1973 1981
452 16 1990 1991 1992
453 16 1983 1982 1990
454 16 1999 2000 2001
455 16 1992 1991 1999
456 16 2008 2009 2010
457 16 2001 2000 2008
458 16 2017 2018 2019
459 16 2010 2009 2017
460 16 2026 2027 2028
461 16 2019 2018 2026
462 16 2035 2036 2037
463 16 2028 2027 2035
464 16 2044 2045 2046
465 16 2037 2036 2044
466 16 2053 2054 2055
467 16 2046 2045 2053
468 16 2062 2063 2064
469 16 2055 2054 2062
470 16 2071 2072 2073
471 16 2064 2063 2071
472 16 2080 2081 2082
473 16 2073 2072 2080
474 16 2089 2090 2091
475 16 2082 2081 2089
476 16 2098 2099 2100
477 16 2091 2090 2098
478 16 2107 2108 2109
479 16 2100 2099 2107
480 16 2116 2117 2118
481 16 2109 2108 2116
482 16 2125 2126 2127
483 16 2118 2117 2125
484 16 2134 2135 2136
485 16 2127 2126 2134
486 16 2143 2144 2145
487 16 2136 2135 2143
488 16 2152 2153 2154
489 16 2145 2144 2152
490 16 2161 2162 2163
491 16 2154 2153 2161
492 16 2170 2171 2172
493 16 2163 2162 2170
494 16 2179 2180 2181
495 16 2172 2171 2179
496 16 2188 2189 2190
497 16 2181 2180 2188
498 16 2197 2198 2199
499 16 2190 2189 2197
500 16 2206 2207 2208
501 16 2199 2198 2206
502 16 2215 2216 2217
503 16 2208 2207 2215
504 16 2224 2225 2226
505 16 2217 2216 2224
506 16 2233 2234 2235
507 16 2226 2225 2233
508 16 2242 2243 2244
509 16 2235 2234 2242
510 16 2244 2243 2251
511 16 2271 2272 2273
512 16 2261 2262 2271
513 16 2263 2262 2271
514 16 2280 2281 2282
515 16 2273 2272 2280
516 16 2289 2290 2291
517 16 2282 2281 2289
518 16 2298 2299 2300
519 16 2291 2290 2298
520 16 2307 2308 2309
521 16 2300 2299 2307
522 16 2316 2317 2318
523 16 2309 2308 2316
524 16 2325 2326 2327
525 16 2318 2317 2325
526 16 2334 2335 2336
527 16 2327 2326 2334
528 16 2343 2344 2345
529 16 2336 2335 2343
530 16 2352 2353 2354
531 16 2345 2344 2352
532 16 2361 2362 2363
533 16 2354 2353 2361
534 16 2370 2371 2372
535 16 2363 2362 2370
536 16 2379 2380 2381
537 16 2372 2371 2379
538 16 2388 2389 2390
539 16 2381 2380 2388
540 16 2397 2398 2399
541 16 2390 2389 2397
542 16 2406 2407 2408
543 16 2399 2398 2406
544 16 2415 2416 2417
545 16 2408 2407 2415
546 16 2424 2425 2426
547 16 2417 2416 2424
548 16 2433 2434 2435
549 16 2426 2425 2433
550 16 2442 2443 2444
551 16 2435 2434 2442
552 16 2451 2452 2453
553 16 2444 2443 2451
554 16 2460 2461 2462
555 16 2453 2452 2460
556 16 2469 2470 2471
557 16 2462 2461 2469
558 16 2478 2479 2480
559 16 2471 2470 2478
560 16 2487 2488 2489
561 16 2480 2479 2487
562 16 2496 2497 2498
563 16 2489 2488 2496
564 16 2505 2506 2507
565 16 2498 2497 2505
566 16 2514 2515 2516
567 16 2507 2506 2514
568 16 2523 2524 2525
569 16 2516 2515 2523
570 16 2532 2533 2534
571 16 2525 2524 2532
572 16 2541 2542 2543
573 16 2534 2533 2541
574 16 2550 2551 2552
575 16 2543 2542 2550
576 16 2559 2560 2561
577 16 2552 2551 2559
578 16 2568 2569 2570
579 16 2561 2560 2568
580 16 2577 2578 2579
581 16 2570 2569 2577
582 16 2586 2587 2588
583 16 2579 2578 2586
584 16 2595 2596 2597
585 16 2588 2587 2595
586 16 2604 2605 2606
587 16 2597 2596 2604
588 16 2613 2614 2615
589 16 2606 2605 2613
590 16 2622 2623 2624
591 16 2615 2614 2622
592 16 2631 2632 2633
593 16 2624 2623 2631
594 16 2640 2641 2642
595 16 2633 2632 2640
596 16 2649 2650 2651
597 16 2642 2641 2649
598 16 2658 2659 2660
599 16 2651 2650 2658
600 16 2667 2668 2669
601 16 2660 2659 2667
602 16 2676 2677 2678
603 16 2669 2668 2676
604 16 2685 2686 2687
605 16 2678 2677 2685
606 16 2694 2695 2696
607 16 2687 2686 2694
608 16 2696 2695 2703
609 16 2723 2724 2725
610 16 2713 2714 2723
611 16 2715 2714 2723
612 16 2732 2733 2734
613 16 2725 2724 2732
614 16 2741 2742 2743
615 16 2734 2733 2741
616 16 2750 2751 2752
617 16 2743 2742 2750
618 16 2759 2760 2761
619 16 2752 2751 2759
620 16 2768 2769 2770
621 16 2761 2760 2768
622 16 2777 2778 2779
623 16 2770 2769 2777
624 16 2786 2787 2788
625 16 2779 2778 2786
626 16 2795 2796 2797
627 16 2788 2787 2795
628 16 2804 2805 2806
629 16 2797 2796 2804
630 16 2813 2814 2815
631 16 2806 2805 2813
632 16 2822 2823 2824
633 16 2815 2814 2822
634 16 2831 2832 2833
635 16 2824 2823 2831
636 16 2840 2841 2842
637 16 2833 2832 2840
638 16 2849 2850 2851
639 16 2842 2841 2849
640 16 2858 2859 2860
641 16 2851 2850 2858
642 16 2867 2868 2869
643 16 2860 2859 2867
644 16 2876 2877 2878
645 16 2869 2868 2876
646 16 2885 2886 2887
647 16 2878 2877 2885
648 16 2894 2895 2896
649 16 2887 2886 2894
650 16 2903 2904 2905
651 16 2896 2895 2903
652 16 2912 2913 2914
653 16 2905 2904 2912
654 16 2921 2922 2923
655 16 2914 2913 2921
656 16 2930 2931 2932
657 16 2923 2922 2930
658 16 2939 2940 2941
659 16 2932 2931 2939
660 16 2948 2949 2950
661 16 2941 2940 2948
662 16 2957 2958 2959
663 16 2950 2949 2957
664 16 2966 2967 2968
665 16 2959 2958 2966
666 16 2975 2976 2977
667 16 2968 2967 2975
668 16 2984 2985 2986
669 16 2977 2976 2984
670 16 2993 2994 2995
671 16 2986 2985 2993
672 16 3002 3003 3004
673 16 2995 2994 3002
674 16 3011 3012 3013
675 16 3004 3003 3011
676 16 3020 3021 3022
677 16 3013 3012 3020
678 16 3029 3030 3031
679 16 3022 3021 3029
680 16 3038 3039 3040
681 16 3031 3030 3038
682 16 3047 3048 3049
683 16 3040 3039 3047
684 16 3056 3057 3058
685 16 3049 3048 3056
686 16 3065 3066 3067
687 16 3058 3057 3065
688 16 3074 3075 3076
689 16 3067 3066 3074
690 16 3083 3084 3085
691 16 3076 3075 3083
692 16 3092 3093 3094
693 16 3085 3084 3092
694 16 3101 3102 3103
695 16 3094 3093 3101
696 16 3110 3111 3112
697 16 3103 3102 3110
698 16 3119 3120 3121
699 16 3112 3111 3119
700 16 3128 3129 3130
701 16 3121 3120 3128
702 16 3137 3138 3139
703 16 3130 3129 3137
704 16 3146 3147 3148
705 16 3139 3138 3146
706 16 3148 3147 3155
707 16 3175 3176 3177
708 16 3165 3166 3175
709 16 3167 3166 3175
710 16 3184 3185 3186
711 16 3177 3176 3184
712 16 3193 3194 3195
713 16 3186 3185 3193
714 16 3202 3203 3204
715 16 3195 3194 3202
716 16 3211 3212 3213
717 16 3204 3203 3211
718 16 3220 3221 3222
719 16 3213 3212 3220
720 16 3229 3230 3231
721 16 3222 3221 3229
722 16 3238 3239 3240
723 16 3231 3230 3238
724 16 3247 3248 3249
725 16 3240 3239 3247
726 16 3256 3257 3258
727 16 3249 3248 3256
728 16 3265 3266 3267
729 16 3258 3257 3265
730 16 3274 3275 3276
731 16 3267 3266 3274
732 16 3283 3284 3285
733 16 3276 3275 3283
734 16 3292 3293 3294
735 16 3285 3284 3292
736 16 3301 3302 3303
737 16 3294 3293 3301
738 16 3310 3311 3312
739 16 3303 3302 3310
740 16 3319 3320 3321
741 16 3312 3311 3319
742 16 3328 3329 3330
743 16 3321 3320 3328
744 16 3337 3338 3339
745 16 3330 3329 3337
746 16 3346 3347 3348
747 16 3339 3338 3346
748 16 3355 3356 3357
749 16 3348 3347 3355
750 16 3364 3365 3366
751 16 3357 3356 3364
752 16 3373 3374 3375
753 16 3366 3365 3373
754 16 3382 3383 3384
755 16 3375 3374 3382
756 16 3391 3392 3393
757 16 3384 3383 3391
758 16 3400 3401 3402
759 16 3393 3392 3400
760 16 3409 3410 3411
761 16 3402 3401 3409
762 16 3418 3419 3420
763 16 3411 3410 3418
764 16 3427 3428 3429
765 16 3420 3419 3427
766 16 3436 3437 3438
767 16 3429 3428 3436
768 16 3445 3446 3447
769 16 3438 3437 3445
770 16 3454 3455 3456
771 16 3447 3446 3454
772 16 3463 3464 3465
773 16 3456 3455 3463
774 16 3472 3473 3474
775 16 3465 3464 3472
776 16 3481 3482 3483
777 16 3474 3473 3481
778 16 3490 3491 3492
779 16 3483 3482 3490
780 16 3499 3500 3501
781 16 3492 3491 3499
782 16 3508 3509 3510
783 16 3501 3500 3508
784 16 3517 3518 3519
785 16 3510 3509 3517
786 16 3526 3527 3528
787 16 3519 3518 3526
788 16 3535 3536 3537
789 16 3528 3527 3535
790 16 3544 3545 3546
791 16 3537 3536 3544
792 16 3553 3554 3555
793 16 3546 3545 3553
794 16 3562 3563 3564
795 16 3555 3554 3562
796 16 3571 3572 3573
797 16 3564 3563 3571
798 16 3580 3581 3582
799 16 3573 3572 3580
800 16 3589 3590 3591
801 16 3582 3581 3589
802 16 3598 3599 3600
803 16 3591 3590 3598
804 16 3600 3599 3607
805 16 3627 3628 3629
806 16 3617 3618 3627
807 16 3619 3618 3627
808 16 3636 3637 3638
809 16 3629 3628 3636
810 16 3645 3646 3647
811 16 3638 3637 3645
812 16 3654 3655 3656
813 16 3647 3646 3654
814 16 3663 3664 3665
815 16 3656 3655 3663
816 16 3672 3673 3674
817 16 3665 3664 3672
818 16 3681 3682 3683
819 16 3674 3673 3681
820 16 3690 3691 3692
821 16 3683 3682 3690
822 16 3699 3700 3701
823 16 3692 3691 3699
824 16 3708 3709 3710
825 16 3701 3700 3708
826 16 3717 3718 3719
827 16 3710 3709 3717
828 16 3726 3727 3728
829 16 3719 3718 3726
830 16 3735 3736 3737
831 16 3728 3727 3735
832 16 3744 3745 3746
833 16 3737 3736 3744
834 16 3753 3754 3755
835 16 3746 3745 3753
836 16 3762 3763 3764
837 16 3755 3754 3762
838 16 3771 3772 3773
839 16 3764 3763 3771
840 16 3780 3781 3782
841 16 3773 3772 3780
842 16 3789 3790 3791
843 16 3782 3781 3789
844 16 3798 3799 3800
845 16 3791 3790 3798
846 16 3807 3808 3809
847 16 3800 3799 3807
848 16 3816 3817 3818
849 16 3809 3808 3816
850 16 3825 3826 3827
851 16 3818 3817 3825
852 16 3834 3835 3836
853 16 3827 3826 3834
854 16 3843 3844 3845
855 16 3836 3835 3843
856 16 3852 3853 3854
857 16 3845 3844 3852
858 16 3861 3862 3863
859 16 3854 3853 3861
860 16 3870 3871 3872
861 16 3863 3862 3870
862 16 3879 3880 3881
863 16 3872 3871 3879
864 16 3888 3889 3890
865 16 3881 3880 3888
866 16 3897 3898 3899
867 16 3890 3889 3897
868 16 3906 3907 3908
869 16 3899 3898 3906
870 16 3915 3916 3917
871 16 3908 3907 3915
872 16 3924 3925 3926
873 16 3917 3916 3924
874 16 3933 3934 3935
875 16 3926 3925 3933
876 16 3942 3943 3944
877 16 3935 3934 3942
878 16 3951 3952 3953
879 16 3944 3943 3951
880 16 3960 3961 3962
881 16 3953 3952 3960
882 16 3969 3970 3971
883 16 3962 3961 3969
884 16 3978 3979 3980
885 16 3971 3970 3978
886 16 3987 3988 3989
887 16 3980 3979 3987
888 16 3996 3997 3998
889 16 3989 3988 3996
890 16 4005 4006 4007
891 16 3998 3997 4005
892 16 4014 4015 4016
893 16 4007 4006 4014
894 16 4023 4024 4025
895 16 4016 4015 4023
896 16 4032 4033 4034
897 16 4025 4024 4032
898 16 4041 4042 4043
899 16 4034 4033 4041
900 16 4050 4051 4052
901 16 4043 4042 4050
902 16 4052 4051 4059
903 16 4079 4080 4081
904 16 4069 4070 4079
905 16 4071 4070 4079
906 16 4088 4089 4090
907 16 4081 4080 4088
908 16 4097 4098 4099
909 16 4090 4089 4097
910 16 4106 4107 4108
911 16 4099 4098 4106
912 16 4115 4116 4117
913 16 4108 4107 4115
914 16 4124 4125 4126
915 16 4117 4116 4124
916 16 4133 4134 4135
917 16 4126 4125 4133
918 16 4142 4143 4144
919 16 4135 4134 4142
920 16 4151 4152 4153
921 16 4144 4143 4151
922 16 4160 4161 4162
923 16 4153 4152 4160
924 16 4169 4170 4171
925 16 4162 4161 4169
926 16 4178 4179 4180
927 16 4171 4170 4178
928 16 4187 4188 4189
929 16 4180 4179 4187
930 16 4196 4197 4198
931 16 4189 4188 4196
932 16 4205 4206 4207
933 16 4198 4197 4205
934 16 4214 4215 4216
935 16 4207 4206 4214
936 16 4223 4224 4225
937 16 4216 4215 4223
938 16 4232 4233 4234
939 16 4225 4224 4232
940 16 4241 4242 4243
941 16 4234 4233 4241
942 16 4250 4251 4252
943 16 4243 4242 4250
944 16 4259 4260 4261
945 16 4252 4251 4259
946 16 4268 4269 4270
947 16 4261 4260 4268
948 16 4277 4278 4279
949 16 4270 4269 4277
950 16 4286 4287 4288
951 16 4279 4278 4286
952 16 4295 4296 4297
953 16 4288 4287 4295
954 16 4304 4305 4306
955 16 4297 4296 4304
956 16 4313 4314 4315
957 16 4306 4305 4313
958 16 4322 4323 4324
959 16 4315 4314 4322
960 16 4331 4332 4333
961 16 4324 4323 4331
962 16 4340 4341 4342
963 16 4333 4332 4340
964 16 4349 4350 4351
965 16 4342 4341 4349
966 16 4358 4359 4360
967 16 4351 4350 4358
968 16 4367 4368 4369
969 16 4360 4359 4367
970 16 4376 4377 4378
971 16 4369 4368 4376
972 16 4385 4386 4387
973 16 4378 4377 4385
974 16 4394 4395 4396
975 16 4387 4386 4394
976 16 4403 4404 4405
977 16 4396 4395 4403
978 16 4412 4413 4414
979 16 4405 4404 4412
980 16 4421 4422 4423
981 16 4414 4413 4421
982 16 4430 4431 4432
983 16 4423 4422 4430
984 16 4439 4440 4441
985 16 4432 4431 4439
986 16 4448 4449 4450
987 16 4441 4440 4448
988 16 4457 4458 4459
989 16 4450 4449 4457
990 16 4466 4467 4468
991 16 4459 4458 4466
992 16 4475 4476 4477
993 16 4468 4467 4475
994 16 4484 4485 4486
995 16 4477 4476 4484
996 16 4493 4494 4495
997 16 4486 4485 4493
998 16 4502 4503 4504
999 16 4495 4494 4502
1000 16 4504 4503 4511
1001 17 11 12 20
1002 17 20 21 29
1003 17 29 30 38
1004 17 38 39 47
1005 17 47 48 56
1006 17 56 57 65
1007 17 65 66 74
1008 17 74 75 83
1009 17 83 84 92
1010 17 92 93 101
1011 17 101 102 110
1012 17 110 111 119
1013 17 119 120 128
1014 17 128 129 137
1015 17 137 138 146
1016 17 146 147 155
1017 17 155 156 164
1018 17 164 165 173
1019 17 173 174 182
1020 17 182 183 191
1021 17 191 192 200
1022 17 200 201 209
1023 17 209 210 218
1024 17 218 219 227
1025 17 227 228 236
1026 17 236 237 245
1027 17 245 246 254
1028 17 254 255 263
1029 17 263 264 272
1030 17 272 273 281
1031 17 281 282 290
1032 17 290 291 299
1033 17 299 300 308
1034 17 308 309 317
1035 17 317 318 326
1036 17 326 327 335
1037 17 335 336 344
1038 17 344 345 353
1039 17 353 354 362
1040 17 362 363 371
1041 17 371 372 380
1042 17 380 381 389
1043 17 389 390 398
1044 17 398 399 407
1045 17 407 408 416
1046 17 416 417 425
1047 17 425 426 434
1048 17 434 435 443
1049 17 463 464 472
1050 17 472 473 481
1051 17 481 482 490
1052 17 490 491 499
1053 17 499 500 508
1054 17 508 509 517
1055 17 517 518 526
1056 17 526 527 535
1057 17 535 536 544
1058 17 544 545 553
1059 17 553 554 562
1060 17 562 563 571
1061 17 571 572 580
1062 17 580 581 589
1063 17 589 590 598
1064 17 598 599 607
1065 17 607 608 616
1066 17 616 617 625
1067 17 625 626 634
1068 17 634 635 643
1069 17 643 644 652
1070 17 652 653 661
1071 17 661 662 670
1072 17 670 671 679
1073 17 679 680 688
1074 17 688 689 697
1075 17 697 698 706
1076 17 706 707 715
1077 17 715 716 724
1078 17 724 725 733
1079 17 733 734 742
1080 17 742 743 751
1081 17 751 752 760
1082 17 760 761 769
1083 17 769 770 778
1084 17 778 779 787
1085 17 787 788 796
1086 17 796 797 805
1087 17 805 806 814
1088 17 814 815 823
1089 17 823 824 832
1090 17 832 833 841
1091 17 841 842 850
1092 17 850 851 859
1093 17 859 860 868
1094 17 868 869 877
1095 17 877 878 886
1096 17 886 887 895
1097 17 915 916 924
1098 17 924 925 933
1099 17 933 934 942
1100 17 942 943 951
1101 17 951 952 960
1102 17 960 961 969
1103 17 969 970 978
1104 17 978 979 987
1105 17 987 988 996
1106 17 996 997 1005
1107 17 1005 1006 1014
1108 17 1014 1015 1023
1109 17 1023 1024 1032
1110 17 1032 1033 1041
1111 17 1041 1042 1050
1112 17 1050 1051 1059
1113 17 1059 1060 1068
1114 17 1068 1069 1077
1115 17 1077 1078 1086
1116 17 1086 1087 1095
1117 17 1095 1096 1104
1118 17 1104 1105 1113
1119 17 1113 1114 1122
1120 17 1122 1123 1131
1121 17 1131 1132 1140
1122 17 1140 1141 1149
1123 17 1149 1150 1158
1124 17 1158 1159 1167
1125 17 1167 1168 1176
1126 17 1176 1177 1185
1127 17 1185 1186 1194
1128 17 1194 1195 1203
1129 17 1203 1204 1212
1130 17 1212 1213 1221
1131 17 1221 1222 1230
1132 17 1230 1231 1239
1133 17 1239 1240 1248
1134 17 1248 1249 1257
1135 17 1257 1258 1266
1136 17 1266 1267 1275
1137 17 1275 1276 1284
1138 17 1284 1285 1293
1139 17 1293 1294 1302
1140 17 1302 1303 1311
1141 17 1311 1312 1320
1142 17 1320 1321 1329
1143 17 1329 1330 1338
1144 17 1338 1339 1347
1145 17 1367 1368 1376
1146 17 1376 1377 1385
1147 17 1385 1386 1394
1148 17 1394 1395 1403
1149 17 1403 1404 1412
1150 17 1412 1413 1421
1151 17 1421 1422 1430
1152 17 1430 1431 1439
1153 17 1439 1440 1448
1154 17 1448 1449 1457
1155 17 1457 1458 1466
1156 17 1466 1467 1475
1157 17 1475 1476 1484
1158 17 1484 1485 1493
1159 17 1493 1494 1502
1160 17 1502 1503 1511
1161 17 1511 1512 1520
1162 17 1520 1521 1529
1163 17 1529 1530 1538
1164 17 1538 1539 1547
1165 17 1547 1548 1556
1166 17 1556 1557 1565
1167 17 1565 1566 1574
1168 17 1574 1575 1583
1169 17 1583 1584 1592
1170 17 1592 1593 1601
1171 17 1601 1602 1610
1172 17 1610 1611 1619
1173 17 1619 1620 1628
1174 17 1628 1629 1637
1175 17 1637 1638 1646
1176 17 1646 1647 1655
1177 17 1655 1656 1664
1178 17 1664 1665 1673
1179 17 1673 1674 1682
1180 17 1682 1683 1691
1181 17 1691 1692 1700
1182 17 1700 1701 1709
1183 17 1709 1710 1718
1184 17 1718 1719 1727
1185 17 1727 1728 1736
1186 17 1736 1737 1745
1187 17 1745 1746 1754
1188 17 1754 1755 1763
1189 17 1763 1764 1772
1190 17 1772 1773 1781
1191 17 1781 1782 1790
1192 17 1790 1791 1799
1193 17 1819 1820 1828
1194 17 1828 1829 1837
1195 17 1837 1838 1846
1196 17 1846 1847 1855
1197 17 1855 1856 1864
1198 17 1864 1865 1873
1199 17 1873 1874 1882
1200 17 1882 1883 1891
1201 17 1891 1892 1900
1202 17 1900 1901 1909
1203 17 1909 1910 1918
1204 17 1918 1919 1927
1205 17 1927 1928 1936
1206 17 1936 1937 1945
1207 17 1945 1946 1954
1208 17 1954 1955 1963
1209 17 1963 1964 1972
1210 17 1972 1973 1981
1211 17 1981 1982 1990
1212 17 1990 1991 1999
1213 17 1999 2000 2008
1214 17 2008 2009 2017
1215 17 2017 2018 2026
1216 17 2026 2027 2035
1217 17 2035 2036 2044
1218 17 2044 2045 2053
1219 17 2053 2054 2062
1220 17 2062 2063 2071
1221 17 2071 2072 2080
1222 17 2080 2081 2089
1223 17 2089 2090 2098
1224 17 2098 2099 2107
1225 17 2107 2108 2116
1226 17 2116 2117 2125
1227 17 2125 2126 2134
1228 17 2134 2135 2143
1229 17 2143 2144 2152
1230 17 2152 2153 2161
1231 17 2161 2162 2170
1232 17 2170 2171 2179
1233 17 2179 2180 2188
1234 17 2188 2189 2197
1235 17 2197 2198 2206
1236 17 2206 2207 2215
1237 17 2215 2216 2224
1238 17 2224 2225 2233
1239 17 2233 2234 2242
1240 17 2242 2243 2251
1241 17 2271 2272 2280
1242 17 2280 2281 2289
1243 17 2289 2290 2298
1244 17 2298 2299 2307
1245 17 2307 2308 2316
1246 17 2316 2317 2325
1247 17 2325 2326 2334
1248 17 2334 2335 2343
1249 17 2343 2344 2352
1250 17 2352 2353 2361
1251 17 2361 2362 2370
1252 17 2370 2371 2379
1253 17 2379 2380 2388
1254 17 2388 2389 2397
1255 17 2397 2398 2406
1256 17 2406 2407 2415
1257 17 2415 2416 2424
1258 17 2424 2425 2433
1259 17 2433 2434 2442
1260 17 2442 2443 2451
1261 17 2451 2452 2460
1262 17 2460 2461 2469
1263 17 2469 2470 2478
1264 17 2478 2479 2487
1265 17 2487 2488 2496
1266 17 2496 2497 2505
1267 17 2505 2506 2514
1268 17 2514 2515 2523
1269 17 2523 2524 2532
1270 17 2532 2533 2541
1271 17 2541 2542 2550
1272 17 2550 2551 2559
1273 17 2559 2560 2568
1274 17 2568 2569 2577
1275 17 2577 2578 2586
1276 17 2586 2587 2595
1277 17 2595 2596 2604
1278 17 2604 2605 2613
1279 17 2613 2614 2622
1280 17 2622 2623 2631
1281 17 2631 2632 2640
1282 17 2640 2641 2649
1283 17 2649 2650 2658
1284 17 2658 2659 2667
1285 17 2667 2668 2676
1286 17 2676 2677 2685
1287 17 2685 2686 2694
1288 17 2694 2695 2703
1289 17 2723 2724 2732
1290 17 2732 2733 2741
1291 17 2741 2742 2750
1292 17 2750 2751 2759
1293 17 2759 2760 2768
1294 17 2768 2769 2777
1295 17 2777 2778 2786
1296 17 2786 2787 2795
1297 17 2795 2796 2804
1298 17 2804 2805 2813
1299 17 2813 2814 2822
1300 17 2822 2823 2831
1301 17 2831 2832 2840
1302 17 2840 2841 2849
1303 17 2849 2850 2858
1304 17 2858 2859 2867
1305 17 2867 2868 2876
1306 17 2876 2877 2885
1307 17 2885 2886 2894
1308 17 2894 2895 2903
1309 17 2903 2904 2912
1310 17 2912 2913 2921
1311 17 2921 2922 2930
1312 17 2930 2931 2939
1313 17 2939 2940 2948
1314 17 2948 2949 2957
1315 17 2957 2958 2966
1316 17 2966 2967 2975
1317 17 2975 2976 2984
1318 17 2984 2985 2993
1319 17 2993 2994 3002
1320 17 3002 3003 3011
1321 17 3011 3012 3020
1322 17 3020 3021 3029
1323 17 3029 3030 3038
1324 17 3038 3039 3047
1325 17 3047 3048 3056
1326 17 3056 3057 3065
1327 17 3065 3066 3074
1328 17 3074 3075 3083
1329 17 3083 3084 3092
1330 17 3092 3093 3101
1331 17 3101 3102 3110
1332 17 3110 3111 3119
1333 17 3119 3120 3128
1334 17 3128 3129 3137
1335 17 3137 3138 3146
1336 17 3146 3147 3155
1337 17 3175 3176 3184
1338 17 3184 3185 3193
1339 17 3193 3194 3202
1340 17 3202 3203 3211
1341 17 3211 3212 3220
1342 17 3220 3221 3229
1343 17 3229 3230 3238
1344 17 3238 3239 3247
1345 17 3247 3248 3256
1346 17 3256 3257 3265
1347 17 3265 3266 3274
1348 17 3274 3275 3283
1349 17 3283 3284 3292
1350 17 3292 3293 3301
1351 17 3301 3302 3310
1352 17 3310 3311 3319
1353 17 3319 3320 3328
1354 17 3328 3329 3337
1355 17 3337 3338 3346
1356 17 3346 3347 3355
1357 17 3355 3356 3364
1358 17 3364 3365 3373
1359 17 3373 3374 3382
1360 17 3382 3383 3391
1361 17 3391 3392 3400
1362 17 3400 3401 3409
1363 17 3409 3410 3418
1364 17 3418 3419 3427
1365 17 3427 3428 3436
1366 17 3436 3437 3445
1367 17 3445 3446 3454
1368 17 3454 3455 3463
1369 17 3463 3464 3472
1370 17 3472 3473 3481
1371 17 3481 3482 3490
1372 17 3490 3491 3499
1373 17 3499 3500 3508
1374 17 3508 3509 3517
1375 17 3517 3518 3526
1376 17 3526 3527 3535
1377 17 3535 3536 3544
1378 17 3544 3545 3553
1379 17 3553 3554 3562
1380 17 3562 3563 3571
1381 17 3571 3572 3580
1382 17 3580 3581 3589
1383 17 3589 3590 3598
1384 17 3598 3599 3607
1385 17 3627 3628 3636
1386 17 3636 3637 3645
1387 17 3645 3646 3654
1388 17 3654 3655 3663
1389 17 3663 3664 3672
1390 17 3672 3673 3681
1391 17 3681 3682 3690
1392 17 3690 3691 3699
1393 17 3699 3700 3708
1394 17 3708 3709 3717
1395 17 3717 3718 3726
1396 17 3726 3727 3735
1397 17 3735 3736 3744
1398 17 3744 3745 3753
1399 17 3753 3754 3762
1400 17 3762 3763 3771
1401 17 3771 3772 3780
1402 17 3780 3781 3789
1403 17 3789 3790 3798
1404 17 3798 3799 3807
1405 17 3807 3808 3816
1406 17 3816 3817 3825
1407 17 3825 3826 3834
1408 17 3834 3835 3843
1409 17 3843 3844 3852
1410 17 3852 3853 3861
1411 17 3861 3862 3870
1412 17 3870 3871 3879
1413 17 3879 3880 3888
1414 17 3888 3889 3897
1415 17 3897 3898 3906
1416 17 3906 3907 3915
1417 17 3915 3916 3924
1418 17 3924 3925 3933
1419 17 3933 3934 3942
1420 17 3942 3943 3951
1421 17 3951 3952 3960
1422 17 3960 3961 3969
1423 17 3969 3970 3978
1424 17 3978 3979 3987
1425 17 3987 3988 3996
1426 17 3996 3997 4005
1427 17 4005 4006 4014
1428 17 4014 4015 4023
1429 17 4023 4024 4032
1430 17 4032 4033 4041
1431 17 4041 4042 4050
1432 17 4050 4051 4059
1433 17 4079 4080 4088
1434 17 4088 4089 4097
1435 17 4097 4098 4106
1436 17 4106 4107 4115
1437 17 4115 4116 4124
1438 17 4124 4125 4133
1439 17 4133 4134 4142
1440 17 4142 4143 4151
1441 17 4151 4152 4160
1442 17 4160 4161 4169
1443 17 4169 4170 4178
1444 17 4178 4179 4187
1445 17 4187 4188 4196
1446 17 4196 4197 4205
1447 17 4205 4206 4214
1448 17 4214 4215 4223
1449 17 4223 4224 4232
1450 17 4232 4233 4241
1451 17 4241 4242 4250
1452 17 4250 4251 4259
1453 17 4259 4260 4268
1454 17 4268 4269 4277
1455 17 4277 4278 4286
1456 17 4286 4287 4295
1457 17 4295 4296 4304
1458 17 4304 4305 4313
1459 17 4313 4314 4322
1460 17 4322 4323 4331
1461 17 4331 4332 4340
1462 17 4340 4341 4349
1463 17 4349 4350 4358
1464 17 4358 4359 4367
1465 17 4367 4368 4376
1466 17 4376 4377 4385
1467 17 4385 4386 4394
1468 17 4394 4395 4403
1469 17 4403 4404 4412
1470 17 4412 4413 4421
1471 17 4421 4422 4430
1472 17 4430 4431 4439
1473 17 4439 4440 4448
1474 17 4448 4449 4457
1475 17 4457 4458 4466
1476 17 4466 4467 4475
1477 17 4475 4476 4484
1478 17 4484 4485 4493
1479 17 4493 4494 4502
1480 17 4502 4503 4511
1481 23 435 443 444
1482 23 887 895 896
1483 23 1339 1347 1348
1484 23 1791 1799 1800
1485 23 2243 2251 2252
1486 23 2695 2703 2704
1487 23 3147 3155 3156
1488 23 3599 3607 3608
1489 23 4051 4059 4060
1490 23 4503 4511 4512
1491 24 2 11 12
1492 24 12 20 21
1493 24 21 29 30
1494 24 30 38 39
1495 24 39 47 48
1496 24 48 56 57
1497 24 57 65 66
1498 24 66 74 75
1499 24 75 83 84
1500 24 84 92 93
1501 24 93 101 102
1502 24 102 110 111
1503 24 111 119 120
1504 24 120 128 129
1505 24 129 137 138
1506 24 138 146 147
1507 24 147 155 156
1508 24 156 164 165
1509 24 165 173 174
1510 24 174 182 183
1511 24 183 191 192
1512 24 192 200 201
1513 24 201 209 210
1514 24 210 218 219
1515 24 219 227 228
1516 24 228 236 237
1517 24 237 245 246
1518 24 246 254 255
1519 24 255 263 264
1520 24 264 272 273
1521 24 273 281 282
1522 24 282 290 291
1523 24 291 299 300
1524 24 300 308 309
1525 24 309 317 318
1526 24 318 326 327
1527 24 327 335 336
1528 24 336 344 345
1529 24 345 353 354
1530 24 354 362 363
1531 24 363 371 372
1532 24 372 380 381
1533 24 381 389 390
1534 24 390 398 399
1535 24 399 407 408
1536 24 408 416 417
1537 24 417 425 426
1538 24 426 434 435
1539 24 454 463 464
1540 24 464 472 473
1541 24 473 481 482
1542 24 482 490 491
1543 24 491 499 500
1544 24 500 508 509
1545 24 509 517 518
1546 24 518 526 527
1547 24 527 535 536
1548 24 536 544 545
1549 24 545 553 554
1550 24 554 562 563
1551 24 563 571 572
1552 24 572 580 581
1553 24 581 589 590
1554 24 590 598 599
1555 24 599 607 608
1556 24 608 616 617
1557 24 617 625 626
1558 24 626 634 635
1559 24 635 643 644
1560 24 644 652 653
1561 24 653 661 662
1562 24 662 670 671
1563 24 671 679 680
1564 24 680 688 689
1565 24 689 697 698
1566 24 698 706 707
1567 24 707 715 716
1568 24 716 724 725
1569 24 725 733 734
1570 24 734 742 743
1571 24 743 751 752
1572 24 752 760 761
1573 24 761 769 770
1574 24 770 778 779
1575 24 779 787 788
1576 24 788 796 797
1577 24 797 805 806
1578 24 806 814 815
1579 24 815 823 824
1580 24 824 832 833
1581 24 833 841 842
1582 24 842 850 851
1583 24 851 859 860
1584 24 860 868 869
1585 24 869 877 878
1586 24 878 886 887
1587 24 906 915 916
1588 24 916 924 925
1589 24 925 933 934
1590 24 934 942 943
1591 24 943 951 952
1592 24 952 960 961
1593 24 961 969 970
1594 24 970 978 979
1595 24 979 987 988
1596 24 988 996 997
1597 24 997 1005 1006
1598 24 1006 1014 1015
1599 24 1015 1023 1024
1600 24 1024 1032 1033
1601 24 1033 1041 1042
1602 24 1042 1050 1051
1603 24 1051 1059 1060
1604 24 1060 1068 1069
1605 24 1069 1077 1078
1606 24 1078 1086 1087
1607 24 1087 1095 1096
1608 24 1096 1104 1105
1609 24 1105 1113 1114
1610 24 1114 1122 1123
1611 24 1123 1131 1132
1612 24 1132 1140 1141
1613 24 1141 1149 1150
1614 24 1150 1158 1159
1615 24 1159 1167 1168
1616 24 1168 1176 1177
1617 24 1177 1185 1186
1618 24 1186 1194 1195
1619 24 1195 1203 1204
1620 24 1204 1212 1213
1621 24 1213 1221 1222
1622 24 1222 1230 1231
1623 24 1231 1239 1240
1624 24 1240 1248 1249
1625 24 1249 1257 1258
1626 24 1258 1266 1267
1627 24 1267 1275 1276
1628 24 1276 1284 1285
1629 24 1285 1293 1294
1630 24 1294 1302 1303
1631 24 1303 1311 1312
1632 24 1312 1320 1321
1633 24 1321 1329 1330
1634 24 1330 1338 1339
1635 24 1358 1367 1368
1636 24 1368 1376 1377
1637 24 1377 1385 1386
1638 24 1386 1394 1395
1639 24 1395 1403 1404
1640 24 1404 1412 1413
1641 24 1413 1421 1422
1642 24 1422 1430 1431
1643 24 1431 1439 1440
1644 24 1440 1448 1449
1645 24 1449 1457 1458
1646 24 1458 1466 1467
1647 24 1467 1475 1476
1648 24 1476 1484 1485
1649 24 1485 1493 1494
1650 24 1494 1502 1503
1651 24 1503 1511 1512
1652 24 1512 1520 1521
1653 24 1521 1529 1530
1654 24 1530 1538 1539
1655 24 1539 1547 1548
1656 24 1548 1556 1557
1657 24 1557 1565 1566
1658 24 1566 1574 1575
1659 24 1575 1583 1584
1660 24 1584 1592 1593
1661 24 1593 1601 1602
1662 24 1602 1610 1611
1663 24 1611 1619 1620
1664 24 1620 1628 1629
1665 24 1629 1637 1638
1666 24 1638 1646 1647
1667 24 1647 1655 1656
1668 24 1656 1664 1665
1669 24 1665 1673 1674
1670 24 1674 1682 1683
1671 24 1683 1691 1692
1672 24 1692 1700 1701
1673 24 1701 1709 1710
1674 24 1710 1718 1719
1675 24 1719 1727 1728
1676 24 1728 1736 1737
1677 24 1737 1745 1746
1678 24 1746 1754 1755
1679 24 1755 1763 1764
1680 24 1764 1772 1773
1681 24 1773 1781 1782
1682 24 1782 1790 1791
1683 24 1810 1819 1820
1684 24 1820 1828 1829
1685 24 1829 1837 1838
1686 24 1838 1846 1847
1687 24 1847 1855 1856
1688 24 1856 1864 1865
1689 24 1865 1873 1874
1690 24 1874 1882 1883
1691 24 1883 1891 1892
1692 24 1892 1900 1901
1693 24 1901 1909 1910
1694 24 1910 1918 1919
1695 24 1919 1927 1928
1696 24 1928 1936 1937
1697 24 1937 1945 1946
1698 24 1946 1954 1955
1699 24 1955 1963 1964
1700 24 1964 1972 1973
1701 24 1973 1981 1982
1702 24 1982 1990 1991
1703 24 1991 1999 2000
1704 24 2000 2008 2009
1705 24 2009 2017 2018
1706 24 2018 2026 2027
1707 24 2027 2035 2036
1708 24 2036 2044 2045
1709 24 2045 2053 2054
1710 24 2054 2062 2063
1711 24 2063 2071 2072
1712 24 2072 2080 2081
1713 24 2081 2089 2090
1714 24 2090 2098 2099
1715 24 2099 2107 2108
1716 24 2108 2116 2117
1717 24 2117 2125 2126
1718 24 2126 2134 2135
1719 24 2135 2143 2144
1720 24 2144 2152 2153
1721 24 2153 2161 2162
1722 24 2162 2170 2171
1723 24 2171 2179 2180
1724 24 2180 2188 2189
1725 24 2189 2197 2198
1726 24 2198 2206 2207
1727 24 2207 2215 2216
1728 24 2216 2224 2225
1729 24 2225 2233 2234
1730 24 2234 2242 2243
1731 24 2262 2271 2272
1732 24 2272 2280 2281
1733 24 2281 2289 2290
1734 24 2290 2298 2299
1735 24 2299 2307 2308
1736 24 2308 2316 2317
1737 24 2317 2325 2326
1738 24 2326 2334 2335
1739 24 2335 2343 2344
1740 24 2344 2352 2353
1741 24 2353 2361 2362
1742 24 2362 2370 2371
1743 24 2371 2379 2380
1744 24 2380 2388 2389
1745 24 2389 2397 2398
1746 24 2398 2406 2407
1747 24 2407 2415 2416
1748 24 2416 2424 2425
1749 24 2425 2433 2434
1750 24 2434 2442 2443
1751 24 2443 2451 2452
1752 24 2452 2460 2461
1753 24 2461 2469 2470
1754 24 2470 2478 2479
1755 24 2479 2487 2488
1756 24 2488 2496 2497
1757 24 2497 2505 2506
1758 24 2506 2514 2515
1759 24 2515 2523 2524
1760 24 2524 2532 2533
1761 24 2533 2541 2542
1762 24 2542 2550 2551
1763 24 2551 2559 2560
1764 24 2560 2568 2569
1765 24 2569 2577 2578
1766 24 2578 2586 2587
1767 24 2587 2595 2596
1768 24 2596 2604 2605
1769 24 2605 2613 2614
1770 24 2614 2622 2623
1771 24 2623 2631 2632
1772 24 2632 2640 2641
1773 24 2641 2649 2650
1774 24 2650 2658 2659
1775 24 2659 2667 2668
1776 24 2668 2676 2677
1777 24 2677 2685 2686
1778 24 2686 2694 2695
1779 24 2714 2723 2724
1780 24 2724 2732 2733
1781 24 2733 2741 2742
1782 24 2742 2750 2751
1783 24 2751 2759 2760
1784 24 2760 2768 2769
1785 24 2769 2777 2778
1786 24 2778 2786 2787
1787 24 2787 2795 2796
1788 24 2796 2804 2805
1789 24 2805 2813 2814
1790 24 2814 2822 2823
1791 24 2823 2831 2832
1792 24 2832 2840 2841
1793 24 2841 2849 2850
1794 24 2850 2858 2859
1795 24 2859 2867 2868
1796 24 2868 2876 2877
1797 24 2877 2885 2886
1798 24 2886 2894 2895
1799 24 2895 2903 2904
1800 24 2904 2912 2913
1801 24 2913 2921 2922
1802 24 2922 2930 2931
1803 24 2931 2939 2940
1804 24 2940 2948 2949
1805 24 2949 2957 2958
1806 24 2958 2966 2967
1807 24 2967 2975 2976
1808 24 2976 2984 2985
1809 24 2985 2993 2994
1810 24 2994 3002 3003
1811 24 3003 3011 3012
1812 24 3012 3020 3021
1813 24 3021 3029 3030
1814 24 3030 3038 3039
1815 24 3039 3047 3048
1816 24 3048 3056 3057
1817 24 3057 3065 3066
1818 24 3066 3074 3075
1819 24 3075 3083 3084
1820 24 3084 3092 3093
1821 24 3093 3101 3102
1822 24 3102 3110 3111
1823 24 3111 3119 3120
1824 24 3120 3128 3129
1825 24 3129 3137 3138
1826 24 3138 3146 3147
1827 24 3166 3175 3176
1828 24 3176 3184 3185
1829 24 3185 3193 3194
1830 24 3194 3202 3203
1831 24 3203 3211 3212
1832 24 3212 3220 3221
1833 24 3221 3229 3230
1834 24 3230 3238 3239
1835 24 3239 3247 3248
1836 24 3248 3256 3257
1837 24 3257 3265 3266
1838 24 3266 3274 3275
1839 24 3275 3283 3284
1840 24 3284 3292 3293
1841 24 3293 3301 3302
1842 24 3302 3310 3311
1843 24 3311 3319 3320
1844 24 3320 3328 3329
1845 24 3329 3337 3338
1846 24 3338 3346 3347
1847 24 3347 3355 3356
1848 24 3356 3364 3365
1849 24 3365 3373 3374
1850 24 3374 3382 3383
1851 24 3383 3391 3392
1852 24 3392 3400 3401
1853 24 3401 3409 3410
1854 24 3410 3418 3419
1855 24 3419 3427 3428
1856 24 3428 3436 3437
1857 24 3437 3445 3446
1858 24 3446 3454 3455
1859 24 3455 3463 3464
1860 24 3464 3472 3473
1861 24 3473 3481 3482
1862 24 3482 3490 3491
1863 24 3491 3499 3500
1864 24 3500 3508 3509
1865 24 3509 3517 3518
1866 24 3518 3526 3527
1867 24 3527 3535 3536
1868 24 3536 3544 3545
1869 24 3545 3553 3554
1870 24 3554 3562 3563
1871 24 3563 3571 3572
1872 24 3572 3580 3581
1873 24 3581 3589 3590
1874 24 3590 3598 3599
1875 24 3618 3627 3628
1876 24 3628 3636 3637
1877 24 3637 3645 3646
1878 24 3646 3654 3655
1879 24 3655 3663 3664
1880 24 3664 3672 3673
1881 24 3673 3681 3682
1882 24 3682 3690 3691
1883 24 3691 3699 3700
1884 24 3700 3708 3709
1885 24 3709 3717 3718
1886 24 3718 3726 3727
1887 24 3727 3735 3736
1888 24 3736 3744 3745
1889 24 3745 3753 3754
1890 24 3754 3762 3763
1891 24 3763 3771 3772
1892 24 3772 3780 3781
1893 24 3781 3789 3790
1894 24 3790 3798 3799
1895 24 3799 3807 3808
1896 24 3808 3816 3817
1897 24 3817 3825 3826
1898 24 3826 3834 3835
1899 24 3835 3843 3844
1900 24 3844 3852 3853
1901 24 3853 3861 3862
1902 24 3862 3870 3871
1903 24 3871 3879 3880
1904 24 3880 3888 3889
1905 24 3889 3897 3898
1906 24 3898 3906 3907
1907 24 3907 3915 3916
1908 24 3916 3924 3925
1909 24 3925 3933 3934
1910 24 3934 3942 3943
1911 24 3943 3951 3952
1912 24 3952 3960 3961
1913 24 3961 3969 3970
1914 24 3970 3978 3979
1915 24 3979 3987 3988
1916 24 3988 3996 3997
1917 24 3997 4005 4006
1918 24 4006 4014 4015
1919 24 4015 4023 4024
1920 24 4024 4032 4033
1921 24 4033 4041 4042
1922 24 4042 4050 4051
1923 24 4070 4079 4080
1924 24 4080 4088 4089
1925 24 4089 4097 4098
1926 24 4098 4106 4107
1927 24 4107 4115 4116
1928 24 4116 4124 4125
1929 24 4125 4133 4134
1930 24 4134 4142 4143
1931 24 4143 4151 4152
1932 24 4152 4160 4161
1933 24 4161 4169 4170
1934 24 4170 4178 4179
1935 24 4179 4187 4188
1936 24 4188 4196 4197
1937 24 4197 4205 4206
1938 24 4206 4214 4215
1939 24 4215 4223 4224
1940 24 4224 4232 4233
1941 24 4233 4241 4242
1942 24 4242 4250 4251
1943 24 4251 4259 4260
1944 24 4260 4268 4269
1945 24 4269 4277 4278
1946 24 4278 4286 4287
1947 24 4287 4295 4296
1948 24 4296 4304 4305
1949 24 4305 4313 4314
1950 24 4314 4322 4323
1951 24 4323 4331 4332
1952 24 4332 4340 4341
1953 24 4341 4349 4350
1954 24 4350 4358 4359
1955 24 4359 4367 4368
1956 24 4368 4376 4377
1957 24 4377 4385 4386
1958 24 4386 4394 4395
1959 24 4395 4403 4404
1960 24 4404 4412 4413
1961 24 4413 4421 4422
1962 24 4422 4430 4431
1963 24 4431 4439 4440
1964 24 4440 4448 4449
1965 24 4449 4457 4458
1966 24 4458 4466 4467
1967 24 4467 4475 4476
1968 24 4476 4484 4485
1969 24 4485 4493 4494
1970 24 4494 4502 4503
1971 28 4 1 5
1972 28 4 1 6
1973 28 5 1 6
1974 28 8 3 9
1975 28 8 3 10
1976 28 9 3 10
1977 28 17 13 18
1978 28 17 13 19
1979 28 18 13 19
1980 28 26 22 27
1981 28 26 22 28
1982 28 27 22 28
1983 28 35 31 36
1984 28 35 31 37
1985 28 36 31 37
1986 28 44 40 45
1987 28 44 40 46
1988 28 45 40 46
1989 28 53 49 54
1990 28 53 49 55
1991 28 54 49 55
1992 28 62 58 63
1993 28 62 58 64
1994 28 63 58 64
1995 28 71 67 72
1996 28 71 67 73
1997 28 72 67 73
1998 28 80 76 81
1999 28 80 76 82
2000 28 81 76 82
2001 28 89 85 90
2002 28 89 85 91
2003 28 90 85 91
2004 28 98 94 99
2005 28 98 94 100
2006 28 99 94 100
2007 28 107 103 108
2008 28 107 103 109
2009 28 108 103 109
2010 28 116 112 117
2011 28 116 112 118
2012 28 117 112 118
2013 28 125 121 126
2014 28 125 121 127
2015 28 126 121 127
2016 28 134 130 135
2017 28 134 130 136
2018 28 135 130 136
2019 28 143 139 144
2020 28 143 139 145
2021 28 144 139 145
2022 28 152 148 153
2023 28 152 148 154
2024 28 153 148 154
2025 28 161 157 162
2026 28 161 157 163
2027 28 162 157 163
2028 28 170 166 171
2029 28 170 166 172
2030 28 171 166 172
2031 28 179 175 180
2032 28 179 175 181
2033 28 180 175 181
2034 28 188 184 189
2035 28 188 184 190
2036 28 189 184 190
2037 28 197 193 198
2038 28 197 193 199
2039 28 198 193 199
2040 28 206 202 207
2041 28 206 202 208
2042 28 207 202 208
2043 28 215 211 216
2044 28 215 211 217
2045 28 216 211 217
2046 28 224 220 225
2047 28 224 220 226
2048 28 225 220 226
2049 28 233 229 234
2050 28 233 229 235
2051 28 234 229 235
2052 28 242 238 243
2053 28 242 238 244
2054 28 243 238 244
2055 28 251 247 252
2056 28 251 247 253
2057 28 252 247 253
2058 28 260 256 261
2059 28 260 256 262
2060 28 261 256 262
2061 28 269 265 270
2062 28 269 265 271
2063 28 270 265 271
2064 28 278 274 279
2065 28 278 274 280
2066 28 279 274 280
2067 28 287 283 288
2068 28 287 283 289
2069 28 288 283 289
2070 28 296 292 297
2071 28 296 292 298
2072 28 297 292 298
2073 28 305 301 306
2074 28 305 301 307
2075 28 306 301 307
2076 28 314 310 315
2077 28 314 310 316
2078 28 315 310 316
2079 28 323 319 324
2080 28 323 319 325
2081 28 324 319 325
2082 28 332 328 333
2083 28 332 328 334
2084 28 333 328 334
2085 28 341 337 342
2086 28 341 337 343
2087 28 342 337 343
2088 28 350 346 351
2089 28 350 346 352
2090 28 351 346 352
2091 28 359 355 360
2092 28 359 355 361
2093 28 360 355 361
2094 28 368 364 369
2095 28 368 364 370
2096 28 369 364 370
2097 28 377 373 378
2098 28 377 373 379
2099 28 378 373 379
2100 28 386 382 387
2101 28 386 382 388
2102 28 387 382 388
2103 28 395 391 396
2104 28 395 391 397
2105 28 396 391 397
2106 28 404 400 405
2107 28 404 400 406
2108 28 405 400 406
2109 28 413 409 414
2110 28 413 409 415
2111 28 414 409 415
2112 28 422 418 423
2113 28 422 418 424
2114 28 423 418 424
2115 28 431 427 432
2116 28 431 427 433
2117 28 432 427 433
2118 28 440 436 441
2119 28 440 436 442
2120 28 441 436 442
2121 28 450 445 451
2122 28 450 445 452
2123 28 451 445 452
2124 28 456 453 457
2125 28 456 453 458
2126 28 457 453 458
2127 28 460 455 461
2128 28 460 455 462
2129 28 461 455 462
2130 28 469 465 470
2131 28 469 465 471
2132 28 470 465 471
2133 28 478 474 479
2134 28 478 474 480
2135 28 479 474 480
2136 28 487 483 488
2137 28 487 483 489
2138 28 488 483 489
2139 28 496 492 497
2140 28 496 492 498
2141 28 497 492 498
2142 28 505 501 506
2143 28 505 501 507
2144 28 506 501 507
2145 28 514 510 515
2146 28 514 510 516
2147 28 515 510 516
2148 28 523 519 524
2149 28 523 519 525
2150 28 524 519 525
2151 28 532 528 533
2152 28 532 528 534
2153 28 533 528 534
2154 28 541 537 542
2155 28 541 537 543
2156 28 542 537 543
2157 28 550 546 551
2158 28 550 546 552
2159 28 551 546 552
2160 28 559 555 560
2161 28 559 555 561
2162 28 560 555 561
2163 28 568 564 569
2164 28 568 564 570
2165 28 569 564 570
2166 28 577 573 578
2167 28 577 573 579
2168 28 578 573 579
2169 28 586 582 587
2170 28 586 582 588
2171 28 587 582 588
2172 28 595 591 596
2173 28 595 591 597
2174 28 596 591 597
2175 28 604 600 605
2176 28 604 600 606
2177 28 605 600 606
2178 28 613 609 614
2179 28 613 609 615
2180 28 614 609 615
2181 28 622 618 623
2182 28 622 618 624
2183 28 623 618 624
2184 28 631 627 632
2185 28 631 627 633
2186 28 632 627 633
2187 28 640 636 641
2188 28 640 636 642
2189 28 641 636 642
2190 28 649 645 650
2191 28 649 645 651
2192 28 650 645 651
2193 28 658 654 659
2194 28 658 654 660
2195 28 659 654 660
2196 28 667 663 668
2197 28 667 663 669
2198 28 668 663 669
2199 28 676 672 677
2200 28 676 672 678
2201 28 677 672 678
2202 28 685 681 686
2203 28 685 681 687
2204 28 686 681 687
2205 28 694 690 695
2206 28 694 690 696
2207 28 695 690 696
2208 28 703 699 704
2209 28 703 699 705
2210 28 704 699 705
2211 28 712 708 713
2212 28 712 708 714
2213 28 713 708 714
2214 28 721 717 722
2215 28 721 717 723
2216 28 722 717 723
2217 28 730 726 731
2218 28 730 726 732
2219 28 731 726 732
2220 28 739 735 740
2221 28 739 735 741
2222 28 740 735 741
2223 28 748 744 749
2224 28 748 744 750
2225 28 749 744 750
2226 28 757 753 758
2227 28 757 753 759
2228 28 758 753 759
2229 28 766 762 767
2230 28 766 762 768
2231 28 767 762 768
2232 28 775 771 776
2233 28 775 771 777
2234 28 776 771 777
2235 28 784 780 785
2236 28 784 780 786
2237 28 785 780 786
2238 28 793 789 794
2239 28 793 789 795
2240 28 794 789 795
2241 28 802 798 803
2242 28 802 798 804
2243 28 803 798 804
2244 28 811 807 812
2245 28 811 807 813
2246 28 812 807 813
2247 28 820 816 821
2248 28 820 816 822
2249 28 821 816 822
2250 28 829 825 830
2251 28 829 825 831
2252 28 830 825 831
2253 28 838 834 839
2254 28 838 834 840
2255 28 839 834 840
2256 28 847 843 848
2257 28 847 843 849
2258 28 848 843 849
2259 28 856 852 857
2260 28 856 852 858
2261 28 857 852 858
2262 28 865 861 866
2263 28 865 861 867
2264 28 866 861 867
2265 28 874 870 875
2266 28 874 870 876
2267 28 875 870 876
2268 28 883 879 884
2269 28 883 879 885
2270 28 884 879 885
2271 28 892 888 893
2272 28 892 888 894
2273 28 893 888 894
2274 28 902 897 903
2275 28 902 897 904
2276 28 903 897 904
2277 28 908 905 909
2278 28 908 905 910
2279 28 909 905 910
2280 28 912 907 913
2281 28 912 907 914
2282 28 913 907 914
2283 28 921 917 922
2284 28 921 917 923
2285 28 922 917 923
2286 28 930 926 931
2287 28 930 926 932
2288 28 931 926 932
2289 28 939 935 940
2290 28 939 935 941
2291 28 940 935 941
2292 28 948 944 949
2293 28 948 944 950
2294 28 949 944 950
2295 28 957 953 958
2296 28 957 953 959
2297 28 958 953 959
2298 28 966 962 967
2299 28 966 962 968
2300 28 967 962 968
2301 28 975 971 976
2302 28 975 971 977
2303 28 976 971 977
2304 28 984 980 985
2305 28 984 980 986
2306 28 985 980 986
2307 28 993 989 994
2308 28 993 989 995
2309 28 994 989 995
2310 28 1002 998 1003
2311 28 1002 998 1004
2312 28 1003 998 1004
2313 28 1011 1007 1012
2314 28 1011 1007 1013
2315 28 1012 1007 1013
2316 28 1020 1016 1021
2317 28 1020 1016 1022
2318 28 1021 1016 1022
2319 28 1029 1025 1030
2320 28 1029 1025 1031
2321 28 1030 1025 1031
2322 28 1038 1034 1039
2323 28 1038 1034 1040
2324 28 1039 1034 1040
2325 28 1047 1043 1048
2326 28 1047 1043 1049
2327 28 1048 1043 1049
2328 28 1056 1052 1057
2329 28 1056 1052 1058
2330 28 1057 1052 1058
2331 28 1065 1061 1066
2332 28 1065 1061 1067
2333 28 1066 1061 1067
2334 28 1074 1070 1075
2335 28 1074 1070 1076
2336 28 1075 1070 1076
2337 28 1083 1079 1084
2338 28 1083 1079 1085
2339 28 1084 1079 1085
2340 28 1092 1088 1093
2341 28 1092 1088 1094
2342 28 1093 1088 1094
2343 28 1101 1097 1102
2344 28 1101 1097 1103
2345 28 1102 1097 1103
2346 28 1110 1106 1111
2347 28 1110 1106 1112
2348 28 1111 1106 1112
2349 28 1119 1115 1120
2350 28 1119 1115 1121
2351 28 1120 1115 1121
2352 28 1128 1124 1129
2353 28 1128 1124 1130
2354 28 1129 1124 1130
2355 28 1137 1133 1138
2356 28 1137 1133 1139
2357 28 1138 1133 1139
2358 28 1146 1142 1147
2359 28 1146 1142 1148
2360 28 1147 1142 1148
2361 28 1155 1151 1156
2362 28 1155 1151 1157
2363 28 1156 1151 1157
2364 28 1164 1160 1165
2365 28 1164 1160 1166
2366 28 1165 1160 1166
2367 28 1173 1169 1174
2368 28 1173 1169 1175
2369 28 1174 1169 1175
2370 28 1182 1178 1183
2371 28 1182 1178 1184
2372 28 1183 1178 1184
2373 28 1191 1187 1192
2374 28 1191 1187 1193
2375 28 1192 1187 1193
2376 28 1200 1196 1201
2377 28 1200 1196 1202
2378 28 1201 1196 1202
2379 28 1209 1205 1210
2380 28 1209 1205 1211
2381 28 1210 1205 1211
2382 28 1218 1214 1219
2383 28 1218 1214 1220
2384 28 1219 1214 1220
2385 28 1227 1223 1228
2386 28 1227 1223 1229
2387 28 1228 1223 1229
2388 28 1236 1232 1237
2389 28 1236 1232 1238
2390 28 1237 1232 1238
2391 28 1245 1241 1246
2392 28 1245 1241 1247
2393 28 1246 1241 1247
2394 28 1254 1250 1255
2395 28 1254 1250 1256
2396 28 1255 1250 1256
2397 28 1263 1259 1264
2398 28 1263 1259 1265
2399 28 1264 1259 1265
2400 28 1272 1268 1273
2401 28 1272 1268 1274
2402 28 1273 1268 1274
2403 28 1281 1277 1282
2404 28 1281 1277 1283
2405 28 1282 1277 1283
2406 28 1290 1286 1291
2407 28 1290 1286 1292
2408 28 1291 1286 1292
2409 28 1299 1295 1300
2410 28 1299 1295 1301
2411 28 1300 1295 1301
2412 28 1308 1304 1309
2413 28 1308 1304 1310
2414 28 1309 1304 1310
2415 28 1317 1313 1318
2416 28 1317 1313 1319
2417 28 1318 1313 1319
2418 28 1326 1322 1327
2419 28 1326 1322 1328
2420 28 1327 1322 1328
2421 28 1335 1331 1336
2422 28 1335 1331 1337
2423 28 1336 1331 1337
2424 28 1344 1340 1345
2425 28 1344 1340 1346
2426 28 1345 1340 1346
2427 28 1354 1349 1355
2428 28 1354 1349 1356
2429 28 1355 1349 1356
2430 28 1360 1357 1361
2431 28 1360 1357 1362
2432 28 1361 1357 1362
2433 28 1364 1359 1365
2434 28 1364 1359 1366
2435 28 1365 1359 1366
2436 28 1373 1369 1374
2437 28 1373 1369 1375
2438 28 1374 1369 1375
2439 28 1382 1378 1383
2440 28 1382 1378 1384
2441 28 1383 1378 1384
2442 28 1391 1387 1392
2443 28 1391 1387 1393
2444 28 1392 1387 1393
2445 28 1400 1396 1401
2446 28 1400 1396 1402
2447 28 1401 1396 1402
2448 28 1409 1405 1410
2449 28 1409 1405 1411
2450 28 1410 1405 1411
2451 28 1418 1414 1419
2452 28 1418 1414 1420
2453 28 1419 1414 1420
2454 28 1427 1423 1428
2455 28 1427 1423 1429
2456 28 1428 1423 1429
2457 28 1436 1432 1437
2458 28 1436 1432 1438
2459 28 1437 1432 1438
2460 28 1445 1441 1446
2461 28 1445 1441 1447
2462 28 1446 1441 1447
2463 28 1454 1450 1455
2464 28 1454 1450 1456
2465 28 1455 1450 1456
2466 28 1463 1459 1464
2467 28 1463 1459 1465
2468 28 1464 1459 1465
2469 28 1472 1468 1473
2470 28 1472 1468 1474
2471 28 1473 1468 1474
2472 28 1481 1477 1482
2473 28 1481 1477 1483
2474 28 1482 1477 1483
2475 28 1490 1486 1491
2476 28 1490 1486 1492
2477 28 1491 1486 1492
2478 28 1499 1495 1500
2479 28 1499 1495 1501
2480 28 1500 1495 1501
2481 28 1508 1504 1509
2482 28 1508 1504 1510
2483 28 1509 1504 1510
2484 28 1517 1513 1518
2485 28 1517 1513 1519
2486 28 1518 1513 1519
2487 28 1526 1522 1527
2488 28 1526 1522 1528
2489 28 1527 1522 1528
2490 28 1535 1531 1536
2491 28 1535 1531 1537
2492 28 1536 1531 1537
2493 28 1544 1540 1545
2494 28 1544 1540 1546
2495 28 1545 1540 1546
2496 28 1553 1549 1554
2497 28 1553 1549 1555
2498 28 1554 1549 1555
2499 28 1562 1558 1563
2500 28 1562 1558 1564
2501 28 1563 1558 1564
2502 28 1571 1567 1572
2503 28 1571 1567 1573
2504 28 1572 1567 1573
2505 28 1580 1576 1581
2506 28 1580 1576 1582
2507 28 1581 1576 1582
2508 28 1589 1585 1590
2509 28 1589 1585 1591
2510 28 1590 1585 1591
2511 28 1598 1594 1599
2512 28 1598 1594 1600
2513 28 1599 1594 1600
2514 28 1607 1603 1608
2515 28 1607 1603 1609
2516 28 1608 1603 1609
2517 28 1616 1612 1617
2518 28 1616 1612 1618
2519 28 1617 1612 1618
2520 28 1625 1621 1626
2521 28 1625 1621 1627
2522 28 1626 1621 1627
2523 28 1634 1630 1635
2524 28 1634 1630 1636
2525 28 1635 1630 1636
2526 28 1643 1639 1644
2527 28 1643 1639 1645
2528 28 1644 1639 1645
2529 28 1652 1648 1653
2530 28 1652 1648 1654
2531 28 1653 1648 1654
2532 28 1661 1657 1662
2533 28 1661 1657 1663
2534 28 1662 1657 1663
2535 28 1670 1666 1671
2536 28 1670 1666 1672
2537 28 1671 1666 1672
2538 28 1679 1675 1680
2539 28 1679 1675 1681
2540 28 1680 1675 1681
2541 28 1688 1684 1689
2542 28 1688 1684 1690
2543 28 1689 1684 1690
2544 28 1697 1693 1698
2545 28 1697 1693 1699
2546 28 1698 1693 1699
2547 28 1706 1702 1707
2548 28 1706 1702 1708
2549 28 1707 1702 1708
2550 28 1715 1711 1716
2551 28 1715 1711 1717
2552 28 1716 1711 1717
2553 28 1724 1720 1725
2554 28 1724 1720 1726
2555 28 1725 1720 1726
2556 28 1733 1729 1734
2557 28 1733 1729 1735
2558 28 1734 1729 1735
2559 28 1742 1738 1743
2560 28 1742 1738 1744
2561 28 1743 1738 1744
2562 28 1751 1747 1752
2563 28 1751 1747 1753
2564 28 1752 1747 1753
2565 28 1760 1756 1761
2566 28 1760 1756 1762
2567 28 1761 1756 1762
2568 28 1769 1765 1770
2569 28 1769 1765 1771
2570 28 1770 1765 1771
2571 28 1778 1774 1779
2572 28 1778 1774 1780
2573 28 1779 1774 1780
2574 28 1787 1783 1788
2575 28 1787 1783 1789
2576 28 1788 1783 1789
2577 28 1796 1792 1797
2578 28 1796 1792 1798
2579 28 1797 1792 1798
2580 28 1806 1801 1807
2581 28 1806 1801 1808
2582 28 1807 1801 1808
2583 28 1812 1809 1813
2584 28 1812 1809 1814
2585 28 1813 1809 1814
2586 28 1816 1811 1817
2587 28 1816 1811 1818
2588 28 1817 1811 1818
2589 28 1825 1821 1826
2590 28 1825 1821 1827
2591 28 1826 1821 1827
2592 28 1834 1830 1835
2593 28 1834 1830 1836
2594 28 1835 1830 1836
2595 28 1843 1839 1844
2596 28 1843 1839 1845
2597 28 1844 1839 1845
2598 28 1852 1848 1853
2599 28 1852 1848 1854
2600 28 1853 1848 1854
2601 28 1861 1857 1862
2602 28 1861 1857 1863
2603 28 1862 1857 1863
2604 28 1870 1866 1871
2605 28 1870 1866 1872
2606 28 1871 1866 1872
2607 28 1879 1875 1880
2608 28 1879 1875 1881
2609 28 1880 1875 1881
2610 28 1888 1884 1889
2611 28 1888 1884 1890
2612 28 1889 1884 1890
2613 28 1897 1893 1898
2614 28 1897 1893 1899
2615 28 1898 1893 1899
2616 28 1906 1902 1907
2617 28 1906 1902 1908
2618 28 1907 1902 1908
2619 28 1915 1911 1916
2620 28 1915 1911 1917
2621 28 1916 1911 1917
2622 28 1924 1920 1925
2623 28 1924 1920 1926
2624 28 1925 1920 1926
2625 28 1933 1929 1934
2626 28 1933 1929 1935
2627 28 1934 1929 1935
2628 28 1942 1938 1943
2629 28 1942 1938 1944
2630 28 1943 1938 1944
2631 28 1951 1947 1952
2632 28 1951 1947 1953
2633 28 1952 1947 1953
2634 28 1960 1956 1961
2635 28 1960 1956 1962
2636 28 1961 1956 1962
2637 28 1969 1965 1970
2638 28 1969 1965 1971
2639 28 1970 1965 1971
2640 28 1978 1974 1979
2641 28 1978 1974 1980
2642 28 1979 1974 1980
2643 28 1987 1983 1988
2644 28 1987 1983 1989
2645 28 1988 1983 1989
2646 28 1996 1992 1997
2647 28 1996 1992 1998
2648 28 1997 1992 1998
2649 28 2005 2001 2006
2650 28 2005 2001 2007
2651 28 2006 2001 2007
2652 28 2014 2010 2015
2653 28 2014 2010 2016
2654 28 2015 2010 2016
2655 28 2023 2019 2024
2656 28 2023 2019 2025
2657 28 2024 2019 2025
2658 28 2032 2028 2033
2659 28 2032 2028 2034
2660 28 2033 2028 2034
2661 28 2041 2037 2042
2662 28 2041 2037 2043
2663 28 2042 2037 2043
2664 28 2050 2046 2051
2665 28 2050 2046 2052
2666 28 2051 2046 2052
2667 28 2059 2055 2060
2668 28 2059 2055 2061
2669 28 2060 2055 2061
2670 28 2068 2064 2069
2671 28 2068 2064 2070
2672 28 2069 2064 2070
2673 28 2077 2073 2078
2674 28 2077 2073 2079
2675 28 2078 2073 2079
2676 28 2086 2082 2087
2677 28 2086 2082 2088
2678 28 2087 2082 2088
2679 28 2095 2091 2096
2680 28 2095 2091 2097
2681 28 2096 2091 2097
2682 28 2104 2100 2105
2683 28 2104 2100 2106
2684 28 2105 2100 2106
2685 28 2113 2109 2114
2686 28 2113 2109 2115
2687 28 2114 2109 2115
2688 28 2122 2118 2123
2689 28 2122 2118 2124
2690 28 2123 2118 2124
2691 28 2131 2127 2132
2692 28 2131 2127 2133
2693 28 2132 2127 2133
2694 28 2140 2136 2141
2695 28 2140 2136 2142
2696 28 2141 2136 2142
2697 28 2149 2145 2150
2698 28 2149 2145 2151
2699 28 2150 2145 2151
2700 28 2158 2154 2159
2701 28 2158 2154 2160
2702 28 2159 2154 2160
2703 28 2167 2163 2168
2704 28 2167 2163 2169
2705 28 2168 2163 2169
2706 28 2176 2172 2177
2707 28 2176 2172 2178
2708 28 2177 2172 2178
2709 28 2185 2181 2186
2710 28 2185 2181 2187
2711 28 2186 2181 2187
2712 28 2194 2190 2195
2713 28 2194 2190 2196
2714 28 2195 2190 2196
2715 28 2203 2199 2204
2716 28 2203 2199 2205
2717 28 2204 2199 2205
2718 28 2212 2208 2213
2719 28 2212 2208 2214
2720 28 2213 2208 2214
2721 28 2221 2217 2222
2722 28 2221 2217 2223
2723 28 2222 2217 2223
2724 28 2230 2226 2231
2725 28 2230 2226 2232
2726 28 2231 2226 2232
2727 28 2239 2235 2240
2728 28 2239 2235 2241
2729 28 2240 2235 2241
2730 28 2248 2244 2249
2731 28 2248 2244 2250
2732 28 2249 2244 2250
2733 28 2258 2253 2259
2734 28 2258 2253 2260
2735 28 2259 2253 2260
2736 28 2264 2261 2265
2737 28 2264 2261 2266
2738 28 2265 2261 2266
2739 28 2268 2263 2269
2740 28 2268 2263 2270
2741 28 2269 2263 2270
2742 28 2277 2273 2278
2743 28 2277 2273 2279
2744 28 2278 2273 2279
2745 28 2286 2282 2287
2746 28 2286 2282 2288
2747 28 2287 2282 2288
2748 28 2295 2291 2296
2749 28 2295 2291 2297
2750 28 2296 2291 2297
2751 28 2304 2300 2305
2752 28 2304 2300 2306
2753 28 2305 2300 2306
2754 28 2313 2309 2314
2755 28 2313 2309 2315
2756 28 2314 2309 2315
2757 28 2322 2318 2323
2758 28 2322 2318 2324
2759 28 2323 2318 2324
2760 28 2331 2327 2332
2761 28 2331 2327 2333
2762 28 2332 2327 2333
2763 28 2340 2336 2341
2764 28 2340 2336 2342
2765 28 2341 2336 2342
2766 28 2349 2345 2350
2767 28 2349 2345 2351
2768 28 2350 2345 2351
2769 28 2358 2354 2359
2770 28 2358 2354 2360
2771 28 2359 2354 2360
2772 28 2367 2363 2368
2773 28 2367 2363 2369
2774 28 2368 2363 2369
2775 28 2376 2372 2377
2776 28 2376 2372 2378
2777 28 2377 2372 2378
2778 28 2385 2381 2386
2779 28 2385 2381 2387
2780 28 2386 2381 2387
2781 28 2394 2390 2395
2782 28 2394 2390 2396
2783 28 2395 2390 2396
2784 28 2403 2399 2404
2785 28 2403 2399 2405
2786 28 2404 2399 2405
2787 28 2412 2408 2413
2788 28 2412 2408 2414
2789 28 2413 2408 2414
2790 28 2421 2417 2422
2791 28 2421 2417 2423
2792 28 2422 2417 2423
2793 28 2430 2426 2431
2794 28 2430 2426 2432
2795 28 2431 2426 2432
2796 28 2439 2435 2440
2797 28 2439 2435 2441
2798 28 2440 2435 2441
2799 28 2448 2444 2449
2800 28 2448 2444 2450
2801 28 2449 2444 2450
2802 28 2457 2453 2458
2803 28 2457 2453 2459
2804 28 2458 2453 2459
2805 28 2466 2462 2467
2806 28 2466 2462 2468
2807 28 2467 2462 2468
2808 28 2475 2471 2476
2809 28 2475 2471 2477
2810 28 2476 2471 2477
2811 28 2484 2480 2485
2812 28 2484 2480 2486
2813 28 2485 2480 2486
2814 28 2493 2489 2494
2815 28 2493 2489 2495
2816 28 2494 2489 2495
2817 28 2502 2498 2503
2818 28 2502 2498 2504
2819 28 2503 2498 2504
2820 28 2511 2507 2512
2821 28 2511 2507 2513
2822 28 2512 2507 2513
2823 28 2520 2516 2521
2824 28 2520 2516 2522
2825 28 2521 2516 2522
2826 28 2529 2525 2530
2827 28 2529 2525 2531
2828 28 2530 2525 2531
2829 28 2538 2534 2539
2830 28 2538 2534 2540
2831 28 2539 2534 2540
2832 28 2547 2543 2548
2833 28 2547 2543 2549
2834 28 2548 2543 2549
2835 28 2556 2552 2557
2836 28 2556 2552 2558
2837 28 2557 2552 2558
2838 28 2565 2561 2566
2839 28 2565 2561 2567
2840 28 2566 2561 2567
2841 28 2574 2570 2575
2842 28 2574 2570 2576
2843 28 2575 2570 2576
2844 28 2583 2579 2584
2845 28 2583 2579 2585
2846 28 2584 2579 2585
2847 28 2592 2588 2593
2848 28 2592 2588 2594
2849 28 2593 2588 2594
2850 28 2601 2597 2602
2851 28 2601 2597 2603
2852 28 2602 2597 2603
2853 28 2610 2606 2611
2854 28 2610 2606 2612
2855 28 2611 2606 2612
2856 28 2619 2615 2620
2857 28 2619 2615 2621
2858 28 2620 2615 2621
2859 28 2628 2624 2629
2860 28 2628 2624 2630
2861 28 2629 2624 2630
2862 28 2637 2633 2638
2863 28 2637 2633 2639
2864 28 2638 2633 2639
2865 28 2646 2642 2647
2866 28 2646 2642 2648
2867 28 2647 2642 2648
2868 28 2655 2651 2656
2869 28 2655 2651 2657
2870 28 2656 2651 2657
2871 28 2664 2660 2665
2872 28 2664 2660 2666
2873 28 2665 2660 2666
2874 28 2673 2669 2674
2875 28 2673 2669 2675
2876 28 2674 2669 2675
2877 28 2682 2678 2683
2878 28 2682 2678 2684
2879 28 2683 2678 2684
2880 28 2691 2687 2692
2881 28 2691 2687 2693
2882 28 2692 2687 2693
2883 28 2700 2696 2701
2884 28 2700 2696 2702
2885 28 2701 2696 2702
2886 28 2710 2705 2711
2887 28 2710 2705 2712
2888 28 2711 2705 2712
2889 28 2716 2713 2717
2890 28 2716 2713 2718
2891 28 2717 2713 2718
2892 28 2720 2715 2721
2893 28 2720 2715 2722
2894 28 2721 2715 2722
2895 28 2729 2725 2730
2896 28 2729 2725 2731
2897 28 2730 2725 2731
2898 28 2738 2734 2739
2899 28 2738 2734 2740
2900 28 2739 2734 2740
2901 28 2747 2743 2748
2902 28 2747 2743 2749
2903 28 2748 2743 2749
2904 28 2756 2752 2757
2905 28 2756 2752 2758
2906 28 2757 2752 2758
2907 28 2765 2761 2766
2908 28 2765 2761 2767
2909 28 2766 2761 2767
2910 28 2774 2770 2775
2911 28 2774 2770 2776
2912 28 2775 2770 2776
2913 28 2783 2779 2784
2914 28 2783 2779 2785
2915 28 2784 2779 2785
2916 28 2792 2788 2793
2917 28 2792 2788 2794
2918 28 2793 2788 2794
2919 28 2801 2797 2802
2920 28 2801 2797 2803
2921 28 2802 2797 2803
2922 28 2810 2806 2811
2923 28 2810 2806 2812
2924 28 2811 2806 2812
2925 28 2819 2815 2820
2926 28 2819 2815 2821
2927 28 2820 2815 2821
2928 28 2828 2824 2829
2929 28 2828 2824 2830
2930 28 2829 2824 2830
2931 28 2837 2833 2838
2932 28 2837 2833 2839
2933 28 2838 2833 2839
2934 28 2846 2842 2847
2935 28 2846 2842 2848
2936 28 2847 2842 2848
2937 28 2855 2851 2856
2938 28 2855 2851 2857
2939 28 2856 2851 2857
2940 28 2864 2860 2865
2941 28 2864 2860 2866
2942 28 2865 2860 2866
2943 28 2873 2869 2874
2944 28 2873 2869 2875
2945 28 2874 2869 2875
2946 28 2882 2878 2883
2947 28 2882 2878 2884
2948 28 2883 2878 2884
2949 28 2891 2887 2892
2950 28 2891 2887 2893
2951 28 2892 2887 2893
2952 28 2900 2896 2901
2953 28 2900 2896 2902
2954 28 2901 2896 2902
2955 28 2909 2905 2910
2956 28 2909 2905 2911
2957 28 2910 2905 2911
2958 28 2918 2914 2919
2959 28 2918 2914 2920
2960 28 2919 2914 2920
2961 28 2927 2923 2928
2962 28 2927 2923 2929
2963 28 2928 2923 2929
2964 28 2936 2932 2937
2965 28 2936 2932 2938
2966 28 2937 2932 2938
2967 28 2945 2941 2946
2968 28 2945 2941 2947
2969 28 2946 2941 2947
2970 28 2954 2950 2955
2971 28 2954 2950 2956
2972 28 2955 2950 2956
2973 28 2963 2959 2964
2974 28 2963 2959 2965
2975 28 2964 2959 2965
2976 28 2972 2968 2973
2977 28 2972 2968 2974
2978 28 2973 2968 2974
2979 28 2981 2977 2982
2980 28 2981 2977 2983
2981 28 2982 2977 2983
2982 28 2990 2986 2991
2983 28 2990 2986 2992
2984 28 2991 2986 2992
2985 28 2999 2995 3000
2986 28 2999 2995 3001
2987 28 3000 2995 3001
2988 28 3008 3004 3009
2989 28 3008 3004 3010
2990 28 3009 3004 3010
2991 28 3017 3013 3018
2992 28 3017 3013 3019
2993 28 3018 3013 3019
2994 28 3026 3022 3027
2995 28 3026 3022 3028
2996 28 3027 3022 3028
2997 28 3035 3031 3036
2998 28 3035 3031 3037
2999 28 3036 3031 3037
3000 28 3044 3040 3045
3001 28 3044 3040 3046
3002 28 3045 3040 3046
3003 28 3053 3049 3054
3004 28 3053 3049 3055
3005 28 3054 3049 3055
3006 28 3062 3058 3063
3007 28 3062 3058 3064
3008 28 3063 3058 3064
3009 28 3071 3067 3072
3010 28 3071 3067 3073
3011 28 3072 3067 3073
3012 28 3080 3076 3081
3013 28 3080 3076 3082
3014 28 3081 3076 3082
3015 28 3089 3085 3090
3016 28 3089 3085 3091
3017 28 3090 3085 3091
3018 28 3098 3094 3099
3019 28 3098 3094 3100
3020 28 3099 3094 3100
3021 28 3107 3103 3108
3022 28 3107 3103 3109
3023 28 3108 3103 3109
3024 28 3116 3112 3117
3025 28 3116 3112 3118
3026 28 3117 3112 3118
3027 28 3125 3121 3126
3028 28 3125 3121 3127
3029 28 3126 3121 3127
3030 28 3134 3130 3135
3031 28 3134 3130 3136
3032 28 3135 3130 3136
3033 28 3143 3139 3144
3034 28 3143 3139 3145
3035 28 3144 3139 3145
3036 28 3152 3148 3153
3037 28 3152 3148 3154
3038 28 3153 3148 3154
3039 28 3162 3157 3163
3040 28 3162 3157 3164
3041 28 3163 3157 3164
3042 28 3168 3165 3169
3043 28 3168 3165 3170
3044 28 3169 3165 3170
3045 28 3172 3167 3173
3046 28 3172 3167 3174
3047 28 3173 3167 3174
3048 28 3181 3177 3182
3049 28 3181 3177 3183
3050 28 3182 3177 3183
3051 28 3190 3186 3191
3052 28 3190 3186 3192
3053 28 3191 3186 3192
3054 28 3199 3195 3200
3055 28 3199 3195 3201
3056 28 3200 3195 3201
3057 28 3208 3204 3209
3058 28 3208 3204 3210
3059 28 3209 3204 3210
3060 28 3217 3213 3218
3061 28 3217 3213 3219
3062 28 3218 3213 3219
3063 28 3226 3222 3227
3064 28 3226 3222 3228
3065 28 3227 3222 3228
3066 28 3235 3231 3236
3067 28 3235 3231 3237
3068 28 3236 3231 3237
3069 28 3244 3240 3245
3070 28 3244 3240 3246
3071 28 3245 3240 3246
3072 28 3253 3249 3254
3073 28 3253 3249 3255
3074 28 3254 3249 3255
3075 28 3262 3258 3263
3076 28 3262 3258 3264
3077 28 3263 3258 3264
3078 28 3271 3267 3272
3079 28 3271 3267 3273
3080 28 3272 3267 3273
3081 28 3280 3276 3281
3082 28 3280 3276 3282
3083 28 3281 3276 3282
3084 28 3289 3285 3290
3085 28 3289 3285 3291
3086 28 3290 3285 3291
3087 28 3298 3294 3299
3088 28 3298 3294 3300
3089 28 3299 3294 3300
3090 28 3307 3303 3308
3091 28 3307 3303 3309
3092 28 3308 3303 3309
3093 28 3316 3312 3317
3094 28 3316 3312 3318
3095 28 3317 3312 3318
3096 28 3325 3321 3326
3097 28 3325 3321 3327
3098 28 3326 3321 3327
3099 28 3334 3330 3335
3100 28 3334 3330 3336
3101 28 3335 3330 3336
3102 28 3343 3339 3344
3103 28 3343 3339 3345
3104 28 3344 3339 3345
3105 28 3352 3348 3353
3106 28 3352 3348 3354
3107 28 3353 3348 3354
3108 28 3361 3357 3362
3109 28 3361 3357 3363
3110 28 3362 3357 3363
3111 28 3370 3366 3371
3112 28 3370 3366 3372
3113 28 3371 3366 3372
3114 28 3379 3375 3380
3115 28 3379 3375 3381
3116 28 3380 3375 3381
3117 28 3388 3384 3389
3118 28 3388 3384 3390
3119 28 3389 3384 3390
3120 28 3397 3393 3398
3121 28 3397 3393 3399
3122 28 3398 3393 3399
3123 28 3406 3402 3407
3124 28 3406 3402 3408
3125 28 3407 3402 3408
3126 28 3415 3411 3416
3127 28 3415 3411 3417
3128 28 3416 3411 3417
3129 28 3424 3420 3425
3130 28 3424 3420 3426
3131 28 3425 3420 3426
3132 28 3433 3429 3434
3133 28 3433 3429 3435
3134 28 3434 3429 3435
3135 28 3442 3438 3443
3136 28 3442 3438 3444
3137 28 3443 3438 3444
3138 28 3451 3447 3452
3139 28 3451 3447 3453
3140 28 3452 3447 3453
3141 28 3460 3456 3461
3142 28 3460 3456 3462
3143 28 3461 3456 3462
3144 28 3469 3465 3470
3145 28 3469 3465 3471
3146 28 3470 3465 3471
3147 28 3478 3474 3479
3148 28 3478 3474 3480
3149 28 3479 3474 3480
3150 28 3487 3483 3488
3151 28 3487 3483 3489
3152 28 3488 3483 3489
3153 28 3496 3492 3497
3154 28 3496 3492 3498
3155 28 3497 3492 3498
3156 28 3505 3501 3506
3157 28 3505 3501 3507
3158 28 3506 3501 3507
3159 28 3514 3510 3515
3160 28 3514 3510 3516
3161 28 3515 3510 3516
3162 28 3523 3519 3524
3163 28 3523 3519 3525
3164 28 3524 3519 3525
3165 28 3532 3528 3533
3166 28 3532 3528 3534
3167 28 3533 3528 3534
3168 28 3541 3537 3542
3169 28 3541 3537 3543
3170 28 3542 3537 3543
3171 28 3550 3546 3551
3172 28 3550 3546 3552
3173 28 3551 3546 3552
3174 28 3559 3555 3560
3175 28 3559 3555 3561
3176 28 3560 3555 3561
3177 28 3568 3564 3569
3178 28 3568 3564 3570
3179 28 3569 3564 3570
3180 28 3577 3573 3578
3181 28 3577 3573 3579
3182 28 3578 3573 3579
3183 28 3586 3582 3587
3184 28 3586 3582 3588
3185 28 3587 3582 3588
3186 28 3595 3591 3596
3187 28 3595 3591 3597
3188 28 3596 3591 3597
3189 28 3604 3600 3605
3190 28 3604 3600 3606
3191 28 3605 3600 3606
3192 28 3614 3609 3615
3193 28 3614 3609 3616
3194 28 3615 3609 3616
3195 28 3620 3617 3621
3196 28 3620 3617 3622
3197 28 3621 3617 3622
3198 28 3624 3619 3625
3199 28 3624 3619 3626
3200 28 3625 3619 3626
3201 28 3633 3629 3634
3202 28 3633 3629 3635
3203 28 3634 3629 3635
3204 28 3642 3638 3643
3205 28 3642 3638 3644
3206 28 3643 3638 3644
3207 28 3651 3647 3652
3208 28 3651 3647 3653
3209 28 3652 3647 3653
3210 28 3660 3656 3661
3211 28 3660 3656 3662
3212 28 3661 3656 3662
3213 28 3669 3665 3670
3214 28 3669 3665 3671
3215 28 3670 3665 3671
3216 28 3678 3674 3679
3217 28 3678 3674 3680
3218 28 3679 3674 3680
3219 28 3687 3683 3688
3220 28 3687 3683 3689
3221 28 3688 3683 3689
3222 28 3696 3692 3697
3223 28 3696 3692 3698
3224 28 3697 3692 3698
3225 28 3705 3701 3706
3226 28 3705 3701 3707
3227 28 3706 3701 3707
3228 28 3714 3710 3715
3229 28 3714 3710 3716
3230 28 3715 3710 3716
3231 28 3723 3719 3724
3232 28 3723 3719 3725
3233 28 3724 3719 3725
3234 28 3732 3728 3733
3235 28 3732 3728 3734
3236 28 3733 3728 3734
3237 28 3741 3737 3742
3238 28 3741 3737 3743
3239 28 3742 3737 3743
3240 28 3750 3746 3751
3241 28 3750 3746 3752
3242 28 3751 3746 3752
3243 28 3759 3755 3760
3244 28 3759 3755 3761
3245 28 3760 3755 3761
3246 28 3768 3764 3769
3247 28 3768 3764 3770
3248 28 3769 3764 3770
3249 28 3777 3773 3778
3250 28 3777 3773 3779
3251 28 3778 3773 3779
3252 28 3786 3782 3787
3253 28 3786 3782 3788
3254 28 3787 3782 3788
3255 28 3795 3791 3796
3256 28 3795 3791 3797
3257 28 3796 3791 3797
3258 28 3804 3800 3805
3259 28 3804 3800 3806
3260 28 3805 3800 3806
3261 28 3813 3809 3814
3262 28 3813 3809 3815
3263 28 3814 3809 3815
3264 28 3822 3818 3823
3265 28 3822 3818 3824
3266 28 3823 3818 3824
3267 28 3831 3827 3832
3268 28 3831 3827 3833
3269 28 3832 3827 3833
3270 28 3840 3836 3841
3271 28 3840 3836 3842
3272 28 3841 3836 3842
3273 28 3849 3845 3850
3274 28 3849 3845 3851
3275 28 3850 3845 3851
3276 28 3858 3854 3859
3277 28 3858 3854 3860
3278 28 3859 3854 3860
3279 28 3867 3863 3868
3280 28 3867 3863 3869
3281 28 3868 3863 3869
3282 28 3876 3872 3877
3283 28 3876 3872 3878
3284 28 3877 3872 3878
3285 28 3885 3881 3886
3286 28 3885 3881 3887
3287 28 3886 3881 3887
3288 28 3894 3890 3895
3289 28 3894 3890 3896
3290 28 3895 3890 3896
3291 28 3903 3899 3904
3292 28 3903 3899 3905
3293 28 3904 3899 3905
3294 28 3912 3908 3913
3295 28 3912 3908 3914
3296 28 3913 3908 3914
3297 28 3921 3917 3922
3298 28 3921 3917 3923
3299 28 3922 3917 3923
3300 28 3930 3926 3931
3301 28 3930 3926 3932
3302 28 3931 3926 3932
3303 28 3939 3935 3940
3304 28 3939 3935 3941
3305 28 3940 3935 3941
3306 28 3948 3944 3949
3307 28 3948 3944 3950
3308 28 3949 3944 3950
3309 28 3957 3953 3958
3310 28 3957 3953 3959
3311 28 3958 3953 3959
3312 28 3966 3962 3967
3313 28 3966 3962 3968
3314 28 3967 3962 3968
3315 28 3975 3971 3976
3316 28 3975 3971 3977
3317 28 3976 3971 3977
3318 28 3984 3980 3985
3319 28 3984 3980 3986
3320 28 3985 3980 3986
3321 28 3993 3989 3994
3322 28 3993 3989 3995
3323 28 3994 3989 3995
3324 28 4002 3998 4003
3325 28 4002 3998 4004
3326 28 4003 3998 4004
3327 28 4011 4007 4012
3328 28 4011 4007 4013
3329 28 4012 4007 4013
3330 28 4020 4016 4021
3331 28 4020 4016 4022
3332 28 4021 4016 4022
3333 28 4029 4025 4030
3334 28 4029 4025 4031
3335 28 4030 4025 4031
3336 28 4038 4034 4039
3337 28 4038 4034 4040
3338 28 4039 4034 4040
3339 28 4047 4043 4048
3340 28 4047 4043 4049
3341 28 4048 4043 4049
3342 28 4056 4052 4057
3343 28 4056 4052 4058
3344 28 4057 4052 4058
3345 28 4066 4061 4067
3346 28 4066 4061 4068
3347 28 4067 4061 4068
3348 28 4072 4069 4073
3349 28 4072 4069 4074
3350 28 4073 4069 4074
3351 28 4076 4071 4077
3352 28 4076 4071 4078
3353 28 4077 4071 4078
3354 28 4085 4081 4086
3355 28 4085 4081 4087
3356 28 4086 4081 4087
3357 28 4094 4090 4095
3358 28 4094 4090 4096
3359 28 4095 4090 4096
3360 28 4103 4099 4104
3361 28 4103 4099 4105
3362 28 4104 4099 4105
3363 28 4112 4108 4113
3364 28 4112 4108 4114
3365 28 4113 4108 4114
3366 28 4121 4117 4122
3367 28 4121 4117 4123
3368 28 4122 4117 4123
3369 28 4130 4126 4131
3370 28 4130 4126 4132
3371 28 4131 4126 4132
3372 28 4139 4135 4140
3373 28 4139 4135 4141
3374 28 4140 4135 4141
3375 28 4148 4144 4149
3376 28 4148 4144 4150
3377 28 4149 4144 4150
3378 28 4157 4153 4158
3379 28 4157 4153 4159
3380 28 4158 4153 4159
3381 28 4166 4162 4167
3382 28 4166 4162 4168
3383 28 4167 4162 4168
3384 28 4175 4171 4176
3385 28 4175 4171 4177
3386 28 4176 4171 4177
3387 28 4184 4180 4185
3388 28 4184 4180 4186
3389 28 4185 4180 4186
3390 28 4193 4189 4194
3391 28 4193 4189 4195
3392 28 4194 4189 4195
3393 28 4202 4198 4203
3394 28 4202 4198 4204
3395 28 4203 4198 4204
3396 28 4211 4207 4212
3397 28 4211 4207 4213
3398 28 4212 4207 4213
3399 28 4220 4216 4221
3400 28 4220 4216 4222
3401 28 4221 4216 4222
3402 28 4229 4225 4230
3403 28 4229 4225 4231
3404 28 4230 4225 4231
3405 28 4238 4234 4239
3406 28 4238 4234 4240
3407 28 4239 4234 4240
3408 28 4247 4243 4248
3409 28 4247 4243 4249
3410 28 4248 4243 4249
3411 28 4256 4252 4257
3412 28 4256 4252 4258
3413 28 4257 4252 4258
3414 28 4265 4261 4266
3415 28 4265 4261 4267
3416 28 4266 4261 4267
3417 28 4274 4270 4275
3418 28 4274 4270 4276
3419 28 4275 4270 4276
3420 28 4283 4279 4284
3421 28 4283 4279 4285
3422 28 4284 4279 4285
3423 28 4292 4288 4293
3424 28 4292 4288 4294
3425 28 4293 4288 4294
3426 28 4301 4297 4302
3427 28 4301 4297 4303
3428 28 4302 4297 4303
3429 28 4310 4306 4311
3430 28 4310 4306 4312
3431 28 4311 4306 4312
3432 28 4319 4315 4320
3433 28 4319 4315 4321
3434 28 4320 4315 4321
3435 28 4328 4324 4329
3436 28 4328 4324 4330
3437 28 4329 4324 4330
3438 28 4337 4333 4338
3439 28 4337 4333 4339
3440 28 4338 4333 4339
3441 28 4346 4342 4347
3442 28 4346 4342 4348
3443 28 4347 4342 4348
3444 28 4355 4351 4356
3445 28 4355 4351 4357
3446 28 4356 4351 4357
3447 28 4364 4360 4365
3448 28 4364 4360 4366
3449 28 4365 4360 4366
3450 28 4373 4369 4374
3451 28 4373 4369 4375
3452 28 4374 4369 4375
3453 28 4382 4378 4383
3454 28 4382 4378 4384
3455 28 4383 4378 4384
3456 28 4391 4387 4392
3457 28 4391 4387 4393
3458 28 4392 4387 4393
3459 28 4400 4396 4401
3460 28 4400 4396 4402
3461 28 4401 4396 4402
3462 28 4409 4405 4410
3463 28 4409 4405 4411
3464 28 4410 4405 4411
3465 28 4418 4414 4419
3466 28 4418 4414 4420
3467 28 4419 4414 4420
3468 28 4427 4423 4428
3469 28 4427 4423 4429
3470 28 4428 4423 4429
3471 28 4436 4432 4437
3472 28 4436 4432 4438
3473 28 4437 4432 4438
3474 28 4445 4441 4446
3475 28 4445 4441 4447
3476 28 4446 4441 4447
3477 28 4454 4450 4455
3478 28 4454 4450 4456
3479 28 4455 4450 4456
3480 28 4463 4459 4464
3481 28 4463 4459 4465
3482 28 4464 4459 4465
3483 28 4472 4468 4473
3484 28 4472 4468 4474
3485 28 4473 4468 4474
3486 28 4481 4477 4482
3487 28 4481 4477 4483
3488 28 4482 4477 4483
3489 28 4490 4486 4491
3490 28 4490 4486 4492
3491 28 4491 4486 4492
3492 28 4499 4495 4500
3493 28 4499 4495 4501
3494 28 4500 4495 4501
3495 28 4508 4504 4509
3496 28 4508 4504 4510
3497 28 4509 4504 4510
3498 28 4518 4513 4519
3499 28 4518 4513 4520
3500 28 4519 4513 4520
3501 29 14 11 15
3502 29 23 20 24
3503 29 32 29 33
3504 29 41 38 42
3505 29 50 47 51
3506 29 59 56 60
3507 29 68 65 69
3508 29 77 74 78
3509 29 86 83 87
3510 29 95 92 96
3511 29 104 101 105
3512 29 113 110 114
3513 29 122 119 123
3514 29 131 128 132
3515 29 140 137 141
3516 29 149 146 150
3517 29 158 155 159
3518 29 167 164 168
3519 29 176 173 177
3520 29 185 182 186
3521 29 194 191 195
3522 29 203 200 204
3523 29 212 209 213
3524 29 221 218 222
3525 29 230 227 231
3526 29 239 236 240
3527 29 248 245 249
3528 29 257 254 258
3529 29 266 263 267
3530 29 275 272 276
3531 29 284 281 285
3532 29 293 290 294
3533 29 302 299 303
3534 29 311 308 312
3535 29 320 317 321
3536 29 329 326 330
3537 29 338 335 339
3538 29 347 344 348
3539 29 356 353 357
3540 29 365 362 366
3541 29 374 371 375
3542 29 383 380 384
3543 29 392 389 393
3544 29 401 398 402
3545 29 410 407 411
3546 29 419 416 420
3547 29 428 425 429
3548 29 437 434 438
3549 29 446 443 447
3550 29 448 444 449
3551 29 466 463 467
3552 29 475 472 476
3553 29 484 481 485
3554 29 493 490 494
3555 29 502 499 503
3556 29 511 508 512
3557 29 520 517 521
3558 29 529 526 530
3559 29 538 535 539
3560 29 547 544 548
3561 29 556 553 557
3562 29 565 562 566
3563 29 574 571 575
3564 29 583 580 584
3565 29 592 589 593
3566 29 601 598 602
3567 29 610 607 611
3568 29 619 616 620
3569 29 628 625 629
3570 29 637 634 638
3571 29 646 643 647
3572 29 655 652 656
3573 29 664 661 665
3574 29 673 670 674
3575 29 682 679 683
3576 29 691 688 692
3577 29 700 697 701
3578 29 709 706 710
3579 29 718 715 719
3580 29 727 724 728
3581 29 736 733 737
3582 29 745 742 746
3583 29 754 751 755
3584 29 763 760 764
3585 29 772 769 773
3586 29 781 778 782
3587 29 790 787 791
3588 29 799 796 800
3589 29 808 805 809
3590 29 817 814 818
3591 29 826 823 827
3592 29 835 832 836
3593 29 844 841 845
3594 29 853 850 854
3595 29 862 859 863
3596 29 871 868 872
3597 29 880 877 881
3598 29 889 886 890
3599 29 898 895 899
3600 29 900 896 901
3601 29 918 915 919
3602 29 927 924 928
3603 29 936 933 937
3604 29 945 942 946
3605 29 954 951 955
3606 29 963 960 964
3607 29 972 969 973
3608 29 981 978 982
3609 29 990 987 991
3610 29 999 996 1000
3611 29 1008 1005 1009
3612 29 1017 1014 1018
3613 29 1026 1023 1027
3614 29 1035 1032 1036
3615 29 1044 1041 1045
3616 29 1053 1050 1054
3617 29 1062 1059 1063
3618 29 1071 1068 1072
3619 29 1080 1077 1081
3620 29 1089 1086 1090
3621 29 1098 1095 1099
3622 29 1107 1104 1108
3623 29 1116 1113 1117
3624 29 1125 1122 1126
3625 29 1134 1131 1135
3626 29 1143 1140 1144
3627 29 1152 1149 1153
3628 29 1161 1158 1162
3629 29 1170 1167 1171
3630 29 1179 1176 1180
3631 29 1188 1185 1189
3632 29 1197 1194 1198
3633 29 1206 1203 1207
3634 29 1215 1212 1216
3635 29 1224 1221 1225
3636 29 1233 1230 1234
3637 29 1242 1239 1243
3638 29 1251 1248 1252
3639 29 1260 1257 1261
3640 29 1269 1266 1270
3641 29 1278 1275 1279
3642 29 1287 1284 1288
3643 29 1296 1293 1297
3644 29 1305 1302 1306
3645 29 1314 1311 1315
3646 29 1323 1320 1324
3647 29 1332 1329 1333
3648 29 1341 1338 1342
3649 29 1350 1347 1351
3650 29 1352 1348 1353
3651 29 1370 1367 1371
3652 29 1379 1376 1380
3653 29 1388 1385 1389
3654 29 1397 1394 1398
3655 29 1406 1403 1407
3656 29 1415 1412 1416
3657 29 1424 1421 1425
3658 29 1433 1430 1434
3659 29 1442 1439 1443
3660 29 1451 1448 1452
3661 29 1460 1457 1461
3662 29 1469 1466 1470
3663 29 1478 1475 1479
3664 29 1487 1484 1488
3665 29 1496 1493 1497
3666 29 1505 1502 1506
3667 29 1514 1511 1515
3668 29 1523 1520 1524
3669 29 1532 1529 1533
3670 29 1541 1538 1542
3671 29 1550 1547 1551
3672 29 1559 1556 1560
3673 29 1568 1565 1569
3674 29 1577 1574 1578
3675 29 1586 1583 1587
3676 29 1595 1592 1596
3677 29 1604 1601 1605
3678 29 1613 1610 1614
3679 29 1622 1619 1623
3680 29 1631 1628 1632
3681 29 1640 1637 1641
3682 29 1649 1646 1650
3683 29 1658 1655 1659
3684 29 1667 1664 1668
3685 29 1676 1673 1677
3686 29 1685 1682 1686
3687 29 1694 1691 1695
3688 29 1703 1700 1704
3689 29 1712 1709 1713
3690 29 1721 1718 1722
3691 29 1730 1727 1731
3692 29 1739 1736 1740
3693 29 1748 1745 1749
3694 29 1757 1754 1758
3695 29 1766 1763 1767
3696 29 1775 1772 1776
3697 29 1784 1781 1785
3698 29 1793 1790 1794
3699 29 1802 1799 1803
3700 29 1804 1800 1805
3701 29 1822 1819 1823
3702 29 1831 1828 1832
3703 29 1840 1837 1841
3704 29 1849 1846 1850
3705 29 1858 1855 1859
3706 29 1867 1864 1868
3707 29 1876 1873 1877
3708 29 1885 1882 1886
3709 29 1894 1891 1895
3710 29 1903 1900 1904
3711 29 1912 1909 1913
3712 29 1921 1918 1922
3713 29 1930 1927 1931
3714 29 1939 1936 1940
3715 29 1948 1945 1949
3716 29 1957 1954 1958
3717 29 1966 1963 1967
3718 29 1975 1972 1976
3719 29 1984 1981 1985
3720 29 1993 1990 1994
3721 29 2002 1999 2003
3722 29 2011 2008 2012
3723 29 2020 2017 2021
3724 29 2029 2026 2030
3725 29 2038 2035 2039
3726 29 2047 2044 2048
3727 29 2056 2053 2057
3728 29 2065 2062 2066
3729 29 2074 2071 2075
3730 29 2083 2080 2084
3731 29 2092 2089 2093
3732 29 2101 2098 2102
3733 29 2110 2107 2111
3734 29 2119 2116 2120
3735 29 2128 2125 2129
3736 29 2137 2134 2138
3737 29 2146 2143 2147
3738 29 2155 2152 2156
3739 29 2164 2161 2165
3740 29 2173 2170 2174
3741 29 2182 2179 2183
3742 29 2191 2188 2192
3743 29 2200 2197 2201
3744 29 2209 2206 2210
3745 29 2218 2215 2219
3746 29 2227 2224 2228
3747 29 2236 2233 2237
3748 29 2245 2242 2246
3749 29 2254 2251 2255
3750 29 2256 2252 2257
3751 29 2274 2271 2275
3752 29 2283 2280 2284
3753 29 2292 2289 2293
3754 29 2301 2298 2302
3755 29 2310 2307 2311
3756 29 2319 2316 2320
3757 29 2328 2325 2329
3758 29 2337 2334 2338
3759 29 2346 2343 2347
3760 29 2355 2352 2356
3761 29 2364 2361 2365
3762 29 2373 2370 2374
3763 29 2382 2379 2383
3764 29 2391 2388 2392
3765 29 2400 2397 2401
3766 29 2409 2406 2410
3767 29 2418 2415 2419
3768 29 2427 2424 2428
3769 29 2436 2433 2437
3770 29 2445 2442 2446
3771 29 2454 2451 2455
3772 29 2463 2460 2464
3773 29 2472 2469 2473
3774 29 2481 2478 2482
3775 29 2490 2487 2491
3776 29 2499 2496 2500
3777 29 2508 2505 2509
3778 29 2517 2514 2518
3779 29 2526 2523 2527
3780 29 2535 2532 2536
3781 29 2544 2541 2545
3782 29 2553 2550 2554
3783 29 2562 2559 2563
3784 29 2571 2568 2572
3785 29 2580 2577 2581
3786 29 2589 2586 2590
3787 29 2598 2595 2599
3788 29 2607 2604 2608
3789 29 2616 2613 2617
3790 29 2625 2622 2626
3791 29 2634 2631 2635
3792 29 2643 2640 2644
3793 29 2652 2649 2653
3794 29 2661 2658 2662
3795 29 2670 2667 2671
3796 29 2679 2676 2680
3797 29 2688 2685 2689
3798 29 2697 2694 2698
3799 29 2706 2703 2707
3800 29 2708 2704 2709
3801 29 2726 2723 2727
3802 29 2735 2732 2736
3803 29 2744 2741 2745
3804 29 2753 2750 2754
3805 29 2762 2759 2763
3806 29 2771 2768 2772
3807 29 2780 2777 2781
3808 29 2789 2786 2790
3809 29 2798 2795 2799
3810 29 2807 2804 2808
3811 29 2816 2813 2817
3812 29 2825 2822 2826
3813 29 2834 2831 2835
3814 29 2843 2840 2844
3815 29 2852 2849 2853
3816 29 2861 2858 2862
3817 29 2870 2867 2871
3818 29 2879 2876 2880
3819 29 2888 2885 2889
3820 29 2897 2894 2898
3821 29 2906 2903 2907
3822 29 2915 2912 2916
3823 29 2924 2921 2925
3824 29 2933 2930 2934
3825 29 2942 2939 2943
3826 29 2951 2948 2952
3827 29 2960 2957 2961
3828 29 2969 2966 2970
3829 29 2978 2975 2979
3830 29 2987 2984 2988
3831 29 2996 2993 2997
3832 29 3005 3002 3006
3833 29 3014 3011 3015
3834 29 3023 3020 3024
3835 29 3032 3029 3033
3836 29 3041 3038 3042
3837 29 3050 3047 3051
3838 29 3059 3056 3060
3839 29 3068 3065 3069
3840 29 3077 3074 3078
3841 29 3086 3083 3087
3842 29 3095 3092 3096
3843 29 3104 3101 3105
3844 29 3113 3110 3114
3845 29 3122 3119 3123
3846 29 3131 3128 3132
3847 29 3140 3137 3141
3848 29 3149 3146 3150
3849 29 3158 3155 3159
3850 29 3160 3156 3161
3851 29 3178 3175 3179
3852 29 3187 3184 3188
3853 29 3196 3193 3197
3854 29 3205 3202 3206
3855 29 3214 3211 3215
3856 29 3223 3220 3224
3857 29 3232 3229 3233
3858 29 3241 3238 3242
3859 29 3250 3247 3251
3860 29 3259 3256 3260
3861 29 3268 3265 3269
3862 29 3277 3274 3278
3863 29 3286 3283 3287
3864 29 3295 3292 3296
3865 29 3304 3301 3305
3866 29 3313 3310 3314
3867 29 3322 3319 3323
3868 29 3331 3328 3332
3869 29 3340 3337 3341
3870 29 3349 3346 3350
3871 29 3358 3355 3359
3872 29 3367 3364 3368
3873 29 3376 3373 3377
3874 29 3385 3382 3386
3875 29 3394 3391 3395
3876 29 3403 3400 3404
3877 29 3412 3409 3413
3878 29 3421 3418 3422
3879 29 3430 3427 3431
3880 29 3439 3436 3440
3881 29 3448 3445 3449
3882 29 3457 3454 3458
3883 29 3466 3463 3467
3884 29 3475 3472 3476
3885 29 3484 3481 3485
3886 29 3493 3490 3494
3887 29 3502 3499 3503
3888 29 3511 3508 3512
3889 29 3520 3517 3521
3890 29 3529 3526 3530
3891 29 3538 3535 3539
3892 29 3547 3544 3548
3893 29 3556 3553 3557
3894 29 3565 3562 3566
3895 29 3574 3571 3575
3896 29 3583 3580 3584
3897 29 3592 3589 3593
3898 29 3601 3598 3602
3899 29 3610 3607 3611
3900 29 3612 3608 3613
3901 29 3630 3627 3631
3902 29 3639 3636 3640
3903 29 3648 3645 3649
3904 29 3657 3654 3658
3905 29 3666 3663 3667
3906 29 3675 3672 3676
3907 29 3684 3681 3685
3908 29 3693 3690 3694
3909 29 3702 3699 3703
3910 29 3711 3708 3712
3911 29 3720 3717 3721
3912 29 3729 3726 3730
3913 29 3738 3735 3739
3914 29 3747 3744 3748
3915 29 3756 3753 3757
3916 29 3765 3762 3766
3917 29 3774 3771 3775
3918 29 3783 3780 3784
3919 29 3792 3789 3793
3920 29 3801 3798 3802
3921 29 3810 3807 3811
3922 29 3819 3816 3820
3923 29 3828 3825 3829
3924 29 3837 3834 3838
3925 29 3846 3843 3847
3926 29 3855 3852 3856
3927 29 3864 3861 3865
3928 29 3873 3870 3874
3929 29 3882 3879 3883
3930 29 3891 3888 3892
3931 29 3900 3897 3901
3932 29 3909 3906 3910
3933 29 3918 3915 3919
3934 29 3927 3924 3928
3935 29 3936 3933 3937
3936 29 3945 3942 3946
3937 29 3954 3951 3955
3938 29 3963 3960 3964
3939 29 3972 3969 3973
3940 29 3981 3978 3982
3941 29 3990 3987 3991
3942 29 3999 3996 4000
3943 29 4008 4005 4009
3944 29 4017 4014 4018
3945 29 4026 4023 4027
3946 29 4035 4032 4036
3947 29 4044 4041 4045
3948 29 4053 4050 4054
3949 29 4062 4059 4063
3950 29 4064 4060 4065
3951 29 4082 4079 4083
3952 29 4091 4088 4092
3953 29 4100 4097 4101
3954 29 4109 4106 4110
3955 29 4118 4115 4119
3956 29 4127 4124 4128
3957 29 4136 4133 4137
3958 29 4145 4142 4146
3959 29 4154 4151 4155
3960 29 4163 4160 4164
3961 29 4172 4169 4173
3962 29 4181 4178 4182
3963 29 4190 4187 4191
3964 29 4199 4196 4200
3965 29 4208 4205 4209
3966 29 4217 4214 4218
3967 29 4226 4223 4227
3968 29 4235 4232 4236
3969 29 4244 4241 4245
3970 29 4253 4250 4254
3971 29 4262 4259 4263
3972 29 4271 4268 4272
3973 29 4280 4277 4281
3974 29 4289 4286 4290
3975 29 4298 4295 4299
3976 29 4307 4304 4308
3977 29 4316 4313 4317
3978 29 4325 4322 4326
3979 29 4334 4331 4335
3980 29 4343 4340 4344
3981 29 4352 4349 4353
3982 29 4361 4358 4362
3983 29 4370 4367 4371
3984 29 4379 4376 4380
3985 29 4388 4385 4389
3986 29 4397 4394 4398
3987 29 4406 4403 4407
3988 29 4415 4412 4416
3989 29 4424 4421 4425
3990 29 4433 4430 4434
3991 29 4442 4439 4443
3992 29 4451 4448 4452
3993 29 4460 4457 4461
3994 29 4469 4466 4470
3995 29 4478 4475 4479
3996 29 4487 4484 4488
3997 29 4496 4493 4497
3998 29 4505 4502 4506
3999 29 4514 4511 4515
4000 29 4516 4512 4517
4001 32 445 444 448
4002 32 445 444 449
4003 32 897 896 900
4004 32 897 896 901
4005 32 1349 1348 1352
4006 32 1349 1348 1353
4007 32 1801 1800 1804
4008 32 1801 1800 1805
4009 32 2253 2252 2256
4010 32 2253 2252 2257
4011 32 2705 2704 2708
4012 32 2705 2704 2709
4013 32 3157 3156 3160
4014 32 3157 3156 3161
4015 32 3609 3608 3612
4016 32 3609 3608 3613
4017 32 4061 4060 4064
4018 32 4061 4060 4065
4019 32 4513 4512 4516
4020 32 4513 4512 4517
4021 33 1 2 7
4022 33 3 2 7
4023 33 13 12 16
4024 33 22 21 25
4025 33 31 30 34
4026 33 40 39 43
4027 33 49 48 52
4028 33 58 57 61
4029 33 67 66 70
4030 33 76 75 79
4031 33 85 84 88
4032 33 94 93 97
4033 33 103 102 106
4034 33 112 111 115
4035 33 121 120 124
4036 33 130 129 133
4037 33 139 138 142
4038 33 148 147 151
4039 33 157 156 160
4040 33 166 165 169
4041 33 175 174 178
4042 33 184 183 187
4043 33 193 192 196
4044 33 202 201 205
4045 33 211 210 214
4046 33 220 219 223
4047 33 229 228 232
4048 33 238 237 241
4049 33 247 246 250
4050 33 256 255 259
4051 33 265 264 268
4052 33 274 273 277
4053 33 283 282 286
4054 33 292 291 295
4055 33 301 300 304
4056 33 310 309 313
4057 33 319 318 322
4058 33 328 327 331
4059 33 337 336 340
4060 33 346 345 349
4061 33 355 354 358
4062 33 364 363 367
4063 33 373 372 376
4064 33 382 381 385
4065 33 391 390 394
4066 33 400 399 403
4067 33 409 408 412
4068 33 418 417 421
4069 33 427 426 430
4070 33 436 435 439
4071 33 453 454 459
4072 33 455 454 459
4073 33 465 464 468
4074 33 474 473 477
4075 33 483 482 486
4076 33 492 491 495
4077 33 501 500 504
4078 33 510 509 513
4079 33 519 518 522
4080 33 528 527 531
4081 33 537 536 540
4082 33 546 545 549
4083 33 555 554 558
4084 33 564 563 567
4085 33 573 572 576
4086 33 582 581 585
4087 33 591 590 594
4088 33 600 599 603
4089 33 609 608 612
4090 33 618 617 621
4091 33 627 626 630
4092 33 636 635 639
4093 33 645 644 648
4094 33 654 653 657
4095 33 663 662 666
4096 33 672 671 675
4097 33 681 680 684
4098 33 690 689 693
4099 33 699 698 702
4100 33 708 707 711
4101 33 717 716 720
4102 33 726 725 729
4103 33 735 734 738
4104 33 744 743 747
4105 33 753 752 756
4106 33 762 761 765
4107 33 771 770 774
4108 33 780 779 783
4109 33 789 788 792
4110 33 798 797 801
4111 33 807 806 810
4112 33 816 815 819
4113 33 825 824 828
4114 33 834 833 837
4115 33 843 842 846
4116 33 852 851 855
4117 33 861 860 864
4118 33 870 869 873
4119 33 879 878 882
4120 33 888 887 891
4121 33 905 906 911
4122 33 907 906 911
4123 33 917 916 920
4124 33 926 925 929
4125 33 935 934 938
4126 33 944 943 947
4127 33 953 952 956
4128 33 962 961 965
4129 33 971 970 974
4130 33 980 979 983
4131 33 989 988 992
4132 33 998 997 1001
4133 33 1007 1006 1010
4134 33 1016 1015 1019
4135 33 1025 1024 1028
4136 33 1034 1033 1037
4137 33 1043 1042 1046
4138 33 1052 1051 1055
4139 33 1061 1060 1064
4140 33 1070 1069 1073
4141 33 1079 1078 1082
4142 33 1088 1087 1091
4143 33 1097 1096 1100
4144 33 1106 1105 1109
4145 33 1115 1114 1118
4146 33 1124 1123 1127
4147 33 1133 1132 1136
4148 33 1142 1141 1145
4149 33 1151 1150 1154
4150 33 1160 1159 1163
4151 33 1169 1168 1172
4152 33 1178 1177 1181
4153 33 1187 1186 1190
4154 33 1196 1195 1199
4155 33 1205 1204 1208
4156 33 1214 1213 1217
4157 33 1223 1222 1226
4158 33 1232 1231 1235
4159 33 1241 1240 1244
4160 33 1250 1249 1253
4161 33 1259 1258 1262
4162 33 1268 1267 1271
4163 33 1277 1276 1280
4164 33 1286 1285 1289
4165 33 1295 1294 1298
4166 33 1304 1303 1307
4167 33 1313 1312 1316
4168 33 1322 1321 1325
4169 33 1331 1330 1334
4170 33 1340 1339 1343
4171 33 1357 1358 1363
4172 33 1359 1358 1363
4173 33 1369 1368 1372
4174 33 1378 1377 1381
4175 33 1387 1386 1390
4176 33 1396 1395 1399
4177 33 1405 1404 1408
4178 33 1414 1413 1417
4179 33 1423 1422 1426
4180 33 1432 1431 1435
4181 33 1441 1440 1444
4182 33 1450 1449 1453
4183 33 1459 1458 1462
4184 33 1468 1467 1471
4185 33 1477 1476 1480
4186 33 1486 1485 1489
4187 33 1495 1494 1498
4188 33 1504 1503 1507
4189 33 1513 1512 1516
4190 33 1522 1521 1525
4191 33 1531 1530 1534
4192 33 1540 1539 1543
4193 33 1549 1548 1552
4194 33 1558 1557 1561
4195 33 1567 1566 1570
4196 33 1576 1575 1579
4197 33 1585 1584 1588
4198 33 1594 1593 1597
4199 33 1603 1602 1606
4200 33 1612 1611 1615
4201 33 1621 1620 1624
4202 33 1630 1629 1633
4203 33 1639 1638 1642
4204 33 1648 1647 1651
4205 33 1657 1656 1660
4206 33 1666 1665 1669
4207 33 1675 1674 1678
4208 33 1684 1683 1687
4209 33 1693 1692 1696
4210 33 1702 1701 1705
4211 33 1711 1710 1714
4212 33 1720 1719 1723
4213 33 1729 1728 1732
4214 33 1738 1737 1741
4215 33 1747 1746 1750
4216 33 1756 1755 1759
4217 33 1765 1764 1768
4218 33 1774 1773 1777
4219 33 1783 1782 1786
4220 33 1792 1791 1795
4221 33 1809 1810 1815
4222 33 1811 1810 1815
4223 33 1821 1820 1824
4224 33 1830 1829 1833
4225 33 1839 1838 1842
4226 33 1848 1847 1851
4227 33 1857 1856 1860
4228 33 1866 1865 1869
4229 33 1875 1874 1878
4230 33 1884 1883 1887
4231 33 1893 1892 1896
4232 33 1902 1901 1905
4233 33 1911 1910 1914
4234 33 1920 1919 1923
4235 33 1929 1928 1932
4236 33 1938 1937 1941
4237 33 1947 1946 1950
4238 33 1956 1955 1959
4239 33 1965 1964 1968
4240 33 1974 1973 1977
4241 33 1983 1982 1986
4242 33 1992 1991 1995
4243 33 2001 2000 2004
4244 33 2010 2009 2013
4245 33 2019 2018 2022
4246 33 2028 2027 2031
4247 33 2037 2036 2040
4248 33 2046 2045 2049
4249 33 2055 2054 2058
4250 33 2064 2063 2067
4251 33 2073 2072 2076
4252 33 2082 2081 2085
4253 33 2091 2090 2094
4254 33 2100 2099 2103
4255 33 2109 2108 2112
4256 33 2118 2117 2121
4257 33 2127 2126 2130
4258 33 2136 2135 2139
4259 33 2145 2144 2148
4260 33 2154 2153 2157
4261 33 2163 2162 2166
4262 33 2172 2171 2175
4263 33 2181 2180 2184
4264 33 2190 2189 2193
4265 33 2199 2198 2202
4266 33 2208 2207 2211
4267 33 2217 2216 2220
4268 33 2226 2225 2229
4269 33 2235 2234 2238
4270 33 2244 2243 2247
4271 33 2261 2262 2267
4272 33 2263 2262 2267
4273 33 2273 2272 2276
4274 33 2282 2281 2285
4275 33 2291 2290 2294
4276 33 2300 2299 2303
4277 33 2309 2308 2312
4278 33 2318 2317 2321
4279 33 2327 2326 2330
4280 33 2336 2335 2339
4281 33 2345 2344 2348
4282 33 2354 2353 2357
4283 33 2363 2362 2366
4284 33 2372 2371 2375
4285 33 2381 2380 2384
4286 33 2390 2389 2393
4287 33 2399 2398 2402
4288 33 2408 2407 2411
4289 33 2417 2416 2420
4290 33 2426 2425 2429
4291 33 2435 2434 2438
4292 33 2444 2443 2447
4293 33 2453 2452 2456
4294 33 2462 2461 2465
4295 33 2471 2470 2474
4296 33 2480 2479 2483
4297 33 2489 2488 2492
4298 33 2498 2497 2501
4299 33 2507 2506 2510
4300 33 2516 2515 2519
4301 33 2525 2524 2528
4302 33 2534 2533 2537
4303 33 2543 2542 2546
4304 33 2552 2551 2555
4305 33 2561 2560 2564
4306 33 2570 2569 2573
4307 33 2579 2578 2582
4308 33 2588 2587 2591
4309 33 2597 2596 2600
4310 33 2606 2605 2609
4311 33 2615 2614 2618
4312 33 2624 2623 2627
4313 33 2633 2632 2636
4314 33 2642 2641 2645
4315 33 2651 2650 2654
4316 33 2660 2659 2663
4317 33 2669 2668 2672
4318 33 2678 2677 2681
4319 33 2687 2686 2690
4320 33 2696 2695 2699
4321 33 2713 2714 2719
4322 33 2715 2714 2719
4323 33 2725 2724 2728
4324 33 2734 2733 2737
4325 33 2743 2742 2746
4326 33 2752 2751 2755
4327 33 2761 2760 2764
4328 33 2770 2769 2773
4329 33 2779 2778 2782
4330 33 2788 2787 2791
4331 33 2797 2796 2800
4332 33 2806 2805 2809
4333 33 2815 2814 2818
4334 33 2824 2823 2827
4335 33 2833 2832 2836
4336 33 2842 2841 2845
4337 33 2851 2850 2854
4338 33 2860 2859 2863
4339 33 2869 2868 2872
4340 33 2878 2877 2881
4341 33 2887 2886 2890
4342 33 2896 2895 2899
4343 33 2905 2904 2908
4344 33 2914 2913 2917
4345 33 2923 2922 2926
4346 33 2932 2931 2935
4347 33 2941 2940 2944
4348 33 2950 2949 2953
4349 33 2959 2958 2962
4350 33 2968 2967 2971
4351 33 2977 2976 2980
4352 33 2986 2985 2989
4353 33 2995 2994 2998
4354 33 3004 3003 3007
4355 33 3013 3012 3016
4356 33 3022 3021 3025
4357 33 3031 3030 3034
4358 33 3040 3039 3043
4359 33 3049 3048 3052
4360 33 3058 3057 3061
4361 33 3067 3066 3070
4362 33 3076 3075 3079
4363 33 3085 3084 3088
4364 33 3094 3093 3097
4365 33 3103 3102 3106
4366 33 3112 3111 3115
4367 33 3121 3120 3124
4368 33 3130 3129 3133
4369 33 3139 3138 3142
4370 33 3148 3147 3151
4371 33 3165 3166 3171
4372 33 3167 3166 3171
4373 33 3177 3176 3180
4374 33 3186 3185 3189
4375 33 3195 3194 3198
4376 33 3204 3203 3207
4377 33 3213 3212 3216
4378 33 3222 3221 3225
4379 33 3231 3230 3234
4380 33 3240 3239 3243
4381 33 3249 3248 3252
4382 33 3258 3257 3261
4383 33 3267 3266 3270
4384 33 3276 3275 3279
4385 33 3285 3284 3288
4386 33 3294 3293 3297
4387 33 3303 3302 3306
4388 33 3312 3311 3315
4389 33 3321 3320 3324
4390 33 3330 3329 3333
4391 33 3339 3338 3342
4392 33 3348 3347 3351
4393 33 3357 3356 3360
4394 33 3366 3365 3369
4395 33 3375 3374 3378
4396 33 3384 3383 3387
4397 33 3393 3392 3396
4398 33 3402 3401 3405
4399 33 3411 3410 3414
4400 33 3420 3419 3423
4401 33 3429 3428 3432
4402 33 3438 3437 3441
4403 33 3447 3446 3450
4404 33 3456 3455 3459
4405 33 3465 3464 3468
4406 33 3474 3473 3477
4407 33 3483 3482 3486
4408 33 3492 3491 3495
4409 33 3501 3500 3504
4410 33 3510 3509 3513
4411 33 3519 3518 3522
4412 33 3528 3527 3531
4413 33 3537 3536 3540
4414 33 3546 3545 3549
4415 33 3555 3554 3558
4416 33 3564 3563 3567
4417 33 3573 3572 3576
4418 33 3582 3581 3585
4419 33 3591 3590 3594
4420 33 3600 3599 3603
4421 33 3617 3618 3623
4422 33 3619 3618 3623
4423 33 3629 3628 3632
4424 33 3638 3637 3641
4425 33 3647 3646 3650
4426 33 3656 3655 3659
4427 33 3665 3664 3668
4428 33 3674 3673 3677
4429 33 3683 3682 3686
4430 33 3692 3691 3695
4431 33 3701 3700 3704
4432 33 3710 3709 3713
4433 33 3719 3718 3722
4434 33 3728 3727 3731
4435 33 3737 3736 3740
4436 33 3746 3745 3749
4437 33 3755 3754 3758
4438 33 3764 3763 3767
4439 33 3773 3772 3776
4440 33 3782 3781 3785
4441 33 3791 3790 3794
4442 33 3800 3799 3803
4443 33 3809 3808 3812
4444 33 3818 3817 3821
4445 33 3827 3826 3830
4446 33 3836 3835 3839
4447 33 3845 3844 3848
4448 33 3854 3853 3857
4449 33 3863 3862 3866
4450 33 3872 3871 3875
4451 33 3881 3880 3884
4452 33 3890 3889 3893
4453 33 3899 3898 3902
4454 33 3908 3907 3911
4455 33 3917 3916 3920
4456 33 3926 3925 3929
4457 33 3935 3934 3938
4458 33 3944 3943 3947
4459 33 3953 3952 3956
4460 33 3962 3961 3965
4461 33 3971 3970 3974
4462 33 3980 3979 3983
4463 33 3989 3988 3992
4464 33 3998 3997 4001
4465 33 4007 4006 4010
4466 33 4016 4015 4019
4467 33 4025 4024 4028
4468 33 4034 4033 4037
4469 33 4043 4042 4046
4470 33 4052 4051 4055
4471 33 4069 4070 4075
4472 33 4071 4070 4075
4473 33 4081 4080 4084
4474 33 4090 4089 4093
4475 33 4099 4098 4102
4476 33 4108 4107 4111
4477 33 4117 4116 4120
4478 33 4126 4125 4129
4479 33 4135 4134 4138
4480 33 4144 4143 4147
4481 33 4153 4152 4156
4482 33 4162 4161 4165
4483 33 4171 4170 4174
4484 33 4180 4179 4183
4485 33 4189 4188 4192
4486 33 4198 4197 4201
4487 33 4207 4206 4210
4488 33 4216 4215 4219
4489 33 4225 4224 4228
4490 33 4234 4233 4237
4491 33 4243 4242 4246
4492 33 4252 4251 4255
4493 33 4261 4260 4264
4494 33 4270 4269 4273
4495 33 4279 4278 4282
4496 33 4288 4287 4291
4497 33 4297 4296 4300
4498 33 4306 4305 4309
4499 33 4315 4314 4318
4500 33 4324 4323 4327
4501 33 4333 4332 4336
4502 33 4342 4341 4345
4503 33 4351 4350 4354
4504 33 4360 4359 4363
4505 33 4369 4368 4372
4506 33 4378 4377 4381
4507 33 4387 4386 4390
4508 33 4396 4395 4399
4509 33 4405 4404 4408
4510 33 4414 4413 4417
4511 33 4423 4422 4426
4512 33 4432 4431 4435
4513 33 4441 4440 4444
4514 33 4450 4449 4453
4515 33 4459 4458 4462
4516 33 4468 4467 4471
4517 33 4477 4476 4480
4518 33 4486 4485 4489
4519 33 4495 4494 4498
4520 33 4504 4503 4507
4521 34 444 445 450
4522 34 444 445 451
4523 34 444 445 452
4524 34 896 897 902
4525 34 896 897 903
4526 34 896 897 904
4527 34 1348 1349 1354
4528 34 1348 1349 1355
4529 34 1348 1349 1356
4530 34 1800 1801 1806
4531 34 1800 1801 1807
4532 34 1800 1801 1808
4533 34 2252 2253 2258
4534 34 2252 2253 2259
4535 34 2252 2253 2260
4536 34 2704 2705 2710
4537 34 2704 2705 2711
4538 34 2704 2705 2712
4539 34 3156 3157 3162
4540 34 3156 3157 3163
4541 34 3156 3157 3164
4542 34 3608 3609 3614
4543 34 3608 3609 3615
4544 34 3608 3609 3616
4545 34 4060 4061 4066
4546 34 4060 4061 4067
4547 34 4060 4061 4068
4548 34 4512 4513 4518
4549 34 4512 4513 4519
4550 34 4512 4513 4520
4551 35 443 444 448
4552 35 443 444 449
4553 35 444 443 446
4554 35 444 443 447
4555 35 895 896 900
4556 35 895 896 901
4557 35 896 895 898
4558 35 896 895 899
4559 35 1347 1348 1352
4560 35 1347 1348 1353
4561 35 1348 1347 1350
4562 35 1348 1347 1351
4563 35 1799 1800 1804
4564 35 1799 1800 1805
4565 35 1800 1799 1802
4566 35 1800 1799 1803
4567 35 2251 2252 2256
4568 35 2251 2252 2257
4569 35 2252 2251 2254
4570 35 2252 2251 2255
4571 35 2703 2704 2708
4572 35 2703 2704 2709
4573 35 2704 2703 2706
4574 35 2704 2703 2707
4575 35 3155 3156 3160
4576 35 3155 3156 3161
4577 35 3156 3155 3158
4578 35 3156 3155 3159
4579 35 3607 3608 3612
4580 35 3607 3608 3613
4581 35 3608 3607 3610
4582 35 3608 3607 3611
4583 35 4059 4060 4064
4584 35 4059 4060 4065
4585 35 4060 4059 4062
4586 35 4060 4059 4063
4587 35 4511 4512 4516
4588 35 4511 4512 4517
4589 35 4512 4511 4514
4590 35 4512 4511 4515
4591 36 11 12 16
4592 36 7 2 11
4593 36 20 21 25
4594 36 16 12 20
4595 36 29 30 34
4596 36 25 21 29
4597 36 38 39 43
4598 36 34 30 38
4599 36 47 48 52
4600 36 43 39 47
4601 36 56 57 61
4602 36 52 48 56
4603 36 65 66 70
4604 36 61 57 65
4605 36 74 75 79
4606 36 70 66 74
4607 36 83 84 88
4608 36 79 75 83
4609 36 92 93 97
4610 36 88 84 92
4611 36 101 102 106
4612 36 97 93 101
4613 36 110 111 115
4614 36 106 102 110
4615 36 119 120 124
4616 36 115 111 119
4617 36 128 129 133
4618 36 124 120 128
4619 36 137 138 142
4620 36 133 129 137
4621 36 146 147 151
4622 36 142 138 146
4623 36 155 156 160
4624 36 151 147 155
4625 36 164 165 169
4626 36 160 156 164
4627 36 173 174 178
4628 36 169 165 173
4629 36 182 183 187
4630 36 178 174 182
4631 36 191 192 196
4632 36 187 183 191
4633 36 200 201 205
4634 36 196 192 200
4635 36 209 210 214
4636 36 205 201 209
4637 36 218 219 223
4638 36 214 210 218
4639 36 227 228 232
4640 36 223 219 227
4641 36 236 237 241
4642 36 232 228 236
4643 36 245 246 250
4644 36 241 237 245
4645 36 254 255 259
4646 36 250 246 254
4647 36 263 264 268
4648 36 259 255 263
4649 36 272 273 277
4650 36 268 264 272
4651 36 281 282 286
4652 36 277 273 281
4653 36 290 291 295
4654 36 286 282 290
4655 36 299 300 304
4656 36 295 291 299
4657 36 308 309 313
4658 36 304 300 308
4659 36 317 318 322
4660 36 313 309 317
4661 36 326 327 331
4662 36 322 318 326
4663 36 335 336 340
4664 36 331 327 335
4665 36 344 345 349
4666 36 340 336 344
4667 36 353 354 358
4668 36 349 345 353
4669 36 362 363 367
4670 36 358 354 362
4671 36 371 372 376
4672 36 367 363 371
4673 36 380 381 385
4674 36 376 372 380
4675 36 389 390 394
4676 36 385 381 389
4677 36 398 399 403
4678 36 394 390 398
4679 36 407 408 412
4680 36 403 399 407
4681 36 416 417 421
4682 36 412 408 416
4683 36 425 426 430
4684 36 421 417 425
4685 36 434 435 439
4686 36 430 426 434
4687 36 439 435 443
4688 36 463 464 468
4689 36 459 454 463
4690 36 472 473 477
4691 36 468 464 472
4692 36 481 482 486
4693 36 477 473 481
4694 36 490 491 495
4695 36 486 482 490
4696 36 499 500 504
4697 36 495 491 499
4698 36 508 509 513
4699 36 504 500 508
4700 36 517 518 522
4701 36 513 509 517
4702 36 526 527 531
4703 36 522 518 526
4704 36 535 536 540
4705 36 531 527 535
4706 36 544 545 549
4707 36 540 536 544
4708 36 553 554 558
4709 36 549 545 553
4710 36 562 563 567
4711 36 558 554 562
4712 36 571 572 576
4713 36 567 563 571
4714 36 580 581 585
4715 36 576 572 580
4716 36 589 590 594
4717 36 585 581 589
4718 36 598 599 603
4719 36 594 590 598
4720 36 607 608 612
4721 36 603 599 607
4722 36 616 617 621
4723 36 612 608 616
4724 36 625 626 630
4725 36 621 617 625
4726 36 634 635 639
4727 36 630 626 634
4728 36 643 644 648
4729 36 639 635 643
4730 36 652 653 657
4731 36 648 644 652
4732 36 661 662 666
4733 36 657 653 661
4734 36 670 671 675
4735 36 666 662 670
4736 36 679 680 684
4737 36 675 671 679
4738 36 688 689 693
4739 36 684 680 688
4740 36 697 698 702
4741 36 693 689 697
4742 36 706 707 711
4743 36 702 698 706
4744 36 715 716 720
4745 36 711 707 715
4746 36 724 725 729
4747 36 720 716 724
4748 36 733 734 738
4749 36 729 725 733
4750 36 742 743 747
4751 36 738 734 742
4752 36 751 752 756
4753 36 747 743 751
4754 36 760 761 765
4755 36 756 752 760
4756 36 769 770 774
4757 36 765 761 769
4758 36 778 779 783
4759 36 774 770 778
4760 36 787 788 792
4761 36 783 779 787
4762 36 796 797 801
4763 36 792 788 796
4764 36 805 806 810
4765 36 801 797 805
4766 36 814 815 819
4767 36 810 806 814
4768 36 823 824 828
4769 36 819 815 823
4770 36 832 833 837
4771 36 828 824 832
4772 36 841 842 846
4773 36 837 833 841
4774 36 850 851 855
4775 36 846 842 850
4776 36 859 860 864
4777 36 855 851 859
4778 36 868 869 873
4779 36 864 860 868
4780 36 877 878 882
4781 36 873 869 877
4782 36 886 887 891
4783 36 882 878 886
4784 36 891 887 895
4785 36 915 916 920
4786 36 911 906 915
4787 36 924 925 929
4788 36 920 916 924
4789 36 933 934 938
4790 36 929 925 933
4791 36 942 943 947
4792 36 938 934 942
4793 36 951 952 956
4794 36 947 943 951
4795 36 960 961 965
4796 36 956 952 960
4797 36 969 970 974
4798 36 965 961 969
4799 36 978 979 983
4800 36 974 970 978
4801 36 987 988 992
4802 36 983 979 987
4803 36 996 997 1001
4804 36 992 988 996
4805 36 1005 1006 1010
4806 36 1001 997 1005
4807 36 1014 1015 1019
4808 36 1010 1006 1014
4809 36 1023 1024 1028
4810 36 1019 1015 1023
4811 36 1032 1033 1037
4812 36 1028 1024 1032
4813 36 1041 1042 1046
4814 36 1037 1033 1041
4815 36 1050 1051 1055
4816 36 1046 1042 1050
4817 36 1059 1060 1064
4818 36 1055 1051 1059
4819 36 1068 1069 1073
4820 36 1064 1060 1068
4821 36 1077 1078 1082
4822 36 1073 1069 1077
4823 36 1086 1087 1091
4824 36 1082 1078 1086
4825 36 1095 1096 1100
4826 36 1091 1087 1095
4827 36 1104 1105 1109
4828 36 1100 1096 1104
4829 36 1113 1114 1118
4830 36 1109 1105 1113
4831 36 1122 1123 1127
4832 36 1118 1114 1122
4833 36 1131 1132 1136
4834 36 1127 1123 1131
4835 36 1140 1141 1145
4836 36 1136 1132 1140
4837 36 1149 1150 1154
4838 36 1145 1141 1149
4839 36 1158 1159 1163
4840 36 1154 1150 1158
4841 36 1167 1168 1172
4842 36 1163 1159 1167
4843 36 1176 1177 1181
4844 36 1172 1168 1176
4845 36 1185 1186 1190
4846 36 1181 1177 1185
4847 36 1194 1195 1199
4848 36 1190 1186 1194
4849 36 1203 1204 1208
4850 36 1199 1195 1203
4851 36 1212 1213 1217
4852 36 1208 1204 1212
4853 36 1221 1222 1226
4854 36 1217 1213 1221
4855 36 1230 1231 1235
4856 36 1226 1222 1230
4857 36 1239 1240 1244
4858 36 1235 1231 1239
4859 36 1248 1249 1253
4860 36 1244 1240 1248
4861 36 1257 1258 1262
4862 36 1253 1249 1257
4863 36 1266 1267 1271
4864 36 1262 1258 1266
4865 36 1275 1276 1280
4866 36 1271 1267 1275
4867 36 1284 1285 1289
4868 36 1280 1276 1284
4869 36 1293 1294 1298
4870 36 1289 1285 1293
4871 36 1302 1303 1307
4872 36 1298 1294 1302
4873 36 1311 1312 1316
4874 36 1307 1303 1311
4875 36 1320 1321 1325
4876 36 1316 1312 1320
4877 36 1329 1330 1334
4878 36 1325 1321 1329
4879 36 1338 1339 1343
4880 36 1334 1330 1338
4881 36 1343 1339 1347
4882 36 1367 1368 1372
4883 36 1363 1358 1367
4884 36 1376 1377 1381
4885 36 1372 1368 1376
4886 36 1385 1386 1390
4887 36 1381 1377 1385
4888 36 1394 1395 1399
4889 36 1390 1386 1394
4890 36 1403 1404 1408
4891 36 1399 1395 1403
4892 36 1412 1413 1417
4893 36 1408 1404 1412
4894 36 1421 1422 1426
4895 36 1417 1413 1421
4896 36 1430 1431 1435
4897 36 1426 1422 1430
4898 36 1439 1440 1444
4899 36 1435 1431 1439
4900 36 1448 1449 1453
4901 36 1444 1440 1448
4902 36 1457 1458 1462
4903 36 1453 1449 1457
4904 36 1466 1467 1471
4905 36 1462 1458 1466
4906 36 1475 1476 1480
4907 36 1471 1467 1475
4908 36 1484 1485 1489
4909 36 1480 1476 1484
4910 36 1493 1494 1498
4911 36 1489 1485 1493
4912 36 1502 1503 1507
4913 36 1498 1494 1502
4914 36 1511 1512 1516
4915 36 1507 1503 1511
4916 36 1520 1521 1525
4917 36 1516 1512 1520
4918 36 1529 1530 1534
4919 36 1525 1521 1529
4920 36 1538 1539 1543
4921 36 1534 1530 1538
4922 36 1547 1548 1552
4923 36 1543 1539 1547
4924 36 1556 1557 1561
4925 36 1552 1548 1556
4926 36 1565 1566 1570
4927 36 1561 1557 1565
4928 36 1574 1575 1579
4929 36 1570 1566 1574
4930 36 1583 1584 1588
4931 36 1579 1575 1583
4932 36 1592 1593 1597
4933 36 1588 1584 1592
4934 36 1601 1602 1606
4935 36 1597 1593 1601
4936 36 1610 1611 1615
4937 36 1606 1602 1610
4938 36 1619 1620 1624
4939 36 1615 1611 1619
4940 36 1628 1629 1633
4941 36 1624 1620 1628
4942 36 1637 1638 1642
4943 36 1633 1629 1637
4944 36 1646 1647 1651
4945 36 1642 1638 1646
4946 36 1655 1656 1660
4947 36 1651 1647 1655
4948 36 1664 1665 1669
4949 36 1660 1656 1664
4950 36 1673 1674 1678
4951 36 1669 1665 1673
4952 36 1682 1683 1687
4953 36 1678 1674 1682
4954 36 1691 1692 1696
4955 36 1687 1683 1691
4956 36 1700 1701 1705
4957 36 1696 1692 1700
4958 36 1709 1710 1714
4959 36 1705 1701 1709
4960 36 1718 1719 1723
4961 36 1714 1710 1718
4962 36 1727 1728 1732
4963 36 1723 1719 1727
4964 36 1736 1737 1741
4965 36 1732 1728 1736
4966 36 1745 1746 1750
4967 36 1741 1737 1745
4968 36 1754 1755 1759
4969 36 1750 1746 1754
4970 36 1763 1764 1768
4971 36 1759 1755 1763
4972 36 1772 1773 1777
4973 36 1768 1764 1772
4974 36 1781 1782 1786
4975 36 1777 1773 1781
4976 36 1790 1791 1795
4977 36 1786 1782 1790
4978 36 1795 1791 1799
4979 36 1819 1820 1824
4980 36 1815 1810 1819
4981 36 1828 1829 1833
4982 36 1824 1820 1828
4983 36 1837 1838 1842
4984 36 1833 1829 1837
4985 36 1846 1847 1851
4986 36 1842 1838 1846
4987 36 1855 1856 1860
4988 36 1851 1847 1855
4989 36 1864 1865 1869
4990 36 1860 1856 1864
4991 36 1873 1874 1878
4992 36 1869 1865 1873
4993 36 1882 1883 1887
4994 36 1878 1874 1882
4995 36 1891 1892 1896
4996 36 1887 1883 1891
4997 36 1900 1901 1905
4998 36 1896 1892 1900
4999 36 1909 1910 1914
5000 36 1905 1901 1909
5001 36 1918 1919 1923
5002 36 1914 1910 1918
5003 36 1927 1928 1932
5004 36 1923 1919 1927
5005 36 1936 1937 1941
5006 36 1932 1928 1936
5007 36 1945 1946 1950
5008 36 1941 1937 1945
5009 36 1954 1955 1959
5010 36 1950 1946 1954
5011 36 1963 1964 1968
5012 36 1959 1955 1963
5013 36 1972 1973 1977
5014 36 1968 1964 1972
5015 36 1981 1982 1986
5016 36 1977 1973 1981
5017 36 1990 1991 1995
5018 36 1986 1982 1990
5019 36 1999 2000 2004
5020 36 1995 1991 1999
5021 36 2008 2009 2013
5022 36 2004 2000 2008
5023 36 2017 2018 2022
5024 36 2013 2009 2017
5025 36 2026 2027 2031
5026 36 2022 2018 2026
5027 36 2035 2036 2040
5028 36 2031 2027 2035
5029 36 2044 2045 2049
5030 36 2040 2036 2044
5031 36 2053 2054 2058
5032 36 2049 2045 2053
5033 36 2062 2063 2067
5034 36 2058 2054 2062
5035 36 2071 2072 2076
5036 36 2067 2063 2071
5037 36 2080 2081 2085
5038 36 2076 2072 2080
5039 36 2089 2090 2094
5040 36 2085 2081 2089
5041 36 2098 2099 2103
5042 36 2094 2090 2098
5043 36 2107 2108 2112
5044 36 2103 2099 2107
5045 36 2116 2117 2121
5046 36 2112 2108 2116
5047 36 2125 2126 2130
5048 36 2121 2117 2125
5049 36 2134 2135 2139
5050 36 2130 2126 2134
5051 36 2143 2144 2148
5052 36 2139 2135 2143
5053 36 2152 2153 2157
5054 36 2148 2144 2152
5055 36 2161 2162 2166
5056 36 2157 2153 2161
5057 36 2170 2171 2175
5058 36 2166 2162 2170
5059 36 2179 2180 2184
5060 36 2175 2171 2179
5061 36 2188 2189 2193
5062 36 2184 2180 2188
5063 36 2197 2198 2202
5064 36 2193 2189 2197
5065 36 2206 2207 2211
5066 36 2202 2198 2206
5067 36 2215 2216 2220
5068 36 2211 2207 2215
5069 36 2224 2225 2229
5070 36 2220 2216 2224
5071 36 2233 2234 2238
5072 36 2229 2225 2233
5073 36 2242 2243 2247
5074 36 2238 2234 2242
5075 36 2247 2243 2251
5076 36 2271 2272 2276
5077 36 2267 2262 2271
5078 36 2280 2281 2285
5079 36 2276 2272 2280
5080 36 2289 2290 2294
5081 36 2285 2281 2289
5082 36 2298 2299 2303
5083 36 2294 2290 2298
5084 36 2307 2308 2312
5085 36 2303 2299 2307
5086 36 2316 2317 2321
5087 36 2312 2308 2316
5088 36 2325 2326 2330
5089 36 2321 2317 2325
5090 36 2334 2335 2339
5091 36 2330 2326 2334
5092 36 2343 2344 2348
5093 36 2339 2335 2343
5094 36 2352 2353 2357
5095 36 2348 2344 2352
5096 36 2361 2362 2366
5097 36 2357 2353 2361
5098 36 2370 2371 2375
5099 36 2366 2362 2370
5100 36 2379 2380 2384
5101 36 2375 2371 2379
5102 36 2388 2389 2393
5103 36 2384 2380 2388
5104 36 2397 2398 2402
5105 36 2393 2389 2397
5106 36 2406 2407 2411
5107 36 2402 2398 2406
5108 36 2415 2416 2420
5109 36 2411 2407 2415
5110 36 2424 2425 2429
5111 36 2420 2416 2424
5112 36 2433 2434 2438
5113 36 2429 2425 2433
5114 36 2442 2443 2447
5115 36 2438 2434 2442
5116 36 2451 2452 2456
5117 36 2447 2443 2451
5118 36 2460 2461 2465
5119 36 2456 2452 2460
5120 36 2469 2470 2474
5121 36 2465 2461 2469
5122 36 2478 2479 2483
5123 36 2474 2470 2478
5124 36 2487 2488 2492
5125 36 2483 2479 2487
5126 36 2496 2497 2501
5127 36 2492 2488 2496
5128 36 2505 2506 2510
5129 36 2501 2497 2505
5130 36 2514 2515 2519
5131 36 2510 2506 2514
5132 36 2523 2524 2528
5133 36 2519 2515 2523
5134 36 2532 2533 2537
5135 36 2528 2524 2532
5136 36 2541 2542 2546
5137 36 2537 2533 2541
5138 36 2550 2551 2555
5139 36 2546 2542 2550
5140 36 2559 2560 2564
5141 36 2555 2551 2559
5142 36 2568 2569 2573
5143 36 2564 2560 2568
5144 36 2577 2578 2582
5145 36 2573 2569 2577
5146 36 2586 2587 2591
5147 36 2582 2578 2586
5148 36 2595 2596 2600
5149 36 2591 2587 2595
5150 36 2604 2605 2609
5151 36 2600 2596 2604
5152 36 2613 2614 2618
5153 36 2609 2605 2613
5154 36 2622 2623 2627
5155 36 2618 2614 2622
5156 36 2631 2632 2636
5157 36 2627 2623 2631
5158 36 2640 2641 2645
5159 36 2636 2632 2640
5160 36 2649 2650 2654
5161 36 2645 2641 2649
5162 36 2658 2659 2663
5163 36 2654 2650 2658
5164 36 2667 2668 2672
5165 36 2663 2659 2667
5166 36 2676 2677 2681
5167 36 2672 2668 2676
5168 36 2685 2686 2690
5169 36 2681 2677 2685
5170 36 2694 2695 2699
5171 36 2690 2686 2694
5172 36 2699 2695 2703
5173 36 2723 2724 2728
5174 36 2719 2714 2723
5175 36 2732 2733 2737
5176 36 2728 2724 2732
5177 36 2741 2742 2746
5178 36 2737 2733 2741
5179 36 2750 2751 2755
5180 36 2746 2742 2750
5181 36 2759 2760 2764
5182 36 2755 2751 2759
5183 36 2768 2769 2773
5184 36 2764 2760 2768
5185 36 2777 2778 2782
5186 36 2773 2769 2777
5187 36 2786 2787 2791
5188 36 2782 2778 2786
5189 36 2795 2796 2800
5190 36 2791 2787 2795
5191 36 2804 2805 2809
5192 36 2800 2796 2804
5193 36 2813 2814 2818
5194 36 2809 2805 2813
5195 36 2822 2823 2827
5196 36 2818 2814 2822
5197 36 2831 2832 2836
5198 36 2827 2823 2831
5199 36 2840 2841 2845
5200 36 2836 2832 2840
5201 36 2849 2850 2854
5202 36 2845 2841 2849
5203 36 2858 2859 2863
5204 36 2854 2850 2858
5205 36 2867 2868 2872
5206 36 2863 2859 2867
5207 36 2876 2877 2881
5208 36 2872 2868 2876
5209 36 2885 2886 2890
5210 36 2881 2877 2885
5211 36 2894 2895 2899
5212 36 2890 2886 2894
5213 36 2903 2904 2908
5214 36 2899 2895 2903
5215 36 2912 2913 2917
5216 36 2908 2904 2912
5217 36 2921 2922 2926
5218 36 2917 2913 2921
5219 36 2930 2931 2935
5220 36 2926 2922 2930
5221 36 2939 2940 2944
5222 36 2935 2931 2939
5223 36 2948 2949 2953
5224 36 2944 2940 2948
5225 36 2957 2958 2962
5226 36 2953 2949 2957
5227 36 2966 2967 2971
5228 36 2962 2958 2966
5229 36 2975 2976 2980
5230 36 2971 2967 2975
5231 36 2984 2985 2989
5232 36 2980 2976 2984
5233 36 2993 2994 2998
5234 36 2989 2985 2993
5235 36 3002 3003 3007
5236 36 2998 2994 3002
5237 36 3011 3012 3016
5238 36 3007 3003 3011
5239 36 3020 3021 3025
5240 36 3016 3012 3020
5241 36 3029 3030 3034
5242 36 3025 3021 3029
5243 36 3038 3039 3043
5244 36 3034 3030 3038
5245 36 3047 3048 3052
5246 36 3043 3039 3047
5247 36 3056 3057 3061
5248 36 3052 3048 3056
5249 36 3065 3066 3070
5250 36 3061 3057 3065
5251 36 3074 3075 3079
5252 36 3070 3066 3074
5253 36 3083 3084 3088
5254 36 3079 3075 3083
5255 36 3092 3093 3097
5256 36 3088 3084 3092
5257 36 3101 3102 3106
5258 36 3097 3093 3101
5259 36 3110 3111 3115
5260 36 3106 3102 3110
5261 36 3119 3120 3124
5262 36 3115 3111 3119
5263 36 3128 3129 3133
5264 36 3124 3120 3128
5265 36 3137 3138 3142
5266 36 3133 3129 3137
5267 36 3146 3147 3151
5268 36 3142 3138 3146
5269 36 3151 3147 3155
5270 36 3175 3176 3180
5271 36 3171 3166 3175
5272 36 3184 3185 3189
5273 36 3180 3176 3184
5274 36 3193 3194 3198
5275 36 3189 3185 3193
5276 36 3202 3203 3207
5277 36 3198 3194 3202
5278 36 3211 3212 3216
5279 36 3207 3203 3211
5280 36 3220 3221 3225
5281 36 3216 3212 3220
5282 36 3229 3230 3234
5283 36 3225 3221 3229
5284 36 3238 3239 3243
5285 36 3234 3230 3238
5286 36 3247 3248 3252
5287 36 3243 3239 3247
5288 36 3256 3257 3261
5289 36 3252 3248 3256
5290 36 3265 3266 3270
5291 36 3261 3257 3265
5292 36 3274 3275 3279
5293 36 3270 3266 3274
5294 36 3283 3284 3288
5295 36 3279 3275 3283
5296 36 3292 3293 3297
5297 36 3288 3284 3292
5298 36 3301 3302 3306
5299 36 3297 3293 3301
5300 36 3310 3311 3315
5301 36 3306 3302 3310
5302 36 3319 3320 3324
5303 36 3315 3311 3319
5304 36 3328 3329 3333
5305 36 3324 3320 3328
5306 36 3337 3338 3342
5307 36 3333 3329 3337
5308 36 3346 3347 3351
5309 36 3342 3338 3346
5310 36 3355 3356 3360
5311 36 3351 3347 3355
5312 36 3364 3365 3369
5313 36 3360 3356 3364
5314 36 3373 3374 3378
5315 36 3369 3365 3373
5316 36 3382 3383 3387
5317 36 3378 3374 3382
5318 36 3391 3392 3396
5319 36 3387 3383 3391
5320 36 3400 3401 3405
5321 36 3396 3392 3400
5322 36 3409 3410 3414
5323 36 3405 3401 3409
5324 36 3418 3419 3423
5325 36 3414 3410 3418
5326 36 3427 3428 3432
5327 36 3423 3419 3427
5328 36 3436 3437 3441
5329 36 3432 3428 3436
5330 36 3445 3446 3450
5331 36 3441 3437 3445
5332 36 3454 3455 3459
5333 36 3450 3446 3454
5334 36 3463 3464 3468
5335 36 3459 3455 3463
5336 36 3472 3473 3477
5337 36 3468 3464 3472
5338 36 3481 3482 3486
5339 36 3477 3473 3481
5340 36 3490 3491 3495
5341 36 3486 3482 3490
5342 36 3499 3500 3504
5343 36 3495 3491 3499
5344 36 3508 3509 3513
5345 36 3504 3500 3508
5346 36 3517 3518 3522
5347 36 3513 3509 3517
5348 36 3526 3527 3531
5349 36 3522 3518 3526
5350 36 3535 3536 3540
5351 36 3531 3527 3535
5352 36 3544 3545 3549
5353 36 3540 3536 3544
5354 36 3553 3554 3558
5355 36 3549 3545 3553
5356 36 3562 3563 3567
5357 36 3558 3554 3562
5358 36 3571 3572 3576
5359 36 3567 3563 3571
5360 36 3580 3581 3585
5361 36 3576 3572 3580
5362 36 3589 3590 3594
5363 36 3585 3581 3589
5364 36 3598 3599 3603
5365 36 3594 3590 3598
5366 36 3603 3599 3607
5367 36 3627 3628 3632
5368 36 3623 3618 3627
5369 36 3636 3637 3641
5370 36 3632 3628 3636
5371 36 3645 3646 3650
5372 36 3641 3637 3645
5373 36 3654 3655 3659
5374 36 3650 3646 3654
5375 36 3663 3664 3668
5376 36 3659 3655 3663
5377 36 3672 3673 3677
5378 36 3668 3664 3672
5379 36 3681 3682 3686
5380 36 3677 3673 3681
5381 36 3690 3691 3695
5382 36 3686 3682 3690
5383 36 3699 3700 3704
5384 36 3695 3691 3699
5385 36 3708 3709 3713
5386 36 3704 3700 3708
5387 36 3717 3718 3722
5388 36 3713 3709 3717
5389 36 3726 3727 3731
5390 36 3722 3718 3726
5391 36 3735 3736 3740
5392 36 3731 3727 3735
5393 36 3744 3745 3749
5394 36 3740 3736 3744
5395 36 3753 3754 3758
5396 36 3749 3745 3753
5397 36 3762 3763 3767
5398 36 3758 3754 3762
5399 36 3771 3772 3776
5400 36 3767 3763 3771
5401 36 3780 3781 3785
5402 36 3776 3772 3780
5403 36 3789 3790 3794
5404 36 3785 3781 3789
5405 36 3798 3799 3803
5406 36 3794 3790 3798
5407 36 3807 3808 3812
5408 36 3803 3799 3807
5409 36 3816 3817 3821
5410 36 3812 3808 3816
5411 36 3825 3826 3830
5412 36 3821 3817 3825
5413 36 3834 3835 3839
5414 36 3830 3826 3834
5415 36 3843 3844 3848
5416 36 3839 3835 3843
5417 36 3852 3853 3857
5418 36 3848 3844 3852
5419 36 3861 3862 3866
5420 36 3857 3853 3861
5421 36 3870 3871 3875
5422 36 3866 3862 3870
5423 36 3879 3880 3884
5424 36 3875 3871 3879
5425 36 3888 3889 3893
5426 36 3884 3880 3888
5427 36 3897 3898 3902
5428 36 3893 3889 3897
5429 36 3906 3907 3911
5430 36 3902 3898 3906
5431 36 3915 3916 3920
5432 36 3911 3907 3915
5433 36 3924 3925 3929
5434 36 3920 3916 3924
5435 36 3933 3934 3938
5436 36 3929 3925 3933
5437 36 3942 3943 3947
5438 36 3938 3934 3942
5439 36 3951 3952 3956
5440 36 3947 3943 3951
5441 36 3960 3961 3965
5442 36 3956 3952 3960
5443 36 3969 3970 3974
5444 36 3965 3961 3969
5445 36 3978 3979 3983
5446 36 3974 3970 3978
5447 36 3987 3988 3992
5448 36 3983 3979 3987
5449 36 3996 3997 4001
5450 36 3992 3988 3996
5451 36 4005 4006 4010
5452 36 4001 3997 4005
5453 36 4014 4015 4019
5454 36 4010 4006 4014
5455 36 4023 4024 4028
5456 36 4019 4015 4023
5457 36 4032 4033 4037
5458 36 4028 4024 4032
5459 36 4041 4042 4046
5460 36 4037 4033 4041
5461 36 4050 4051 4055
5462 36 4046 4042 4050
5463 36 4055 4051 4059
5464 36 4079 4080 4084
5465 36 4075 4070 4079
5466 36 4088 4089 4093
5467 36 4084 4080 4088
5468 36 4097 4098 4102
5469 36 4093 4089 4097
5470 36 4106 4107 4111
5471 36 4102 4098 4106
5472 36 4115 4116 4120
5473 36 4111 4107 4115
5474 36 4124 4125 4129
5475 36 4120 4116 4124
5476 36 4133 4134 4138
5477 36 4129 4125 4133
5478 36 4142 4143 4147
5479 36 4138 4134 4142
5480 36 4151 4152 4156
5481 36 4147 4143 4151
5482 36 4160 4161 4165
5483 36 4156 4152 4160
5484 36 4169 4170 4174
5485 36 4165 4161 4169
5486 36 4178 4179 4183
5487 36 4174 4170 4178
5488 36 4187 4188 4192
5489 36 4183 4179 4187
5490 36 4196 4197 4201
5491 36 4192 4188 4196
5492 36 4205 4206 4210
5493 36 4201 4197 4205
5494 36 4214 4215 4219
5495 36 4210 4206 4214
5496 36 4223 4224 4228
5497 36 4219 4215 4223
5498 36 4232 4233 4237
5499 36 4228 4224 4232
5500 36 4241 4242 4246
5501 36 4237 4233 4241
5502 36 4250 4251 4255
5503 36 4246 4242 4250
5504 36 4259 4260 4264
5505 36 4255 4251 4259
5506 36 4268 4269 4273
5507 36 4264 4260 4268
5508 36 4277 4278 4282
5509 36 4273 4269 4277
5510 36 4286 4287 4291
5511 36 4282 4278 4286
5512 36 4295 4296 4300
5513 36 4291 4287 4295
5514 36 4304 4305 4309
5515 36 4300 4296 4304
5516 36 4313 4314 4318
5517 36 4309 4305 4313
5518 36 4322 4323 4327
5519 36 4318 4314 4322
5520 36 4331 4332 4336
5521 36 4327 4323 4331
5522 36 4340 4341 4345
5523 36 4336 4332 4340
5524 36 4349 4350 4354
5525 36 4345 4341 4349
5526 36 4358 4359 4363
5527 36 4354 4350 4358
5528 36 4367 4368 4372
5529 36 4363 4359 4367
5530 36 4376 4377 4381
5531 36 4372 4368 4376
5532 36 4385 4386 4390
5533 36 4381 4377 4385
5534 36 4394 4395 4399
5535 36 4390 4386 4394
5536 36 4403 4404 4408
5537 36 4399 4395 4403
5538 36 4412 4413 4417
5539 36 4408 4404 4412
5540 36 4421 4422 4426
5541 36 4417 4413 4421
5542 36 4430 4431 4435
5543 36 4426 4422 4430
5544 36 4439 4440 4444
5545 36 4435 4431 4439
5546 36 4448 4449 4453
5547 36 4444 4440 4448
5548 36 4457 4458 4462
5549 36 4453 4449 4457
5550 36 4466 4467 4471
5551 36 4462 4458 4466
5552 36 4475 4476 4480
5553 36 4471 4467 4475
5554 36 4484 4485 4489
5555 36 4480 4476 4484
5556 36 4493 4494 4498
5557 36 4489 4485 4493
5558 36 4502 4503 4507
5559 36 4498 4494 4502
5560 36 4507 4503 4511
5561 37 2 1 4
5562 37 2 1 5
5563 37 2 1 6
5564 37 2 3 8
5565 37 2 3 9
5566 37 2 3 10
5567 37 12 13 17
5568 37 12 13 18
5569 37 12 13 19
5570 37 21 22 26
5571 37 21 22 27
5572 37 21 22 28
5573 37 30 31 35
5574 37 30 31 36
5575 37 30 31 37
5576 37 39 40 44
5577 37 39 40 45
5578 37 39 40 46
5579 37 48 49 53
5580 37 48 49 54
5581 37 48 49 55
5582 37 57 58 62
5583 37 57 58 63
5584 37 57 58 64
5585 37 66 67 71
5586 37 66 67 72
5587 37 66 67 73
5588 37 75 76 80
5589 37 75 76 81
5590 37 75 76 82
5591 37 84 85 89
5592 37 84 85 90
5593 37 84 85 91
5594 37 93 94 98
5595 37 93 94 99
5596 37 93 94 100
5597 37 102 103 107
5598 37 102 103 108
5599 37 102 103 109
5600 37 111 112 116
5601 37 111 112 117
5602 37 111 112 118
5603 37 120 121 125
5604 37 120 121 126
5605 37 120 121 127
5606 37 129 130 134
5607 37 129 130 135
5608 37 129 130 136
5609 37 138 139 143
5610 37 138 139 144
5611 37 138 139 145
5612 37 147 148 152
5613 37 147 148 153
5614 37 147 148 154
5615 37 156 157 161
5616 37 156 157 162
5617 37 156 157 163
5618 37 165 166 170
5619 37 165 166 171
5620 37 165 166 172
5621 37 174 175 179
5622 37 174 175 180
5623 37 174 175 181
5624 37 183 184 188
5625 37 183 184 189
5626 37 183 184 190
5627 37 192 193 197
5628 37 192 193 198
5629 37 192 193 199
5630 37 201 202 206
5631 37 201 202 207
5632 37 201 202 208
5633 37 210 211 215
5634 37 210 211 216
5635 37 210 211 217
5636 37 219 220 224
5637 37 219 220 225
5638 37 219 220 226
5639 37 228 229 233
5640 37 228 229 234
5641 37 228 229 235
5642 37 237 238 242
5643 37 237 238 243
5644 37 237 238 244
5645 37 246 247 251
5646 37 246 247 252
5647 37 246 247 253
5648 37 255 256 260
5649 37 255 256 261
5650 37 255 256 262
5651 37 264 265 269
5652 37 264 265 270
5653 37 264 265 271
5654 37 273 274 278
5655 37 273 274 279
5656 37 273 274 280
5657 37 282 283 287
5658 37 282 283 288
5659 37 282 283 289
5660 37 291 292 296
5661 37 291 292 297
5662 37 291 292 298
5663 37 300 301 305
5664 37 300 301 306
5665 37 300 301 307
5666 37 309 310 314
5667 37 309 310 315
5668 37 309 310 316
5669 37 318 319 323
5670 37 318 319 324
5671 37 318 319 325
5672 37 327 328 332
5673 37 327 328 333
5674 37 327 328 334
5675 37 336 337 341
5676 37 336 337 342
5677 37 336 337 343
5678 37 345 346 350
5679 37 345 346 351
5680 37 345 346 352
5681 37 354 355 359
5682 37 354 355 360
5683 37 354 355 361
5684 37 363 364 368
5685 37 363 364 369
5686 37 363 364 370
5687 37 372 373 377
5688 37 372 373 378
5689 37 372 373 379
5690 37 381 382 386
5691 37 381 382 387
5692 37 381 382 388
5693 37 390 391 395
5694 37 390 391 396
5695 37 390 391 397
5696 37 399 400 404
5697 37 399 400 405
5698 37 399 400 406
5699 37 408 409 413
5700 37 408 409 414
5701 37 408 409 415
5702 37 417 418 422
5703 37 417 418 423
5704 37 417 418 424
5705 37 426 427 431
5706 37 426 427 432
5707 37 426 427 433
5708 37 435 436 440
5709 37 435 436 441
5710 37 435 436 442
5711 37 454 453 456
5712 37 454 453 457
5713 37 454 453 458
5714 37 454 455 460
5715 37 454 455 461
5716 37 454 455 462
5717 37 464 465 469
5718 37 464 465 470
5719 37 464 465 471
5720 37 473 474 478
5721 37 473 474 479
5722 37 473 474 480
5723 37 482 483 487
5724 37 482 483 488
5725 37 482 483 489
5726 37 491 492 496
5727 37 491 492 497
5728 37 491 492 498
5729 37 500 501 505
5730 37 500 501 506
5731 37 500 501 507
5732 37 509 510 514
5733 37 509 510 515
5734 37 509 510 516
5735 37 518 519 523
5736 37 518 519 524
5737 37 518 519 525
5738 37 527 528 532
5739 37 527 528 533
5740 37 527 528 534
5741 37 536 537 541
5742 37 536 537 542
5743 37 536 537 543
5744 37 545 546 550
5745 37 545 546 551
5746 37 545 546 552
5747 37 554 555 559
5748 37 554 555 560
5749 37 554 555 561
5750 37 563 564 568
5751 37 563 564 569
5752 37 563 564 570
5753 37 572 573 577
5754 37 572 573 578
5755 37 572 573 579
5756 37 581 582 586
5757 37 581 582 587
5758 37 581 582 588
5759 37 590 591 595
5760 37 590 591 596
5761 37 590 591 597
5762 37 599 600 604
5763 37 599 600 605
5764 37 599 600 606
5765 37 608 609 613
5766 37 608 609 614
5767 37 608 609 615
5768 37 617 618 622
5769 37 617 618 623
5770 37 617 618 624
5771 37 626 627 631
5772 37 626 627 632
5773 37 626 627 633
5774 37 635 636 640
5775 37 635 636 641
5776 37 635 636 642
5777 37 644 645 649
5778 37 644 645 650
5779 37 644 645 651
5780 37 653 654 658
5781 37 653 654 659
5782 37 653 654 660
5783 37 662 663 667
5784 37 662 663 668
5785 37 662 663 669
5786 37 671 672 676
5787 37 671 672 677
5788 37 671 672 678
5789 37 680 681 685
5790 37 680 681 686
5791 37 680 681 687
5792 37 689 690 694
5793 37 689 690 695
5794 37 689 690 696
5795 37 698 699 703
5796 37 698 699 704
5797 37 698 699 705
5798 37 707 708 712
5799 37 707 708 713
5800 37 707 708 714
5801 37 716 717 721
5802 37 716 717 722
5803 37 716 717 723
5804 37 725 726 730
5805 37 725 726 731
5806 37 725 726 732
5807 37 734 735 739
5808 37 734 735 740
5809 37 734 735 741
5810 37 743 744 748
5811 37 743 744 749
5812 37 743 744 750
5813 37 752 753 757
5814 37 752 753 758
5815 37 752 753 759
5816 37 761 762 766
5817 37 761 762 767
5818 37 761 762 768
5819 37 770 771 775
5820 37 770 771 776
5821 37 770 771 777
5822 37 779 780 784
5823 37 779 780 785
5824 37 779 780 786
5825 37 788 789 793
5826 37 788 789 794
5827 37 788 789 795
5828 37 797 798 802
5829 37 797 798 803
5830 37 797 798 804
5831 37 806 807 811
5832 37 806 807 812
5833 37 806 807 813
5834 37 815 816 820
5835 37 815 816 821
5836 37 815 816 822
5837 37 824 825 829
5838 37 824 825 830
5839 37 824 825 831
5840 37 833 834 838
5841 37 833 834 839
5842 37 833 834 840
5843 37 842 843 847
5844 37 842 843 848
5845 37 842 843 849
5846 37 851 852 856
5847 37 851 852 857
5848 37 851 852 858
5849 37 860 861 865
5850 37 860 861 866
5851 37 860 861 867
5852 37 869 870 874
5853 37 869 870 875
5854 37 869 870 876
5855 37 878 879 883
5856 37 878 879 884
5857 37 878 879 885
5858 37 887 888 892
5859 37 887 888 893
5860 37 887 888 894
5861 37 906 905 908
5862 37 906 905 909
5863 37 906 905 910
5864 37 906 907 912
5865 37 906 907 913
5866 37 906 907 914
5867 37 916 917 921
5868 37 916 917 922
5869 37 916 917 923
5870 37 925 926 930
5871 37 925 926 931
5872 37 925 926 932
5873 37 934 935 939
5874 37 934 935 940
5875 37 934 935 941
5876 37 943 944 948
5877 37 943 944 949
5878 37 943 944 950
5879 37 952 953 957
5880 37 952 953 958
5881 37 952 953 959
5882 37 961 962 966
5883 37 961 962 967
5884 37 961 962 968
5885 37 970 971 975
5886 37 970 971 976
5887 37 970 971 977
5888 37 979 980 984
5889 37 979 980 985
5890 37 979 980 986
5891 37 988 989 993
5892 37 988 989 994
5893 37 988 989 995
5894 37 997 998 1002
5895 37 997 998 1003
5896 37 997 998 1004
5897 37 1006 1007 1011
5898 37 1006 1007 1012
5899 37 1006 1007 1013
5900 37 1015 1016 1020
5901 37 1015 1016 1021
5902 37 1015 1016 1022
5903 37 1024 1025 1029
5904 37 1024 1025 1030
5905 37 1024 1025 1031
5906 37 1033 1034 1038
5907 37 1033 1034 1039
5908 37 1033 1034 1040
5909 37 1042 1043 1047
5910 37 1042 1043 1048
5911 37 1042 1043 1049
5912 37 1051 1052 1056
5913 37 1051 1052 1057
5914 37 1051 1052 1058
5915 37 1060 1061 1065
5916 37 1060 1061 1066
5917 37 1060 1061 1067
5918 37 1069 1070 1074
5919 37 1069 1070 1075
5920 37 1069 1070 1076
5921 37 1078 1079 1083
5922 37 1078 1079 1084
5923 37 1078 1079 1085
5924 37 1087 1088 1092
5925 37 1087 1088 1093
5926 37 1087 1088 1094
5927 37 1096 1097 1101
5928 37 1096 1097 1102
5929 37 1096 1097 1103
5930 37 1105 1106 1110
5931 37 1105 1106 1111
5932 37 1105 1106 1112
5933 37 1114 1115 1119
5934 37 1114 1115 1120
5935 37 1114 1115 1121
5936 37 1123 1124 1128
5937 37 1123 1124 1129
5938 37 1123 1124 1130
5939 37 1132 1133 1137
5940 37 1132 1133 1138
5941 37 1132 1133 1139
5942 37 1141 1142 1146
5943 37 1141 1142 1147
5944 37 1141 1142 1148
5945 37 1150 1151 1155
5946 37 1150 1151 1156
5947 37 1150 1151 1157
5948 37 1159 1160 1164
5949 37 1159 1160 1165
5950 37 1159 1160 1166
5951 37 1168 1169 1173
5952 37 1168 1169 1174
5953 37 1168 1169 1175
5954 37 1177 1178 1182
5955 37 1177 1178 1183
5956 37 1177 1178 1184
5957 37 1186 1187 1191
5958 37 1186 1187 1192
5959 37 1186 1187 1193
5960 37 1195 1196 1200
5961 37 1195 1196 1201
5962 37 1195 1196 1202
5963 37 1204 1205 1209
5964 37 1204 1205 1210
5965 37 1204 1205 1211
5966 37 1213 1214 1218
5967 37 1213 1214 1219
5968 37 1213 1214 1220
5969 37 1222 1223 1227
5970 37 1222 1223 1228
5971 37 1222 1223 1229
5972 37 1231 1232 1236
5973 37 1231 1232 1237
5974 37 1231 1232 1238
5975 37 1240 1241 1245
5976 37 1240 1241 1246
5977 37 1240 1241 1247
5978 37 1249 1250 1254
5979 37 1249 1250 1255
5980 37 1249 1250 1256
5981 37 1258 1259 1263
5982 37 1258 1259 1264
5983 37 1258 1259 1265
5984 37 1267 1268 1272
5985 37 1267 1268 1273
5986 37 1267 1268 1274
5987 37 1276 1277 1281
5988 37 1276 1277 1282
5989 37 1276 1277 1283
5990 37 1285 1286 1290
5991 37 1285 1286 1291
5992 37 1285 1286 1292
5993 37 1294 1295 1299
5994 37 1294 1295 1300
5995 37 1294 1295 1301
5996 37 1303 1304 1308
5997 37 1303 1304 1309
5998 37 1303 1304 1310
5999 37 1312 1313 1317
6000 37 1312 1313 1318
6001 37 1312 1313 1319
6002 37 1321 1322 1326
6003 37 1321 1322 1327
6004 37 1321 1322 1328
6005 37 1330 1331 1335
6006 37 1330 1331 1336
6007 37 1330 1331 1337
6008 37 1339 1340 1344
6009 37 1339 1340 1345
6010 37 1339 1340 1346
6011 37 1358 1357 1360
6012 37 1358 1357 1361
6013 37 1358 1357 1362
6014 37 1358 1359 1364
6015 37 1358 1359 1365
6016 37 1358 1359 1366
6017 37 1368 1369 1373
6018 37 1368 1369 1374
6019 37 1368 1369 1375
6020 37 1377 1378 1382
6021 37 1377 1378 1383
6022 37 1377 1378 1384
6023 37 1386 1387 1391
6024 37 1386 1387 1392
6025 37 1386 1387 1393
6026 37 1395 1396 1400
6027 37 1395 1396 1401
6028 37 1395 1396 1402
6029 37 1404 1405 1409
6030 37 1404 1405 1410
6031 37 1404 1405 1411
6032 37 1413 1414 1418
6033 37 1413 1414 1419
6034 37 1413 1414 1420
6035 37 1422 1423 1427
6036 37 1422 1423 1428
6037 37 1422 1423 1429
6038 37 1431 1432 1436
6039 37 1431 1432 1437
6040 37 1431 1432 1438
6041 37 1440 1441 1445
6042 37 1440 1441 1446
6043 37 1440 1441 1447
6044 37 1449 1450 1454
6045 37 1449 1450 1455
6046 37 1449 1450 1456
6047 37 1458 1459 1463
6048 37 1458 1459 1464
6049 37 1458 1459 1465
6050 37 1467 1468 1472
6051 37 1467 1468 1473
6052 37 1467 1468 1474
6053 37 1476 1477 1481
6054 37 1476 1477 1482
6055 37 1476 1477 1483
6056 37 1485 1486 1490
6057 37 1485 1486 1491
6058 37 1485 1486 1492
6059 37 1494 1495 1499
6060 37 1494 1495 1500
6061 37 1494 1495 1501
6062 37 1503 1504 1508
6063 37 1503 1504 1509
6064 37 1503 1504 1510
6065 37 1512 1513 1517
6066 37 1512 1513 1518
6067 37 1512 1513 1519
6068 37 1521 1522 1526
6069 37 1521 1522 1527
6070 37 1521 1522 1528
6071 37 1530 1531 1535
6072 37 1530 1531 1536
6073 37 1530 1531 1537
6074 37 1539 1540 1544
6075 37 1539 1540 1545
6076 37 1539 1540 1546
6077 37 1548 1549 1553
6078 37 1548 1549 1554
6079 37 1548 1549 1555
6080 37 1557 1558 1562
6081 37 1557 1558 1563
6082 37 1557 1558 1564
6083 37 1566 1567 1571
6084 37 1566 1567 1572
6085 37 1566 1567 1573
6086 37 1575 1576 1580
6087 37 1575 1576 1581
6088 37 1575 1576 1582
6089 37 1584 1585 1589
6090 37 1584 1585 1590
6091 37 1584 1585 1591
6092 37 1593 1594 1598
6093 37 1593 1594 1599
6094 37 1593 1594 1600
6095 37 1602 1603 1607
6096 37 1602 1603 1608
6097 37 1602 1603 1609
6098 37 1611 1612 1616
6099 37 1611 1612 1617
6100 37 1611 1612 1618
6101 37 1620 1621 1625
6102 37 1620 1621 1626
6103 37 1620 1621 1627
6104 37 1629 1630 1634
6105 37 1629 1630 1635
6106 37 1629 1630 1636
6107 37 1638 1639 1643
6108 37 1638 1639 1644
6109 37 1638 1639 1645
6110 37 1647 1648 1652
6111 37 1647 1648 1653
6112 37 1647 1648 1654
6113 37 1656 1657 1661
6114 37 1656 1657 1662
6115 37 1656 1657 1663
6116 37 1665 1666 1670
6117 37 1665 1666 1671
6118 37 1665 1666 1672
6119 37 1674 1675 1679
6120 37 1674 1675 1680
6121 37 1674 1675 1681
6122 37 1683 1684 1688
6123 37 1683 1684 1689
6124 37 1683 1684 1690
6125 37 1692 1693 1697
6126 37 1692 1693 1698
6127 37 1692 1693 1699
6128 37 1701 1702 1706
6129 37 1701 1702 1707
6130 37 1701 1702 1708
6131 37 1710 1711 1715
6132 37 1710 1711 1716
6133 37 1710 1711 1717
6134 37 1719 1720 1724
6135 37 1719 1720 1725
6136 37 1719 1720 1726
6137 37 1728 1729 1733
6138 37 1728 1729 1734
6139 37 1728 1729 1735
6140 37 1737 1738 1742
6141 37 1737 1738 1743
6142 37 1737 1738 1744
6143 37 1746 1747 1751
6144 37 1746 1747 1752
6145 37 1746 1747 1753
6146 37 1755 1756 1760
6147 37 1755 1756 1761
6148 37 1755 1756 1762
6149 37 1764 1765 1769
6150 37 1764 1765 1770
6151 37 1764 1765 1771
6152 37 1773 1774 1778
6153 37 1773 1774 1779
6154 37 1773 1774 1780
6155 37 1782 1783 1787
6156 37 1782 1783 1788
6157 37 1782 1783 1789
6158 37 1791 1792 1796
6159 37 1791 1792 1797
6160 37 1791 1792 1798
6161 37 1810 1809 1812
6162 37 1810 1809 1813
6163 37 1810 1809 1814
6164 37 1810 1811 1816
6165 37 1810 1811 1817
6166 37 1810 1811 1818
6167 37 1820 1821 1825
6168 37 1820 1821 1826
6169 37 1820 1821 1827
6170 37 1829 1830 1834
6171 37 1829 1830 1835
6172 37 1829 1830 1836
6173 37 1838 1839 1843
6174 37 1838 1839 1844
6175 37 1838 1839 1845
6176 37 1847 1848 1852
6177 37 1847 1848 1853
6178 37 1847 1848 1854
6179 37 1856 1857 1861
6180 37 1856 1857 1862
6181 37 1856 1857 1863
6182 37 1865 1866 1870
6183 37 1865 1866 1871
6184 37 1865 1866 1872
6185 37 1874 1875 1879
6186 37 1874 1875 1880
6187 37 1874 1875 1881
6188 37 1883 1884 1888
6189 37 1883 1884 1889
6190 37 1883 1884 1890
6191 37 1892 1893 1897
6192 37 1892 1893 1898
6193 37 1892 1893 1899
6194 37 1901 1902 1906
6195 37 1901 1902 1907
6196 37 1901 1902 1908
6197 37 1910 1911 1915
6198 37 1910 1911 1916
6199 37 1910 1911 1917
6200 37 1919 1920 1924
6201 37 1919 1920 1925
6202 37 1919 1920 1926
6203 37 1928 1929 1933
6204 37 1928 1929 1934
6205 37 1928 1929 1935
6206 37 1937 1938 1942
6207 37 1937 1938 1943
6208 37 1937 1938 1944
6209 37 1946 1947 1951
6210 37 1946 1947 1952
6211 37 1946 1947 1953
6212 37 1955 1956 1960
6213 37 1955 1956 1961
6214 37 1955 1956 1962
6215 37 1964 1965 1969
6216 37 1964 1965 1970
6217 37 1964 1965 1971
6218 37 1973 1974 1978
6219 37 1973 1974 1979
6220 37 1973 1974 1980
6221 37 1982 1983 1987
6222 37 1982 1983 1988
6223 37 1982 1983 1989
6224 37 1991 1992 1996
6225 37 1991 1992 1997
6226 37 1991 1992 1998
6227 37 2000 2001 2005
6228 37 2000 2001 2006
6229 37 2000 2001 2007
6230 37 2009 2010 2014
6231 37 2009 2010 2015
6232 37 2009 2010 2016
6233 37 2018 2019 2023
6234 37 2018 2019 2024
6235 37 2018 2019 2025
6236 37 2027 2028 2032
6237 37 2027 2028 2033
6238 37 2027 2028 2034
6239 37 2036 2037 2041
6240 37 2036 2037 2042
6241 37 2036 2037 2043
6242 37 2045 2046 2050
6243 37 2045 2046 2051
6244 37 2045 2046 2052
6245 37 2054 2055 2059
6246 37 2054 2055 2060
6247 37 2054 2055 2061
6248 37 2063 2064 2068
6249 37 2063 2064 2069
6250 37 2063 2064 2070
6251 37 2072 2073 2077
6252 37 2072 2073 2078
6253 37 2072 2073 2079
6254 37 2081 2082 2086
6255 37 2081 2082 2087
6256 37 2081 2082 2088
6257 37 2090 2091 2095
6258 37 2090 2091 2096
6259 37 2090 2091 2097
6260 37 2099 2100 2104
6261 37 2099 2100 2105
6262 37 2099 2100 2106
6263 37 2108 2109 2113
6264 37 2108 2109 2114
6265 37 2108 2109 2115
6266 37 2117 2118 2122
6267 37 2117 2118 2123
6268 37 2117 2118 2124
6269 37 2126 2127 2131
6270 37 2126 2127 2132
6271 37 2126 2127 2133
6272 37 2135 2136 2140
6273 37 2135 2136 2141
6274 37 2135 2136 2142
6275 37 2144 2145 2149
6276 37 2144 2145 2150
6277 37 2144 2145 2151
6278 37 2153 2154 2158
6279 37 2153 2154 2159
6280 37 2153 2154 2160
6281 37 2162 2163 2167
6282 37 2162 2163 2168
6283 37 2162 2163 2169
6284 37 2171 2172 2176
6285 37 2171 2172 2177
6286 37 2171 2172 2178
6287 37 2180 2181 2185
6288 37 2180 2181 2186
6289 37 2180 2181 2187
6290 37 2189 2190 2194
6291 37 2189 2190 2195
6292 37 2189 2190 2196
6293 37 2198 2199 2203
6294 37 2198 2199 2204
6295 37 2198 2199 2205
6296 37 2207 2208 2212
6297 37 2207 2208 2213
6298 37 2207 2208 2214
6299 37 2216 2217 2221
6300 37 2216 2217 2222
6301 37 2216 2217 2223
6302 37 2225 2226 2230
6303 37 2225 2226 2231
6304 37 2225 2226 2232
6305 37 2234 2235 2239
6306 37 2234 2235 2240
6307 37 2234 2235 2241
6308 37 2243 2244 2248
6309 37 2243 2244 2249
6310 37 2243 2244 2250
6311 37 2262 2261 2264
6312 37 2262 2261 2265
6313 37 2262 2261 2266
6314 37 2262 2263 2268
6315 37 2262 2263 2269
6316 37 2262 2263 2270
6317 37 2272 2273 2277
6318 37 2272 2273 2278
6319 37 2272 2273 2279
6320 37 2281 2282 2286
6321 37 2281 2282 2287
6322 37 2281 2282 2288
6323 37 2290 2291 2295
6324 37 2290 2291 2296
6325 37 2290 2291 2297
6326 37 2299 2300 2304
6327 37 2299 2300 2305
6328 37 2299 2300 2306
6329 37 2308 2309 2313
6330 37 2308 2309 2314
6331 37 2308 2309 2315
6332 37 2317 2318 2322
6333 37 2317 2318 2323
6334 37 2317 2318 2324
6335 37 2326 2327 2331
6336 37 2326 2327 2332
6337 37 2326 2327 2333
6338 37 2335 2336 2340
6339 37 2335 2336 2341
6340 37 2335 2336 2342
6341 37 2344 2345 2349
6342 37 2344 2345 2350
6343 37 2344 2345 2351
6344 37 2353 2354 2358
6345 37 2353 2354 2359
6346 37 2353 2354 2360
6347 37 2362 2363 2367
6348 37 2362 2363 2368
6349 37 2362 2363 2369
6350 37 2371 2372 2376
6351 37 2371 2372 2377
6352 37 2371 2372 2378
6353 37 2380 2381 2385
6354 37 2380 2381 2386
6355 37 2380 2381 2387
6356 37 2389 2390 2394
6357 37 2389 2390 2395
6358 37 2389 2390 2396
6359 37 2398 2399 2403
6360 37 2398 2399 2404
6361 37 2398 2399 2405
6362 37 2407 2408 2412
6363 37 2407 2408 2413
6364 37 2407 2408 2414
6365 37 2416 2417 2421
6366 37 2416 2417 2422
6367 37 2416 2417 2423
6368 37 2425 2426 2430
6369 37 2425 2426 2431
6370 37 2425 2426 2432
6371 37 2434 2435 2439
6372 37 2434 2435 2440
6373 37 2434 2435 2441
6374 37 2443 2444 2448
6375 37 2443 2444 2449
6376 37 2443 2444 2450
6377 37 2452 2453 2457
6378 37 2452 2453 2458
6379 37 2452 2453 2459
6380 37 2461 2462 2466
6381 37 2461 2462 2467
6382 37 2461 2462 2468
6383 37 2470 2471 2475
6384 37 2470 2471 2476
6385 37 2470 2471 2477
6386 37 2479 2480 2484
6387 37 2479 2480 2485
6388 37 2479 2480 2486
6389 37 2488 2489 2493
6390 37 2488 2489 2494
6391 37 2488 2489 2495
6392 37 2497 2498 2502
6393 37 2497 2498 2503
6394 37 2497 2498 2504
6395 37 2506 2507 2511
6396 37 2506 2507 2512
6397 37 2506 2507 2513
6398 37 2515 2516 2520
6399 37 2515 2516 2521
6400 37 2515 2516 2522
6401 37 2524 2525 2529
6402 37 2524 2525 2530
6403 37 2524 2525 2531
6404 37 2533 2534 2538
6405 37 2533 2534 2539
6406 37 2533 2534 2540
6407 37 2542 2543 2547
6408 37 2542 2543 2548
6409 37 2542 2543 2549
6410 37 2551 2552 2556
6411 37 2551 2552 2557
6412 37 2551 2552 2558
6413 37 2560 2561 2565
6414 37 2560 2561 2566
6415 37 2560 2561 2567
6416 37 2569 2570 2574
6417 37 2569 2570 2575
6418 37 2569 2570 2576
6419 37 2578 2579 2583
6420 37 2578 2579 2584
6421 37 2578 2579 2585
6422 37 2587 2588 2592
6423 37 2587 2588 2593
6424 37 2587 2588 2594
6425 37 2596 2597 2601
6426 37 2596 2597 2602
6427 37 2596 2597 2603
6428 37 2605 2606 2610
6429 37 2605 2606 2611
6430 37 2605 2606 2612
6431 37 2614 2615 2619
6432 37 2614 2615 2620
6433 37 2614 2615 2621
6434 37 2623 2624 2628
6435 37 2623 2624 2629
6436 37 2623 2624 2630
6437 37 2632 2633 2637
6438 37 2632 2633 2638
6439 37 2632 2633 2639
6440 37 2641 2642 2646
6441 37 2641 2642 2647
6442 37 2641 2642 2648
6443 37 2650 2651 2655
6444 37 2650 2651 2656
6445 37 2650 2651 2657
6446 37 2659 2660 2664
6447 37 2659 2660 2665
6448 37 2659 2660 2666
6449 37 2668 2669 2673
6450 37 2668 2669 2674
6451 37 2668 2669 2675
6452 37 2677 2678 2682
6453 37 2677 2678 2683
6454 37 2677 2678 2684
6455 37 2686 2687 2691
6456 37 2686 2687 2692
6457 37 2686 2687 2693
6458 37 2695 2696 2700
6459 37 2695 2696 2701
6460 37 2695 2696 2702
6461 37 2714 2713 2716
6462 37 2714 2713 2717
6463 37 2714 2713 2718
6464 37 2714 2715 2720
6465 37 2714 2715 2721
6466 37 2714 2715 2722
6467 37 2724 2725 2729
6468 37 2724 2725 2730
6469 37 2724 2725 2731
6470 37 2733 2734 2738
6471 37 2733 2734 2739
6472 37 2733 2734 2740
6473 37 2742 2743 2747
6474 37 2742 2743 2748
6475 37 2742 2743 2749
6476 37 2751 2752 2756
6477 37 2751 2752 2757
6478 37 2751 2752 2758
6479 37 2760 2761 2765
6480 37 2760 2761 2766
6481 37 2760 2761 2767
6482 37 2769 2770 2774
6483 37 2769 2770 2775
6484 37 2769 2770 2776
6485 37 2778 2779 2783
6486 37 2778 2779 2784
6487 37 2778 2779 2785
6488 37 2787 2788 2792
6489 37 2787 2788 2793
6490 37 2787 2788 2794
6491 37 2796 2797 2801
6492 37 2796 2797 2802
6493 37 2796 2797 2803
6494 37 2805 2806 2810
6495 37 2805 2806 2811
6496 37 2805 2806 2812
6497 37 2814 2815 2819
6498 37 2814 2815 2820
6499 37 2814 2815 2821
6500 37 2823 2824 2828
6501 37 2823 2824 2829
6502 37 2823 2824 2830
6503 37 2832 2833 2837
6504 37 2832 2833 2838
6505 37 2832 2833 2839
6506 37 2841 2842 2846
6507 37 2841 2842 2847
6508 37 2841 2842 2848
6509 37 2850 2851 2855
6510 37 2850 2851 2856
6511 37 2850 2851 2857
6512 37 2859 2860 2864
6513 37 2859 2860 2865
6514 37 2859 2860 2866
6515 37 2868 2869 2873
6516 37 2868 2869 2874
6517 37 2868 2869 2875
6518 37 2877 2878 2882
6519 37 2877 2878 2883
6520 37 2877 2878 2884
6521 37 2886 2887 2891
6522 37 2886 2887 2892
6523 37 2886 2887 2893
6524 37 2895 2896 2900
6525 37 2895 2896 2901
6526 37 2895 2896 2902
6527 37 2904 2905 2909
6528 37 2904 2905 2910
6529 37 2904 2905 2911
6530 37 2913 2914 2918
6531 37 2913 2914 2919
6532 37 2913 2914 2920
6533 37 2922 2923 2927
6534 37 2922 2923 2928
6535 37 2922 2923 2929
6536 37 2931 2932 2936
6537 37 2931 2932 2937
6538 37 2931 2932 2938
6539 37 2940 2941 2945
6540 37 2940 2941 2946
6541 37 2940 2941 2947
6542 37 2949 2950 2954
6543 37 2949 2950 2955
6544 37 2949 2950 2956
6545 37 2958 2959 2963
6546 37 2958 2959 2964
6547 37 2958 2959 2965
6548 37 2967 2968 2972
6549 37 2967 2968 2973
6550 37 2967 2968 2974
6551 37 2976 2977 2981
6552 37 2976 2977 2982
6553 37 2976 2977 2983
6554 37 2985 2986 2990
6555 37 2985 2986 2991
6556 37 2985 2986 2992
6557 37 2994 2995 2999
6558 37 2994 2995 3000
6559 37 2994 2995 3001
6560 37 3003 3004 3008
6561 37 3003 3004 3009
6562 37 3003 3004 3010
6563 37 3012 3013 3017
6564 37 3012 3013 3018
6565 37 3012 3013 3019
6566 37 3021 3022 3026
6567 37 3021 3022 3027
6568 37 3021 3022 3028
6569 37 3030 3031 3035
6570 37 3030 3031 3036
6571 37 3030 3031 3037
6572 37 3039 3040 3044
6573 37 3039 3040 3045
6574 37 3039 3040 3046
6575 37 3048 3049 3053
6576 37 3048 3049 3054
6577 37 3048 3049 3055
6578 37 3057 3058 3062
6579 37 3057 3058 3063
6580 37 3057 3058 3064
6581 37 3066 3067 3071
6582 37 3066 3067 3072
6583 37 3066 3067 3073
6584 37 3075 3076 3080
6585 37 3075 3076 3081
6586 37 3075 3076 3082
6587 37 3084 3085 3089
6588 37 3084 3085 3090
6589 37 3084 3085 3091
6590 37 3093 3094 3098
6591 37 3093 3094 3099
6592 37 3093 3094 3100
6593 37 3102 3103 3107
6594 37 3102 3103 3108
6595 37 3102 3103 3109
6596 37 3111 3112 3116
6597 37 3111 3112 3117
6598 37 3111 3112 3118
6599 37 3120 3121 3125
6600 37 3120 3121 3126
6601 37 3120 3121 3127
6602 37 3129 3130 3134
6603 37 3129 3130 3135
6604 37 3129 3130 3136
6605 37 3138 3139 3143
6606 37 3138 3139 3144
6607 37 3138 3139 3145
6608 37 3147 3148 3152
6609 37 3147 3148 3153
6610 37 3147 3148 3154
6611 37 3166 3165 3168
6612 37 3166 3165 3169
6613 37 3166 3165 3170
6614 37 3166 3167 3172
6615 37 3166 3167 3173
6616 37 3166 3167 3174
6617 37 3176 3177 3181
6618 37 3176 3177 3182
6619 37 3176 3177 3183
6620 37 3185 3186 3190
6621 37 3185 3186 3191
6622 37 3185 3186 3192
6623 37 3194 3195 3199
6624 37 3194 3195 3200
6625 37 3194 3195 3201
6626 37 3203 3204 3208
6627 37 3203 3204 3209
6628 37 3203 3204 3210
6629 37 3212 3213 3217
6630 37 3212 3213 3218
6631 37 3212 3213 3219
6632 37 3221 3222 3226
6633 37 3221 3222 3227
6634 37 3221 3222 3228
6635 37 3230 3231 3235
6636 37 3230 3231 3236
6637 37 3230 3231 3237
6638 37 3239 3240 3244
6639 37 3239 3240 3245
6640 37 3239 3240 3246
6641 37 3248 3249 3253
6642 37 3248 3249 3254
6643 37 3248 3249 3255
6644 37 3257 3258 3262
6645 37 3257 3258 3263
6646 37 3257 3258 3264
6647 37 3266 3267 3271
6648 37 3266 3267 3272
6649 37 3266 3267 3273
6650 37 3275 3276 3280
6651 37 3275 3276 3281
6652 37 3275 3276 3282
6653 37 3284 3285 3289
6654 37 3284 3285 3290
6655 37 3284 3285 3291
6656 37 3293 3294 3298
6657 37 3293 3294 3299
6658 37 3293 3294 3300
6659 37 3302 3303 3307
6660 37 3302 3303 3308
6661 37 3302 3303 3309
6662 37 3311 3312 3316
6663 37 3311 3312 3317
6664 37 3311 3312 3318
6665 37 3320 3321 3325
6666 37 3320 3321 3326
6667 37 3320 3321 3327
6668 37 3329 3330 3334
6669 37 3329 3330 3335
6670 37 3329 3330 3336
6671 37 3338 3339 3343
6672 37 3338 3339 3344
6673 37 3338 3339 3345
6674 37 3347 3348 3352
6675 37 3347 3348 3353
6676 37 3347 3348 3354
6677 37 3356 3357 3361
6678 37 3356 3357 3362
6679 37 3356 3357 3363
6680 37 3365 3366 3370
6681 37 3365 3366 3371
6682 37 3365 3366 3372
6683 37 3374 3375 3379
6684 37 3374 3375 3380
6685 37 3374 3375 3381
6686 37 3383 3384 3388
6687 37 3383 3384 3389
6688 37 3383 3384 3390
6689 37 3392 3393 3397
6690 37 3392 3393 3398
6691 37 3392 3393 3399
6692 37 3401 3402 3406
6693 37 3401 3402 3407
6694 37 3401 3402 3408
6695 37 3410 3411 3415
6696 37 3410 3411 3416
6697 37 3410 3411 3417
6698 37 3419 3420 3424
6699 37 3419 3420 3425
6700 37 3419 3420 3426
6701 37 3428 3429 3433
6702 37 3428 3429 3434
6703 37 3428 3429 3435
6704 37 3437 3438 3442
6705 37 3437 3438 3443
6706 37 3437 3438 3444
6707 37 3446 3447 3451
6708 37 3446 3447 3452
6709 37 3446 3447 3453
6710 37 3455 3456 3460
6711 37 3455 3456 3461
6712 37 3455 3456 3462
6713 37 3464 3465 3469
6714 37 3464 3465 3470
6715 37 3464 3465 3471
6716 37 3473 3474 3478
6717 37 3473 3474 3479
6718 37 3473 3474 3480
6719 37 3482 3483 3487
6720 37 3482 3483 3488
6721 37 3482 3483 3489
6722 37 3491 3492 3496
6723 37 3491 3492 3497
6724 37 3491 3492 3498
6725 37 3500 3501 3505
6726 37 3500 3501 3506
6727 37 3500 3501 3507
6728 37 3509 3510 3514
6729 37 3509 3510 3515
6730 37 3509 3510 3516
6731 37 3518 3519 3523
6732 37 3518 3519 3524
6733 37 3518 3519 3525
6734 37 3527 3528 3532
6735 37 3527 3528 3533
6736 37 3527 3528 3534
6737 37 3536 3537 3541
6738 37 3536 3537 3542
6739 37 3536 3537 3543
6740 37 3545 3546 3550
6741 37 3545 3546 3551
6742 37 3545 3546 3552
6743 37 3554 3555 3559
6744 37 3554 3555 3560
6745 37 3554 3555 3561
6746 37 3563 3564 3568
6747 37 3563 3564 3569
6748 37 3563 3564 3570
6749 37 3572 3573 3577
6750 37 3572 3573 3578
6751 37 3572 3573 3579
6752 37 3581 3582 3586
6753 37 3581 3582 3587
6754 37 3581 3582 3588
6755 37 3590 3591 3595
6756 37 3590 3591 3596
6757 37 3590 3591 3597
6758 37 3599 3600 3604
6759 37 3599 3600 3605
6760 37 3599 3600 3606
6761 37 3618 3617 3620
6762 37 3618 3617 3621
6763 37 3618 3617 3622
6764 37 3618 3619 3624
6765 37 3618 3619 3625
6766 37 3618 3619 3626
6767 37 3628 3629 3633
6768 37 3628 3629 3634
6769 37 3628 3629 3635
6770 37 3637 3638 3642
6771 37 3637 3638 3643
6772 37 3637 3638 3644
6773 37 3646 3647 3651
6774 37 3646 3647 3652
6775 37 3646 3647 3653
6776 37 3655 3656 3660
6777 37 3655 3656 3661
6778 37 3655 3656 3662
6779 37 3664 3665 3669
6780 37 3664 3665 3670
6781 37 3664 3665 3671
6782 37 3673 3674 3678
6783 37 3673 3674 3679
6784 37 3673 3674 3680
6785 37 3682 3683 3687
6786 37 3682 3683 3688
6787 37 3682 3683 3689
6788 37 3691 3692 3696
6789 37 3691 3692 3697
6790 37 3691 3692 3698
6791 37 3700 3701 3705
6792 37 3700 3701 3706
6793 37 3700 3701 3707
6794 37 3709 3710 3714
6795 37 3709 3710 3715
6796 37 3709 3710 3716
6797 37 3718 3719 3723
6798 37 3718 3719 3724
6799 37 3718 3719 3725
6800 37 3727 3728 3732
6801 37 3727 3728 3733
6802 37 3727 3728 3734
6803 37 3736 3737 3741
6804 37 3736 3737 3742
6805 37 3736 3737 3743
6806 37 3745 3746 3750
6807 37 3745 3746 3751
6808 37 3745 3746 3752
6809 37 3754 3755 3759
6810 37 3754 3755 3760
6811 37 3754 3755 3761
6812 37 3763 3764 3768
6813 37 3763 3764 3769
6814 37 3763 3764 3770
6815 37 3772 3773 3777
6816 37 3772 3773 3778
6817 37 3772 3773 3779
6818 37 3781 3782 3786
6819 37 3781 3782 3787
6820 37 3781 3782 3788
6821 37 3790 3791 3795
6822 37 3790 3791 3796
6823 37 3790 3791 3797
6824 37 3799 3800 3804
6825 37 3799 3800 3805
6826 37 3799 3800 3806
6827 37 3808 3809 3813
6828 37 3808 3809 3814
6829 37 3808 3809 3815
6830 37 3817 3818 3822
6831 37 3817 3818 3823
6832 37 3817 3818 3824
6833 37 3826 3827 3831
6834 37 3826 3827 3832
6835 37 3826 3827 3833
6836 37 3835 3836 3840
6837 37 3835 3836 3841
6838 37 3835 3836 3842
6839 37 3844 3845 3849
6840 37 3844 3845 3850
6841 37 3844 3845 3851
6842 37 3853 3854 3858
6843 37 3853 3854 3859
6844 37 3853 3854 3860
6845 37 3862 3863 3867
6846 37 3862 3863 3868
6847 37 3862 3863 3869
6848 37 3871 3872 3876
6849 37 3871 3872 3877
6850 37 3871 3872 3878
6851 37 3880 3881 3885
6852 37 3880 3881 3886
6853 37 3880 3881 3887
6854 37 3889 3890 3894
6855 37 3889 3890 3895
6856 37 3889 3890 3896
6857 37 3898 3899 3903
6858 37 3898 3899 3904
6859 37 3898 3899 3905
6860 37 3907 3908 3912
6861 37 3907 3908 3913
6862 37 3907 3908 3914
6863 37 3916 3917 3921
6864 37 3916 3917 3922
6865 37 3916 3917 3923
6866 37 3925 3926 3930
6867 37 3925 3926 3931
6868 37 3925 3926 3932
6869 37 3934 3935 3939
6870 37 3934 3935 3940
6871 37 3934 3935 3941
6872 37 3943 3944 3948
6873 37 3943 3944 3949
6874 37 3943 3944 3950
6875 37 3952 3953 3957
6876 37 3952 3953 3958
6877 37 3952 3953 3959
6878 37 3961 3962 3966
6879 37 3961 3962 3967
6880 37 3961 3962 3968
6881 37 3970 3971 3975
6882 37 3970 3971 3976
6883 37 3970 3971 3977
6884 37 3979 3980 3984
6885 37 3979 3980 3985
6886 37 3979 3980 3986
6887 37 3988 3989 3993
6888 37 3988 3989 3994
6889 37 3988 3989 3995
6890 37 3997 3998 4002
6891 37 3997 3998 4003
6892 37 3997 3998 4004
6893 37 4006 4007 4011
6894 37 4006 4007 4012
6895 37 4006 4007 4013
6896 37 4015 4016 4020
6897 37 4015 4016 4021
6898 37 4015 4016 4022
6899 37 4024 4025 4029
6900 37 4024 4025 4030
6901 37 4024 4025 4031
6902 37 4033 4034 4038
6903 37 4033 4034 4039
6904 37 4033 4034 4040
6905 37 4042 4043 4047
6906 37 4042 4043 4048
6907 37 4042 4043 4049
6908 37 4051 4052 4056
6909 37 4051 4052 4057
6910 37 4051 4052 4058
6911 37 4070 4069 4072
6912 37 4070 4069 4073
6913 37 4070 4069 4074
6914 37 4070 4071 4076
6915 37 4070 4071 4077
6916 37 4070 4071 4078
6917 37 4080 4081 4085
6918 37 4080 4081 4086
6919 37 4080 4081 4087
6920 37 4089 4090 4094
6921 37 4089 4090 4095
6922 37 4089 4090 4096
6923 37 4098 4099 4103
6924 37 4098 4099 4104
6925 37 4098 4099 4105
6926 37 4107 4108 4112
6927 37 4107 4108 4113
6928 37 4107 4108 4114
6929 37 4116 4117 4121
6930 37 4116 4117 4122
6931 37 4116 4117 4123
6932 37 4125 4126 4130
6933 37 4125 4126 4131
6934 37 4125 4126 4132
6935 37 4134 4135 4139
6936 37 4134 4135 4140
6937 37 4134 4135 4141
6938 37 4143 4144 4148
6939 37 4143 4144 4149
6940 37 4143 4144 4150
6941 37 4152 4153 4157
6942 37 4152 4153 4158
6943 37 4152 4153 4159
6944 37 4161 4162 4166
6945 37 4161 4162 4167
6946 37 4161 4162 4168
6947 37 4170 4171 4175
6948 37 4170 4171 4176
6949 37 4170 4171 4177
6950 37 4179 4180 4184
6951 37 4179 4180 4185
6952 37 4179 4180 4186
6953 37 4188 4189 4193
6954 37 4188 4189 4194
6955 37 4188 4189 4195
6956 37 4197 4198 4202
6957 37 4197 4198 4203
6958 37 4197 4198 4204
6959 37 4206 4207 4211
6960 37 4206 4207 4212
6961 37 4206 4207 4213
6962 37 4215 4216 4220
6963 37 4215 4216 4221
6964 37 4215 4216 4222
6965 37 4224 4225 4229
6966 37 4224 4225 4230
6967 37 4224 4225 4231
6968 37 4233 4234 4238
6969 37 4233 4234 4239
6970 37 4233 4234 4240
6971 37 4242 4243 4247
6972 37 4242 4243 4248
6973 37 4242 4243 4249
6974 37 4251 4252 4256
6975 37 4251 4252 4257
6976 37 4251 4252 4258
6977 37 4260 4261 4265
6978 37 4260 4261 4266
6979 37 4260 4261 4267
6980 37 4269 4270 4274
6981 37 4269 4270 4275
6982 37 4269 4270 4276
6983 37 4278 4279 4283
6984 37 4278 4279 4284
6985 37 4278 4279 4285
6986 37 4287 4288 4292
6987 37 4287 4288 4293
6988 37 4287 4288 4294
6989 37 4296 4297 4301
6990 37 4296 4297 4302
6991 37 4296 4297 4303
6992 37 4305 4306 4310
6993 37 4305 4306 4311
6994 37 4305 4306 4312
6995 37 4314 4315 4319
6996 37 4314 4315 4320
6997 37 4314 4315 4321
6998 37 4323 4324 4328
6999 37 4323 4324 4329
7000 37 4323 4324 4330
7001 37 4332 4333 4337
7002 37 4332 4333 4338
7003 37 4332 4333 4339
7004 37 4341 4342 4346
7005 37 4341 4342 4347
7006 37 4341 4342 4348
7007 37 4350 4351 4355
7008 37 4350 4351 4356
7009 37 4350 4351 4357
7010 37 4359 4360 4364
7011 37 4359 4360 4365
7012 37 4359 4360 4366
7013 37 4368 4369 4373
7014 37 4368 4369 4374
7015 37 4368 4369 4375
7016 37 4377 4378 4382
7017 37 4377 4378 4383
7018 37 4377 4378 4384
7019 37 4386 4387 4391
7020 37 4386 4387 4392
7021 37 4386 4387 4393
7022 37 4395 4396 4400
7023 37 4395 4396 4401
7024 37 4395 4396 4402
7025 37 4404 4405 4409
7026 37 4404 4405 4410
7027 37 4404 4405 4411
7028 37 4413 4414 4418
7029 37 4413 4414 4419
7030 37 4413 4414 4420
7031 37 4422 4423 4427
7032 37 4422 4423 4428
7033 37 4422 4423 4429
7034 37 4431 4432 4436
7035 37 4431 4432 4437
7036 37 4431 4432 4438
7037 37 4440 4441 4445
7038 37 4440 4441 4446
7039 37 4440 4441 4447
7040 37 4449 4450 4454
7041 37 4449 4450 4455
7042 37 4449 4450 4456
7043 37 4458 4459 4463
7044 37 4458 4459 4464
7045 37 4458 4459 4465
7046 37 4467 4468 4472
7047 37 4467 4468 4473
7048 37 4467 4468 4474
7049 37 4476 4477 4481
7050 37 4476 4477 4482
7051 37 4476 4477 4483
7052 37 4485 4486 4490
7053 37 4485 4486 4491
7054 37 4485 4486 4492
7055 37 4494 4495 4499
7056 37 4494 4495 4500
7057 37 4494 4495 4501
7058 37 4503 4504 4508
7059 37 4503 4504 4509
7060 37 4503 4504 4510
7061 38 2 11 14
7062 38 2 11 15
7063 38 12 11 14
7064 38 12 11 15
7065 38 12 20 23
7066 38 12 20 24
7067 38 21 20 23
7068 38 21 20 24
7069 38 21 29 32
7070 38 21 29 33
7071 38 30 29 32
7072 38 30 29 33
7073 38 30 38 41
7074 38 30 38 42
7075 38 39 38 41
7076 38 39 38 42
7077 38 39 47 50
7078 38 39 47 51
7079 38 48 47 50
7080 38 48 47 51
7081 38 48 56 59
7082 38 48 56 60
7083 38 57 56 59
7084 38 57 56 60
7085 38 57 65 68
7086 38 57 65 69
7087 38 66 65 68
7088 38 66 65 69
7089 38 66 74 77
7090 38 66 74 78
7091 38 75 74 77
7092 38 75 74 78
7093 38 75 83 86
7094 38 75 83 87
7095 38 84 83 86
7096 38 84 83 87
7097 38 84 92 95
7098 38 84 92 96
7099 38 93 92 95
7100 38 93 92 96
7101 38 93 101 104
7102 38 93 101 105
7103 38 102 101 104
7104 38 102 101 105
7105 38 102 110 113
7106 38 102 110 114
7107 38 111 110 113
7108 38 111 110 114
7109 38 111 119 122
7110 38 111 119 123
7111 38 120 119 122
7112 38 120 119 123
7113 38 120 128 131
7114 38 120 128 132
7115 38 129 128 131
7116 38 129 128 132
7117 38 129 137 140
7118 38 129 137 141
7119 38 138 137 140
7120 38 138 137 141
7121 38 138 146 149
7122 38 138 146 150
7123 38 147 146 149
7124 38 147 146 150
7125 38 147 155 158
7126 38 147 155 159
7127 38 156 155 158
7128 38 156 155 159
7129 38 156 164 167
7130 38 156 164 168
7131 38 165 164 167
7132 38 165 164 168
7133 38 165 173 176
7134 38 165 173 177
7135 38 174 173 176
7136 38 174 173 177
7137 38 174 182 185
7138 38 174 182 186
7139 38 183 182 185
7140 38 183 182 186
7141 38 183 191 194
7142 38 183 191 195
7143 38 192 191 194
7144 38 192 191 195
7145 38 192 200 203
7146 38 192 200 204
7147 38 201 200 203
7148 38 201 200 204
7149 38 201 209 212
7150 38 201 209 213
7151 38 210 209 212
7152 38 210 209 213
7153 38 210 218 221
7154 38 210 218 222
7155 38 219 218 221
7156 38 219 218 222
7157 38 219 227 230
7158 38 219 227 231
7159 38 228 227 230
7160 38 228 227 231
7161 38 228 236 239
7162 38 228 236 240
7163 38 237 236 239
7164 38 237 236 240
7165 38 237 245 248
7166 38 237 245 249
7167 38 246 245 248
7168 38 246 245 249
7169 38 246 254 257
7170 38 246 254 258
7171 38 255 254 257
7172 38 255 254 258
7173 38 255 263 266
7174 38 255 263 267
7175 38 264 263 266
7176 38 264 263 267
7177 38 264 272 275
7178 38 264 272 276
7179 38 273 272 275
7180 38 273 272 276
7181 38 273 281 284
7182 38 273 281 285
7183 38 282 281 284
7184 38 282 281 285
7185 38 282 290 293
7186 38 282 290 294
7187 38 291 290 293
7188 38 291 290 294
7189 38 291 299 302
7190 38 291 299 303
7191 38 300 299 302
7192 38 300 299 303
7193 38 300 308 311
7194 38 300 308 312
7195 38 309 308 311
7196 38 309 308 312
7197 38 309 317 320
7198 38 309 317 321
7199 38 318 317 320
7200 38 318 317 321
7201 38 318 326 329
7202 38 318 326 330
7203 38 327 326 329
7204 38 327 326 330
7205 38 327 335 338
7206 38 327 335 339
7207 38 336 335 338
7208 38 336 335 339
7209 38 336 344 347
7210 38 336 344 348
7211 38 345 344 347
7212 38 345 344 348
7213 38 345 353 356
7214 38 345 353 357
7215 38 354 353 356
7216 38 354 353 357
7217 38 354 362 365
7218 38 354 362 366
7219 38 363 362 365
7220 38 363 362 366
7221 38 363 371 374
7222 38 363 371 375
7223 38 372 371 374
7224 38 372 371 375
7225 38 372 380 383
7226 38 372 380 384
7227 38 381 380 383
7228 38 381 380 384
7229 38 381 389 392
7230 38 381 389 393
7231 38 390 389 392
7232 38 390 389 393
7233 38 390 398 401
7234 38 390 398 402
7235 38 399 398 401
7236 38 399 398 402
7237 38 399 407 410
7238 38 399 407 411
7239 38 408 407 410
7240 38 408 407 411
7241 38 408 416 419
7242 38 408 416 420
7243 38 417 416 419
7244 38 417 416 420
7245 38 417 425 428
7246 38 417 425 429
7247 38 426 425 428
7248 38 426 425 429
7249 38 426 434 437
7250 38 426 434 438
7251 38 435 434 437
7252 38 435 434 438
7253 38 435 443 446
7254 38 435 443 447
7255 38 454 463 466
7256 38 454 463 467
7257 38 464 463 466
7258 38 464 463 467
7259 38 464 472 475
7260 38 464 472 476
7261 38 473 472 475
7262 38 473 472 476
7263 38 473 481 484
7264 38 473 481 485
7265 38 482 481 484
7266 38 482 481 485
7267 38 482 490 493
7268 38 482 490 494
7269 38 491 490 493
7270 38 491 490 494
7271 38 491 499 502
7272 38 491 499 503
7273 38 500 499 502
7274 38 500 499 503
7275 38 500 508 511
7276 38 500 508 512
7277 38 509 508 511
7278 38 509 508 512
7279 38 509 517 520
7280 38 509 517 521
7281 38 518 517 520
7282 38 518 517 521
7283 38 518 526 529
7284 38 518 526 530
7285 38 527 526 529
7286 38 527 526 530
7287 38 527 535 538
7288 38 527 535 539
7289 38 536 535 538
7290 38 536 535 539
7291 38 536 544 547
7292 38 536 544 548
7293 38 545 544 547
7294 38 545 544 548
7295 38 545 553 556
7296 38 545 553 557
7297 38 554 553 556
7298 38 554 553 557
7299 38 554 562 565
7300 38 554 562 566
7301 38 563 562 565
7302 38 563 562 566
7303 38 563 571 574
7304 38 563 571 575
7305 38 572 571 574
7306 38 572 571 575
7307 38 572 580 583
7308 38 572 580 584
7309 38 581 580 583
7310 38 581 580 584
7311 38 581 589 592
7312 38 581 589 593
7313 38 590 589 592
7314 38 590 589 593
7315 38 590 598 601
7316 38 590 598 602
7317 38 599 598 601
7318 38 599 598 602
7319 38 599 607 610
7320 38 599 607 611
7321 38 608 607 610
7322 38 608 607 611
7323 38 608 616 619
7324 38 608 616 620
7325 38 617 616 619
7326 38 617 616 620
7327 38 617 625 628
7328 38 617 625 629
7329 38 626 625 628
7330 38 626 625 629
7331 38 626 634 637
7332 38 626 634 638
7333 38 635 634 637
7334 38 635 634 638
7335 38 635 643 646
7336 38 635 643 647
7337 38 644 643 646
7338 38 644 643 647
7339 38 644 652 655
7340 38 644 652 656
7341 38 653 652 655
7342 38 653 652 656
7343 38 653 661 664
7344 38 653 661 665
7345 38 662 661 664
7346 38 662 661 665
7347 38 662 670 673
7348 38 662 670 674
7349 38 671 670 673
7350 38 671 670 674
7351 38 671 679 682
7352 38 671 679 683
7353 38 680 679 682
7354 38 680 679 683
7355 38 680 688 691
7356 38 680 688 692
7357 38 689 688 691
7358 38 689 688 692
7359 38 689 697 700
7360 38 689 697 701
7361 38 698 697 700
7362 38 698 697 701
7363 38 698 706 709
7364 38 698 706 710
7365 38 707 706 709
7366 38 707 706 710
7367 38 707 715 718
7368 38 707 715 719
7369 38 716 715 718
7370 38 716 715 719
7371 38 716 724 727
7372 38 716 724 728
7373 38 725 724 727
7374 38 725 724 728
7375 38 725 733 736
7376 38 725 733 737
7377 38 734 733 736
7378 38 734 733 737
7379 38 734 742 745
7380 38 734 742 746
7381 38 743 742 745
7382 38 743 742 746
7383 38 743 751 754
7384 38 743 751 755
7385 38 752 751 754
7386 38 752 751 755
7387 38 752 760 763
7388 38 752 760 764
7389 38 761 760 763
7390 38 761 760 764
7391 38 761 769 772
7392 38 761 769 773
7393 38 770 769 772
7394 38 770 769 773
7395 38 770 778 781
7396 38 770 778 782
7397 38 779 778 781
7398 38 779 778 782
7399 38 779 787 790
7400 38 779 787 791
7401 38 788 787 790
7402 38 788 787 791
7403 38 788 796 799
7404 38 788 796 800
7405 38 797 796 799
7406 38 797 796 800
7407 38 797 805 808
7408 38 797 805 809
7409 38 806 805 808
7410 38 806 805 809
7411 38 806 814 817
7412 38 806 814 818
7413 38 815 814 817
7414 38 815 814 818
7415 38 815 823 826
7416 38 815 823 827
7417 38 824 823 826
7418 38 824 823 827
7419 38 824 832 835
7420 38 824 832 836
7421 38 833 832 835
7422 38 833 832 836
7423 38 833 841 844
7424 38 833 841 845
7425 38 842 841 844
7426 38 842 841 845
7427 38 842 850 853
7428 38 842 850 854
7429 38 851 850 853
7430 38 851 850 854
7431 38 851 859 862
7432 38 851 859 863
7433 38 860 859 862
7434 38 860 859 863
7435 38 860 868 871
7436 38 860 868 872
7437 38 869 868 871
7438 38 869 868 872
7439 38 869 877 880
7440 38 869 877 881
7441 38 878 877 880
7442 38 878 877 881
7443 38 878 886 889
7444 38 878 886 890
7445 38 887 886 889
7446 38 887 886 890
7447 38 887 895 898
7448 38 887 895 899
7449 38 906 915 918
7450 38 906 915 919
7451 38 916 915 918
7452 38 916 915 919
7453 38 916 924 927
7454 38 916 924 928
7455 38 925 924 927
7456 38 925 924 928
7457 38 925 933 936
7458 38 925 933 937
7459 38 934 933 936
7460 38 934 933 937
7461 38 934 942 945
7462 38 934 942 946
7463 38 943 942 945
7464 38 943 942 946
7465 38 943 951 954
7466 38 943 951 955
7467 38 952 951 954
7468 38 952 951 955
7469 38 952 960 963
7470 38 952 960 964
7471 38 961 960 963
7472 38 961 960 964
7473 38 961 969 972
7474 38 961 969 973
7475 38 970 969 972
7476 38 970 969 973
7477 38 970 978 981
7478 38 970 978 982
7479 38 979 978 981
7480 38 979 978 982
7481 38 979 987 990
7482 38 979 987 991
7483 38 988 987 990
7484 38 988 987 991
7485 38 988 996 999
7486 38 988 996 1000
7487 38 997 996 999
7488 38 997 996 1000
7489 38 997 1005 1008
7490 38 997 1005 1009
7491 38 1006 1005 1008
7492 38 1006 1005 1009
7493 38 1006 1014 1017
7494 38 1006 1014 1018
7495 38 1015 1014 1017
7496 38 1015 1014 1018
7497 38 1015 1023 1026
7498 38 1015 1023 1027
7499 38 1024 1023 1026
7500 38 1024 1023 1027
7501 38 1024 1032 1035
7502 38 1024 1032 1036
7503 38 1033 1032 1035
7504 38 1033 1032 1036
7505 38 1033 1041 1044
7506 38 1033 1041 1045
7507 38 1042 1041 1044
7508 38 1042 1041 1045
7509 38 1042 1050 1053
7510 38 1042 1050 1054
7511 38 1051 1050 1053
7512 38 1051 1050 1054
7513 38 1051 1059 1062
7514 38 1051 1059 1063
7515 38 1060 1059 1062
7516 38 1060 1059 1063
7517 38 1060 1068 1071
7518 38 1060 1068 1072
7519 38 1069 1068 1071
7520 38 1069 1068 1072
7521 38 1069 1077 1080
7522 38 1069 1077 1081
7523 38 1078 1077 1080
7524 38 1078 1077 1081
7525 38 1078 1086 1089
7526 38 1078 1086 1090
7527 38 1087 1086 1089
7528 38 1087 1086 1090
7529 38 1087 1095 1098
7530 38 1087 1095 1099
7531 38 1096 1095 1098
7532 38 1096 1095 1099
7533 38 1096 1104 1107
7534 38 1096 1104 1108
7535 38 1105 1104 1107
7536 38 1105 1104 1108
7537 38 1105 1113 1116
7538 38 1105 1113 1117
7539 38 1114 1113 1116
7540 38 1114 1113 1117
7541 38 1114 1122 1125
7542 38 1114 1122 1126
7543 38 1123 1122 1125
7544 38 1123 1122 1126
7545 38 1123 1131 1134
7546 38 1123 1131 1135
7547 38 1132 1131 1134
7548 38 1132 1131 1135
7549 38 1132 1140 1143
7550 38 1132 1140 1144
7551 38 1141 1140 1143
7552 38 1141 1140 1144
7553 38 1141 1149 1152
7554 38 1141 1149 1153
7555 38 1150 1149 1152
7556 38 1150 1149 1153
7557 38 1150 1158 1161
7558 38 1150 1158 1162
7559 38 1159 1158 1161
7560 38 1159 1158 1162
7561 38 1159 1167 1170
7562 38 1159 1167 1171
7563 38 1168 1167 1170
7564 38 1168 1167 1171
7565 38 1168 1176 1179
7566 38 1168 1176 1180
7567 38 1177 1176 1179
7568 38 1177 1176 1180
7569 38 1177 1185 1188
7570 38 1177 1185 1189
7571 38 1186 1185 1188
7572 38 1186 1185 1189
7573 38 1186 1194 1197
7574 38 1186 1194 1198
7575 38 1195 1194 1197
7576 38 1195 1194 1198
7577 38 1195 1203 1206
7578 38 1195 1203 1207
7579 38 1204 1203 1206
7580 38 1204 1203 1207
7581 38 1204 1212 1215
7582 38 1204 1212 1216
7583 38 1213 1212 1215
7584 38 1213 1212 1216
7585 38 1213 1221 1224
7586 38 1213 1221 1225
7587 38 1222 1221 1224
7588 38 1222 1221 1225
7589 38 1222 1230 1233
7590 38 1222 1230 1234
7591 38 1231 1230 1233
7592 38 1231 1230 1234
7593 38 1231 1239 1242
7594 38 1231 1239 1243
7595 38 1240 1239 1242
7596 38 1240 1239 1243
7597 38 1240 1248 1251
7598 38 1240 1248 1252
7599 38 1249 1248 1251
7600 38 1249 1248 1252
7601 38 1249 1257 1260
7602 38 1249 1257 1261
7603 38 1258 1257 1260
7604 38 1258 1257 1261
7605 38 1258 1266 1269
7606 38 1258 1266 1270
7607 38 1267 1266 1269
7608 38 1267 1266 1270
7609 38 1267 1275 1278
7610 38 1267 1275 1279
7611 38 1276 1275 1278
7612 38 1276 1275 1279
7613 38 1276 1284 1287
7614 38 1276 1284 1288
7615 38 1285 1284 1287
7616 38 1285 1284 1288
7617 38 1285 1293 1296
7618 38 1285 1293 1297
7619 38 1294 1293 1296
7620 38 1294 1293 1297
7621 38 1294 1302 1305
7622 38 1294 1302 1306
7623 38 1303 1302 1305
7624 38 1303 1302 1306
7625 38 1303 1311 1314
7626 38 1303 1311 1315
7627 38 1312 1311 1314
7628 38 1312 1311 1315
7629 38 1312 1320 1323
7630 38 1312 1320 1324
7631 38 1321 1320 1323
7632 38 1321 1320 1324
7633 38 1321 1329 1332
7634 38 1321 1329 1333
7635 38 1330 1329 1332
7636 38 1330 1329 1333
7637 38 1330 1338 1341
7638 38 1330 1338 1342
7639 38 1339 1338 1341
7640 38 1339 1338 1342
7641 38 1339 1347 1350
7642 38 1339 1347 1351
7643 38 1358 1367 1370
7644 38 1358 1367 1371
7645 38 1368 1367 1370
7646 38 1368 1367 1371
7647 38 1368 1376 1379
7648 38 1368 1376 1380
7649 38 1377 1376 1379
7650 38 1377 1376 1380
7651 38 1377 1385 1388
7652 38 1377 1385 1389
7653 38 1386 1385 1388
7654 38 1386 1385 1389
7655 38 1386 1394 1397
7656 38 1386 1394 1398
7657 38 1395 1394 1397
7658 38 1395 1394 1398
7659 38 1395 1403 1406
7660 38 1395 1403 1407
7661 38 1404 1403 1406
7662 38 1404 1403 1407
7663 38 1404 1412 1415
7664 38 1404 1412 1416
7665 38 1413 1412 1415
7666 38 1413 1412 1416
7667 38 1413 1421 1424
7668 38 1413 1421 1425
7669 38 1422 1421 1424
7670 38 1422 1421 1425
7671 38 1422 1430 1433
7672 38 1422 1430 1434
7673 38 1431 1430 1433
7674 38 1431 1430 1434
7675 38 1431 1439 1442
7676 38 1431 1439 1443
7677 38 1440 1439 1442
7678 38 1440 1439 1443
7679 38 1440 1448 1451
7680 38 1440 1448 1452
7681 38 1449 1448 1451
7682 38 1449 1448 1452
7683 38 1449 1457 1460
7684 38 1449 1457 1461
7685 38 1458 1457 1460
7686 38 1458 1457 1461
7687 38 1458 1466 1469
7688 38 1458 1466 1470
7689 38 1467 1466 1469
7690 38 1467 1466 1470
7691 38 1467 1475 1478
7692 38 1467 1475 1479
7693 38 1476 1475 1478
7694 38 1476 1475 1479
7695 38 1476 1484 1487
7696 38 1476 1484 1488
7697 38 1485 1484 1487
7698 38 1485 1484 1488
7699 38 1485 1493 1496
7700 38 1485 1493 1497
7701 38 1494 1493 1496
7702 38 1494 1493 1497
7703 38 1494 1502 1505
7704 38 1494 1502 1506
7705 38 1503 1502 1505
7706 38 1503 1502 1506
7707 38 1503 1511 1514
7708 38 1503 1511 1515
7709 38 1512 1511 1514
7710 38 1512 1511 1515
7711 38 1512 1520 1523
7712 38 1512 1520 1524
7713 38 1521 1520 1523
7714 38 1521 1520 1524
7715 38 1521 1529 1532
7716 38 1521 1529 1533
7717 38 1530 1529 1532
7718 38 1530 1529 1533
7719 38 1530 1538 1541
7720 38 1530 1538 1542
7721 38 1539 1538 1541
7722 38 1539 1538 1542
7723 38 1539 1547 1550
7724 38 1539 1547 1551
7725 38 1548 1547 1550
7726 38 1548 1547 1551
7727 38 1548 1556 1559
7728 38 1548 1556 1560
7729 38 1557 1556 1559
7730 38 1557 1556 1560
7731 38 1557 1565 1568
7732 38 1557 1565 1569
7733 38 1566 1565 1568
7734 38 1566 1565 1569
7735 38 1566 1574 1577
7736 38 1566 1574 1578
7737 38 1575 1574 1577
7738 38 1575 1574 1578
7739 38 1575 1583 1586
7740 38 1575 1583 1587
7741 38 1584 1583 1586
7742 38 1584 1583 1587
7743 38 1584 1592 1595
7744 38 1584 1592 1596
7745 38 1593 1592 1595
7746 38 1593 1592 1596
7747 38 1593 1601 1604
7748 38 1593 1601 1605
7749 38 1602 1601 1604
7750 38 1602 1601 1605
7751 38 1602 1610 1613
7752 38 1602 1610 1614
7753 38 1611 1610 1613
7754 38 1611 1610 1614
7755 38 1611 1619 1622
7756 38 1611 1619 1623
7757 38 1620 1619 1622
7758 38 1620 1619 1623
7759 38 1620 1628 1631
7760 38 1620 1628 1632
7761 38 1629 1628 1631
7762 38 1629 1628 1632
7763 38 1629 1637 1640
7764 38 1629 1637 1641
7765 38 1638 1637 1640
7766 38 1638 1637 1641
7767 38 1638 1646 1649
7768 38 1638 1646 1650
7769 38 1647 1646 1649
7770 38 1647 1646 1650
7771 38 1647 1655 1658
7772 38 1647 1655 1659
7773 38 1656 1655 1658
7774 38 1656 1655 1659
7775 38 1656 1664 1667
7776 38 1656 1664 1668
7777 38 1665 1664 1667
7778 38 1665 1664 1668
7779 38 1665 1673 1676
7780 38 1665 1673 1677
7781 38 1674 1673 1676
7782 38 1674 1673 1677
7783 38 1674 1682 1685
7784 38 1674 1682 1686
7785 38 1683 1682 1685
7786 38 1683 1682 1686
7787 38 1683 1691 1694
7788 38 1683 1691 1695
7789 38 1692 1691 1694
7790 38 1692 1691 1695
7791 38 1692 1700 1703
7792 38 1692 1700 1704
7793 38 1701 1700 1703
7794 38 1701 1700 1704
7795 38 1701 1709 1712
7796 38 1701 1709 1713
7797 38 1710 1709 1712
7798 38 1710 1709 1713
7799 38 1710 1718 1721
7800 38 1710 1718 1722
7801 38 1719 1718 1721
7802 38 1719 1718 1722
7803 38 1719 1727 1730
7804 38 1719 1727 1731
7805 38 1728 1727 1730
7806 38 1728 1727 1731
7807 38 1728 1736 1739
7808 38 1728 1736 1740
7809 38 1737 1736 1739
7810 38 1737 1736 1740
7811 38 1737 1745 1748
7812 38 1737 1745 1749
7813 38 1746 1745 1748
7814 38 1746 1745 1749
7815 38 1746 1754 1757
7816 38 1746 1754 1758
7817 38 1755 1754 1757
7818 38 1755 1754 1758
7819 38 1755 1763 1766
7820 38 1755 1763 1767
7821 38 1764 1763 1766
7822 38 1764 1763 1767
7823 38 1764 1772 1775
7824 38 1764 1772 1776
7825 38 1773 1772 1775
7826 38 1773 1772 1776
7827 38 1773 1781 1784
7828 38 1773 1781 1785
7829 38 1782 1781 1784
7830 38 1782 1781 1785
7831 38 1782 1790 1793
7832 38 1782 1790 1794
7833 38 1791 1790 1793
7834 38 1791 1790 1794
7835 38 1791 1799 1802
7836 38 1791 1799 1803
7837 38 1810 1819 1822
7838 38 1810 1819 1823
7839 38 1820 1819 1822
7840 38 1820 1819 1823
7841 38 1820 1828 1831
7842 38 1820 1828 1832
7843 38 1829 1828 1831
7844 38 1829 1828 1832
7845 38 1829 1837 1840
7846 38 1829 1837 1841
7847 38 1838 1837 1840
7848 38 1838 1837 1841
7849 38 1838 1846 1849
7850 38 1838 1846 1850
7851 38 1847 1846 1849
7852 38 1847 1846 1850
7853 38 1847 1855 1858
7854 38 1847 1855 1859
7855 38 1856 1855 1858
7856 38 1856 1855 1859
7857 38 1856 1864 1867
7858 38 1856 1864 1868
7859 38 1865 1864 1867
7860 38 1865 1864 1868
7861 38 1865 1873 1876
7862 38 1865 1873 1877
7863 38 1874 1873 1876
7864 38 1874 1873 1877
7865 38 1874 1882 1885
7866 38 1874 1882 1886
7867 38 1883 1882 1885
7868 38 1883 1882 1886
7869 38 1883 1891 1894
7870 38 1883 1891 1895
7871 38 1892 1891 1894
7872 38 1892 1891 1895
7873 38 1892 1900 1903
7874 38 1892 1900 1904
7875 38 1901 1900 1903
7876 38 1901 1900 1904
7877 38 1901 1909 1912
7878 38 1901 1909 1913
7879 38 1910 1909 1912
7880 38 1910 1909 1913
7881 38 1910 1918 1921
7882 38 1910 1918 1922
7883 38 1919 1918 1921
7884 38 1919 1918 1922
7885 38 1919 1927 1930
7886 38 1919 1927 1931
7887 38 1928 1927 1930
7888 38 1928 1927 1931
7889 38 1928 1936 1939
7890 38 1928 1936 1940
7891 38 1937 1936 1939
7892 38 1937 1936 1940
7893 38 1937 1945 1948
7894 38 1937 1945 1949
7895 38 1946 1945 1948
7896 38 1946 1945 1949
7897 38 1946 1954 1957
7898 38 1946 1954 1958
7899 38 1955 1954 1957
7900 38 1955 1954 1958
7901 38 1955 1963 1966
7902 38 1955 1963 1967
7903 38 1964 1963 1966
7904 38 1964 1963 1967
7905 38 1964 1972 1975
7906 38 1964 1972 1976
7907 38 1973 1972 1975
7908 38 1973 1972 1976
7909 38 1973 1981 1984
7910 38 1973 1981 1985
7911 38 1982 1981 1984
7912 38 1982 1981 1985
7913 38 1982 1990 1993
7914 38 1982 1990 1994
7915 38 1991 1990 1993
7916 38 1991 1990 1994
7917 38 1991 1999 2002
7918 38 1991 1999 2003
7919 38 2000 1999 2002
7920 38 2000 1999 2003
7921 38 2000 2008 2011
7922 38 2000 2008 2012
7923 38 2009 2008 2011
7924 38 2009 2008 2012
7925 38 2009 2017 2020
7926 38 2009 2017 2021
7927 38 2018 2017 2020
7928 38 2018 2017 2021
7929 38 2018 2026 2029
7930 38 2018 2026 2030
7931 38 2027 2026 2029
7932 38 2027 2026 2030
7933 38 2027 2035 2038
7934 38 2027 2035 2039
7935 38 2036 2035 2038
7936 38 2036 2035 2039
7937 38 2036 2044 2047
7938 38 2036 2044 2048
7939 38 2045 2044 2047
7940 38 2045 2044 2048
7941 38 2045 2053 2056
7942 38 2045 2053 2057
7943 38 2054 2053 2056
7944 38 2054 2053 2057
7945 38 2054 2062 2065
7946 38 2054 2062 2066
7947 38 2063 2062 2065
7948 38 2063 2062 2066
7949 38 2063 2071 2074
7950 38 2063 2071 2075
7951 38 2072 2071 2074
7952 38 2072 2071 2075
7953 38 2072 2080 2083
7954 38 2072 2080 2084
7955 38 2081 2080 2083
7956 38 2081 2080 2084
7957 38 2081 2089 2092
7958 38 2081 2089 2093
7959 38 2090 2089 2092
7960 38 2090 2089 2093
7961 38 2090 2098 2101
7962 38 2090 2098 2102
7963 38 2099 2098 2101
7964 38 2099 2098 2102
7965 38 2099 2107 2110
7966 38 2099 2107 2111
7967 38 2108 2107 2110
7968 38 2108 2107 2111
7969 38 2108 2116 2119
7970 38 2108 2116 2120
7971 38 2117 2116 2119
7972 38 2117 2116 2120
7973 38 2117 2125 2128
7974 38 2117 2125 2129
7975 38 2126 2125 2128
7976 38 2126 2125 2129
7977 38 2126 2134 2137
7978 38 2126 2134 2138
7979 38 2135 2134 2137
7980 38 2135 2134 2138
7981 38 2135 2143 2146
7982 38 2135 2143 2147
7983 38 2144 2143 2146
7984 38 2144 2143 2147
7985 38 2144 2152 2155
7986 38 2144 2152 2156
7987 38 2153 2152 2155
7988 38 2153 2152 2156
7989 38 2153 2161 2164
7990 38 2153 2161 2165
7991 38 2162 2161 2164
7992 38 2162 2161 2165
7993 38 2162 2170 2173
7994 38 2162 2170 2174
7995 38 2171 2170 2173
7996 38 2171 2170 2174
7997 38 2171 2179 2182
7998 38 2171 2179 2183
7999 38 2180 2179 2182
8000 38 2180 2179 2183
8001 38 2180 2188 2191
8002 38 2180 2188 2192
8003 38 2189 2188 2191
8004 38 2189 2188 2192
8005 38 2189 2197 2200
8006 38 2189 2197 2201
8007 38 2198 2197 2200
8008 38 2198 2197 2201
8009 38 2198 2206 2209
8010 38 2198 2206 2210
8011 38 2207 2206 2209
8012 38 2207 2206 2210
8013 38 2207 2215 2218
8014 38 2207 2215 2219
8015 38 2216 2215 2218
8016 38 2216 2215 2219
8017 38 2216 2224 2227
8018 38 2216 2224 2228
8019 38 2225 2224 2227
8020 38 2225 2224 2228
8021 38 2225 2233 2236
8022 38 2225 2233 2237
8023 38 2234 2233 2236
8024 38 2234 2233 2237
8025 38 2234 2242 2245
8026 38 2234 2242 2246
8027 38 2243 2242 2245
8028 38 2243 2242 2246
8029 38 2243 2251 2254
8030 38 2243 2251 2255
8031 38 2262 2271 2274
8032 38 2262 2271 2275
8033 38 2272 2271 2274
8034 38 2272 2271 2275
8035 38 2272 2280 2283
8036 38 2272 2280 2284
8037 38 2281 2280 2283
8038 38 2281 2280 2284
8039 38 2281 2289 2292
8040 38 2281 2289 2293
8041 38 2290 2289 2292
8042 38 2290 2289 2293
8043 38 2290 2298 2301
8044 38 2290 2298 2302
8045 38 2299 2298 2301
8046 38 2299 2298 2302
8047 38 2299 2307 2310
8048 38 2299 2307 2311
8049 38 2308 2307 2310
8050 38 2308 2307 2311
8051 38 2308 2316 2319
8052 38 2308 2316 2320
8053 38 2317 2316 2319
8054 38 2317 2316 2320
8055 38 2317 2325 2328
8056 38 2317 2325 2329
8057 38 2326 2325 2328
8058 38 2326 2325 2329
8059 38 2326 2334 2337
8060 38 2326 2334 2338
8061 38 2335 2334 2337
8062 38 2335 2334 2338
8063 38 2335 2343 2346
8064 38 2335 2343 2347
8065 38 2344 2343 2346
8066 38 2344 2343 2347
8067 38 2344 2352 2355
8068 38 2344 2352 2356
8069 38 2353 2352 2355
8070 38 2353 2352 2356
8071 38 2353 2361 2364
8072 38 2353 2361 2365
8073 38 2362 2361 2364
8074 38 2362 2361 2365
8075 38 2362 2370 2373
8076 38 2362 2370 2374
8077 38 2371 2370 2373
8078 38 2371 2370 2374
8079 38 2371 2379 2382
8080 38 2371 2379 2383
8081 38 2380 2379 2382
8082 38 2380 2379 2383
8083 38 2380 2388 2391
8084 38 2380 2388 2392
8085 38 2389 2388 2391
8086 38 2389 2388 2392
8087 38 2389 2397 2400
8088 38 2389 2397 2401
8089 38 2398 2397 2400
8090 38 2398 2397 2401
8091 38 2398 2406 2409
8092 38 2398 2406 2410
8093 38 2407 2406 2409
8094 38 2407 2406 2410
8095 38 2407 2415 2418
8096 38 2407 2415 2419
8097 38 2416 2415 2418
8098 38 2416 2415 2419
8099 38 2416 2424 2427
8100 38 2416 2424 2428
8101 38 2425 2424 2427
8102 38 2425 2424 2428
8103 38 2425 2433 2436
8104 38 2425 2433 2437
8105 38 2434 2433 2436
8106 38 2434 2433 2437
8107 38 2434 2442 2445
8108 38 2434 2442 2446
8109 38 2443 2442 2445
8110 38 2443 2442 2446
8111 38 2443 2451 2454
8112 38 2443 2451 2455
8113 38 2452 2451 2454
8114 38 2452 2451 2455
8115 38 2452 2460 2463
8116 38 2452 2460 2464
8117 38 2461 2460 2463
8118 38 2461 2460 2464
8119 38 2461 2469 2472
8120 38 2461 2469 2473
8121 38 2470 2469 2472
8122 38 2470 2469 2473
8123 38 2470 2478 2481
8124 38 2470 2478 2482
8125 38 2479 2478 2481
8126 38 2479 2478 2482
8127 38 2479 2487 2490
8128 38 2479 2487 2491
8129 38 2488 2487 2490
8130 38 2488 2487 2491
8131 38 2488 2496 2499
8132 38 2488 2496 2500
8133 38 2497 2496 2499
8134 38 2497 2496 2500
8135 38 2497 2505 2508
8136 38 2497 2505 2509
8137 38 2506 2505 2508
8138 38 2506 2505 2509
8139 38 2506 2514 2517
8140 38 2506 2514 2518
8141 38 2515 2514 2517
8142 38 2515 2514 2518
8143 38 2515 2523 2526
8144 38 2515 2523 2527
8145 38 2524 2523 2526
8146 38 2524 2523 2527
8147 38 2524 2532 2535
8148 38 2524 2532 2536
8149 38 2533 2532 2535
8150 38 2533 2532 2536
8151 38 2533 2541 2544
8152 38 2533 2541 2545
8153 38 2542 2541 2544
8154 38 2542 2541 2545
8155 38 2542 2550 2553
8156 38 2542 2550 2554
8157 38 2551 2550 2553
8158 38 2551 2550 2554
8159 38 2551 2559 2562
8160 38 2551 2559 2563
8161 38 2560 2559 2562
8162 38 2560 2559 2563
8163 38 2560 2568 2571
8164 38 2560 2568 2572
8165 38 2569 2568 2571
8166 38 2569 2568 2572
8167 38 2569 2577 2580
8168 38 2569 2577 2581
8169 38 2578 2577 2580
8170 38 2578 2577 2581
8171 38 2578 2586 2589
8172 38 2578 2586 2590
8173 38 2587 2586 2589
8174 38 2587 2586 2590
8175 38 2587 2595 2598
8176 38 2587 2595 2599
8177 38 2596 2595 2598
8178 38 2596 2595 2599
8179 38 2596 2604 2607
8180 38 2596 2604 2608
8181 38 2605 2604 2607
8182 38 2605 2604 2608
8183 38 2605 2613 2616
8184 38 2605 2613 2617
8185 38 2614 2613 2616
8186 38 2614 2613 2617
8187 38 2614 2622 2625
8188 38 2614 2622 2626
8189 38 2623 2622 2625
8190 38 2623 2622 2626
8191 38 2623 2631 2634
8192 38 2623 2631 2635
8193 38 2632 2631 2634
8194 38 2632 2631 2635
8195 38 2632 2640 2643
8196 38 2632 2640 2644
8197 38 2641 2640 2643
8198 38 2641 2640 2644
8199 38 2641 2649 2652
8200 38 2641 2649 2653
8201 38 2650 2649 2652
8202 38 2650 2649 2653
8203 38 2650 2658 2661
8204 38 2650 2658 2662
8205 38 2659 2658 2661
8206 38 2659 2658 2662
8207 38 2659 2667 2670
8208 38 2659 2667 2671
8209 38 2668 2667 2670
8210 38 2668 2667 2671
8211 38 2668 2676 2679
8212 38 2668 2676 2680
8213 38 2677 2676 2679
8214 38 2677 2676 2680
8215 38 2677 2685 2688
8216 38 2677 2685 2689
8217 38 2686 2685 2688
8218 38 2686 2685 2689
8219 38 2686 2694 2697
8220 38 2686 2694 2698
8221 38 2695 2694 2697
8222 38 2695 2694 2698
8223 38 2695 2703 2706
8224 38 2695 2703 2707
8225 38 2714 2723 2726
8226 38 2714 2723 2727
8227 38 2724 2723 2726
8228 38 2724 2723 2727
8229 38 2724 2732 2735
8230 38 2724 2732 2736
8231 38 2733 2732 2735
8232 38 2733 2732 2736
8233 38 2733 2741 2744
8234 38 2733 2741 2745
8235 38 2742 2741 2744
8236 38 2742 2741 2745
8237 38 2742 2750 2753
8238 38 2742 2750 2754
8239 38 2751 2750 2753
8240 38 2751 2750 2754
8241 38 2751 2759 2762
8242 38 2751 2759 2763
8243 38 2760 2759 2762
8244 38 2760 2759 2763
8245 38 2760 2768 2771
8246 38 2760 2768 2772
8247 38 2769 2768 2771
8248 38 2769 2768 2772
8249 38 2769 2777 2780
8250 38 2769 2777 2781
8251 38 2778 2777 2780
8252 38 2778 2777 2781
8253 38 2778 2786 2789
8254 38 2778 2786 2790
8255 38 2787 2786 2789
8256 38 2787 2786 2790
8257 38 2787 2795 2798
8258 38 2787 2795 2799
8259 38 2796 2795 2798
8260 38 2796 2795 2799
8261 38 2796 2804 2807
8262 38 2796 2804 2808
8263 38 2805 2804 2807
8264 38 2805 2804 2808
8265 38 2805 2813 2816
8266 38 2805 2813 2817
8267 38 2814 2813 2816
8268 38 2814 2813 2817
8269 38 2814 2822 2825
8270 38 2814 2822 2826
8271 38 2823 2822 2825
8272 38 2823 2822 2826
8273 38 2823 2831 2834
8274 38 2823 2831 2835
8275 38 2832 2831 2834
8276 38 2832 2831 2835
8277 38 2832 2840 2843
8278 38 2832 2840 2844
8279 38 2841 2840 2843
8280 38 2841 2840 2844
8281 38 2841 2849 2852
8282 38 2841 2849 2853
8283 38 2850 2849 2852
8284 38 2850 2849 2853
8285 38 2850 2858 2861
8286 38 2850 2858 2862
8287 38 2859 2858 2861
8288 38 2859 2858 2862
8289 38 2859 2867 2870
8290 38 2859 2867 2871
8291 38 2868 2867 2870
8292 38 2868 2867 2871
8293 38 2868 2876 2879
8294 38 2868 2876 2880
8295 38 2877 2876 2879
8296 38 2877 2876 2880
8297 38 2877 2885 2888
8298 38 2877 2885 2889
8299 38 2886 2885 2888
8300 38 2886 2885 2889
8301 38 2886 2894 2897
8302 38 2886 2894 2898
8303 38 2895 2894 2897
8304 38 2895 2894 2898
8305 38 2895 2903 2906
8306 38 2895 2903 2907
8307 38 2904 2903 2906
8308 38 2904 2903 2907
8309 38 2904 2912 2915
8310 38 2904 2912 2916
8311 38 2913 2912 2915
8312 38 2913 2912 2916
8313 38 2913 2921 2924
8314 38 2913 2921 2925
8315 38 2922 2921 2924
8316 38 2922 2921 2925
8317 38 2922 2930 2933
8318 38 2922 2930 2934
8319 38 2931 2930 2933
8320 38 2931 2930 2934
8321 38 2931 2939 2942
8322 38 2931 2939 2943
8323 38 2940 2939 2942
8324 38 2940 2939 2943
8325 38 2940 2948 2951
8326 38 2940 2948 2952
8327 38 2949 2948 2951
8328 38 2949 2948 2952
8329 38 2949 2957 2960
8330 38 2949 2957 2961
8331 38 2958 2957 2960
8332 38 2958 2957 2961
8333 38 2958 2966 2969
8334 38 2958 2966 2970
8335 38 2967 2966 2969
8336 38 2967 2966 2970
8337 38 2967 2975 2978
8338 38 2967 2975 2979
8339 38 2976 2975 2978
8340 38 2976 2975 2979
8341 38 2976 2984 2987
8342 38 2976 2984 2988
8343 38 2985 2984 2987
8344 38 2985 2984 2988
8345 38 2985 2993 2996
8346 38 2985 2993 2997
8347 38 2994 2993 2996
8348 38 2994 2993 2997
8349 38 2994 3002 3005
8350 38 2994 3002 3006
8351 38 3003 3002 3005
8352 38 3003 3002 3006
8353 38 3003 3011 3014
8354 38 3003 3011 3015
8355 38 3012 3011 3014
8356 38 3012 3011 3015
8357 38 3012 3020 3023
8358 38 3012 3020 3024
8359 38 3021 3020 3023
8360 38 3021 3020 3024
8361 38 3021 3029 3032
8362 38 3021 3029 3033
8363 38 3030 3029 3032
8364 38 3030 3029 3033
8365 38 3030 3038 3041
8366 38 3030 3038 3042
8367 38 3039 3038 3041
8368 38 3039 3038 3042
8369 38 3039 3047 3050
8370 38 3039 3047 3051
8371 38 3048 3047 3050
8372 38 3048 3047 3051
8373 38 3048 3056 3059
8374 38 3048 3056 3060
8375 38 3057 3056 3059
8376 38 3057 3056 3060
8377 38 3057 3065 3068
8378 38 3057 3065 3069
8379 38 3066 3065 3068
8380 38 3066 3065 3069
8381 38 3066 3074 3077
8382 38 3066 3074 3078
8383 38 3075 3074 3077
8384 38 3075 3074 3078
8385 38 3075 3083 3086
8386 38 3075 3083 3087
8387 38 3084 3083 3086
8388 38 3084 3083 3087
8389 38 3084 3092 3095
8390 38 3084 3092 3096
8391 38 3093 3092 3095
8392 38 3093 3092 3096
8393 38 3093 3101 3104
8394 38 3093 3101 3105
8395 38 3102 3101 3104
8396 38 3102 3101 3105
8397 38 3102 3110 3113
8398 38 3102 3110 3114
8399 38 3111 3110 3113
8400 38 3111 3110 3114
8401 38 3111 3119 3122
8402 38 3111 3119 3123
8403 38 3120 3119 3122
8404 38 3120 3119 3123
8405 38 3120 3128 3131
8406 38 3120 3128 3132
8407 38 3129 3128 3131
8408 38 3129 3128 3132
8409 38 3129 3137 3140
8410 38 3129 3137 3141
8411 38 3138 3137 3140
8412 38 3138 3137 3141
8413 38 3138 3146 3149
8414 38 3138 3146 3150
8415 38 3147 3146 3149
8416 38 3147 3146 3150
8417 38 3147 3155 3158
8418 38 3147 3155 3159
8419 38 3166 3175 3178
8420 38 3166 3175 3179
8421 38 3176 3175 3178
8422 38 3176 3175 3179
8423 38 3176 3184 3187
8424 38 3176 3184 3188
8425 38 3185 3184 3187
8426 38 3185 3184 3188
8427 38 3185 3193 3196
8428 38 3185 3193 3197
8429 38 3194 3193 3196
8430 38 3194 3193 3197
8431 38 3194 3202 3205
8432 38 3194 3202 3206
8433 38 3203 3202 3205
8434 38 3203 3202 3206
8435 38 3203 3211 3214
8436 38 3203 3211 3215
8437 38 3212 3211 3214
8438 38 3212 3211 3215
8439 38 3212 3220 3223
8440 38 3212 3220 3224
8441 38 3221 3220 3223
8442 38 3221 3220 3224
8443 38 3221 3229 3232
8444 38 3221 3229 3233
8445 38 3230 3229 3232
8446 38 3230 3229 3233
8447 38 3230 3238 3241
8448 38 3230 3238 3242
8449 38 3239 3238 3241
8450 38 3239 3238 3242
8451 38 3239 3247 3250
8452 38 3239 3247 3251
8453 38 3248 3247 3250
8454 38 3248 3247 3251
8455 38 3248 3256 3259
8456 38 3248 3256 3260
8457 38 3257 3256 3259
8458 38 3257 3256 3260
8459 38 3257 3265 3268
8460 38 3257 3265 3269
8461 38 3266 3265 3268
8462 38 3266 3265 3269
8463 38 3266 3274 3277
8464 38 3266 3274 3278
8465 38 3275 3274 3277
8466 38 3275 3274 3278
8467 38 3275 3283 3286
8468 38 3275 3283 3287
8469 38 3284 3283 3286
8470 38 3284 3283 3287
8471 38 3284 3292 3295
8472 38 3284 3292 3296
8473 38 3293 3292 3295
8474 38 3293 3292 3296
8475 38 3293 3301 3304
8476 38 3293 3301 3305
8477 38 3302 3301 3304
8478 38 3302 3301 3305
8479 38 3302 3310 3313
8480 38 3302 3310 3314
8481 38 3311 3310 3313
8482 38 3311 3310 3314
8483 38 3311 3319 3322
8484 38 3311 3319 3323
8485 38 3320 3319 3322
8486 38 3320 3319 3323
8487 38 3320 3328 3331
8488 38 3320 3328 3332
8489 38 3329 3328 3331
8490 38 3329 3328 3332
8491 38 3329 3337 3340
8492 38 3329 3337 3341
8493 38 3338 3337 3340
8494 38 3338 3337 3341
8495 38 3338 3346 3349
8496 38 3338 3346 3350
8497 38 3347 3346 3349
8498 38 3347 3346 3350
8499 38 3347 3355 3358
8500 38 3347 3355 3359
8501 38 3356 3355 3358
8502 38 3356 3355 3359
8503 38 3356 3364 3367
8504 38 3356 3364 3368
8505 38 3365 3364 3367
8506 38 3365 3364 3368
8507 38 3365 3373 3376
8508 38 3365 3373 3377
8509 38 3374 3373 3376
8510 38 3374 3373 3377
8511 38 3374 3382 3385
8512 38 3374 3382 3386
8513 38 3383 3382 3385
8514 38 3383 3382 3386
8515 38 3383 3391 3394
8516 38 3383 3391 3395
8517 38 3392 3391 3394
8518 38 3392 3391 3395
8519 38 3392 3400 3403
8520 38 3392 3400 3404
8521 38 3401 3400 3403
8522 38 3401 3400 3404
8523 38 3401 3409 3412
8524 38 3401 3409 3413
8525 38 3410 3409 3412
8526 38 3410 3409 3413
8527 38 3410 3418 3421
8528 38 3410 3418 3422
8529 38 3419 3418 3421
8530 38 3419 3418 3422
8531 38 3419 3427 3430
8532 38 3419 3427 3431
8533 38 3428 3427 3430
8534 38 3428 3427 3431
8535 38 3428 3436 3439
8536 38 3428 3436 3440
8537 38 3437 3436 3439
8538 38 3437 3436 3440
8539 38 3437 3445 3448
8540 38 3437 3445 3449
8541 38 3446 3445 3448
8542 38 3446 3445 3449
8543 38 3446 3454 3457
8544 38 3446 3454 3458
8545 38 3455 3454 3457
8546 38 3455 3454 3458
8547 38 3455 3463 3466
8548 38 3455 3463 3467
8549 38 3464 3463 3466
8550 38 3464 3463 3467
8551 38 3464 3472 3475
8552 38 3464 3472 3476
8553 38 3473 3472 3475
8554 38 3473 3472 3476
8555 38 3473 3481 3484
8556 38 3473 3481 3485
8557 38 3482 3481 3484
8558 38 3482 3481 3485
8559 38 3482 3490 3493
8560 38 3482 3490 3494
8561 38 3491 3490 3493
8562 38 3491 3490 3494
8563 38 3491 3499 3502
8564 38 3491 3499 3503
8565 38 3500 3499 3502
8566 38 3500 3499 3503
8567 38 3500 3508 3511
8568 38 3500 3508 3512
8569 38 3509 3508 3511
8570 38 3509 3508 3512
8571 38 3509 3517 3520
8572 38 3509 3517 3521
8573 38 3518 3517 3520
8574 38 3518 3517 3521
8575 38 3518 3526 3529
8576 38 3518 3526 3530
8577 38 3527 3526 3529
8578 38 3527 3526 3530
8579 38 3527 3535 3538
8580 38 3527 3535 3539
8581 38 3536 3535 3538
8582 38 3536 3535 3539
8583 38 3536 3544 3547
8584 38 3536 3544 3548
8585 38 3545 3544 3547
8586 38 3545 3544 3548
8587 38 3545 3553 3556
8588 38 3545 3553 3557
8589 38 3554 3553 3556
8590 38 3554 3553 3557
8591 38 3554 3562 3565
8592 38 3554 3562 3566
8593 38 3563 3562 3565
8594 38 3563 3562 3566
8595 38 3563 3571 3574
8596 38 3563 3571 3575
8597 38 3572 3571 3574
8598 38 3572 3571 3575
8599 38 3572 3580 3583
8600 38 3572 3580 3584
8601 38 3581 3580 3583
8602 38 3581 3580 3584
8603 38 3581 3589 3592
8604 38 3581 3589 3593
8605 38 3590 3589 3592
8606 38 3590 3589 3593
8607 38 3590 3598 3601
8608 38 3590 3598 3602
8609 38 3599 3598 3601
8610 38 3599 3598 3602
8611 38 3599 3607 3610
8612 38 3599 3607 3611
8613 38 3618 3627 3630
8614 38 3618 3627 3631
8615 38 3628 3627 3630
8616 38 3628 3627 3631
8617 38 3628 3636 3639
8618 38 3628 3636 3640
8619 38 3637 3636 3639
8620 38 3637 3636 3640
8621 38 3637 3645 3648
8622 38 3637 3645 3649
8623 38 3646 3645 3648
8624 38 3646 3645 3649
8625 38 3646 3654 3657
8626 38 3646 3654 3658
8627 38 3655 3654 3657
8628 38 3655 3654 3658
8629 38 3655 3663 3666
8630 38 3655 3663 3667
8631 38 3664 3663 3666
8632 38 3664 3663 3667
8633 38 3664 3672 3675
8634 38 3664 3672 3676
8635 38 3673 3672 3675
8636 38 3673 3672 3676
8637 38 3673 3681 3684
8638 38 3673 3681 3685
8639 38 3682 3681 3684
8640 38 3682 3681 3685
8641 38 3682 3690 3693
8642 38 3682 3690 3694
8643 38 3691 3690 3693
8644 38 3691 3690 3694
8645 38 3691 3699 3702
8646 38 3691 3699 3703
8647 38 3700 3699 3702
8648 38 3700 3699 3703
8649 38 3700 3708 3711
8650 38 3700 3708 3712
8651 38 3709 3708 3711
8652 38 3709 3708 3712
8653 38 3709 3717 3720
8654 38 3709 3717 3721
8655 38 3718 3717 3720
8656 38 3718 3717 3721
8657 38 3718 3726 3729
8658 38 3718 3726 3730
8659 38 3727 3726 3729
8660 38 3727 3726 3730
8661 38 3727 3735 3738
8662 38 3727 3735 3739
8663 38 3736 3735 3738
8664 38 3736 3735 3739
8665 38 3736 3744 3747
8666 38 3736 3744 3748
8667 38 3745 3744 3747
8668 38 3745 3744 3748
8669 38 3745 3753 3756
8670 38 3745 3753 3757
8671 38 3754 3753 3756
8672 38 3754 3753 3757
8673 38 3754 3762 3765
8674 38 3754 3762 3766
8675 38 3763 3762 3765
8676 38 3763 3762 3766
8677 38 3763 3771 3774
8678 38 3763 3771 3775
8679 38 3772 3771 3774
8680 38 3772 3771 3775
8681 38 3772 3780 3783
8682 38 3772 3780 3784
8683 38 3781 3780 3783
8684 38 3781 3780 3784
8685 38 3781 3789 3792
8686 38 3781 3789 3793
8687 38 3790 3789 3792
8688 38 3790 3789 3793
8689 38 3790 3798 3801
8690 38 3790 3798 3802
8691 38 3799 3798 3801
8692 38 3799 3798 3802
8693 38 3799 3807 3810
8694 38 3799 3807 3811
8695 38 3808 3807 3810
8696 38 3808 3807 3811
8697 38 3808 3816 3819
8698 38 3808 3816 3820
8699 38 3817 3816 3819
8700 38 3817 3816 3820
8701 38 3817 3825 3828
8702 38 3817 3825 3829
8703 38 3826 3825 3828
8704 38 3826 3825 3829
8705 38 3826 3834 3837
8706 38 3826 3834 3838
8707 38 3835 3834 3837
8708 38 3835 3834 3838
8709 38 3835 3843 3846
8710 38 3835 3843 3847
8711 38 3844 3843 3846
8712 38 3844 3843 3847
8713 38 3844 3852 3855
8714 38 3844 3852 3856
8715 38 3853 3852 3855
8716 38 3853 3852 3856
8717 38 3853 3861 3864
8718 38 3853 3861 3865
8719 38 3862 3861 3864
8720 38 3862 3861 3865
8721 38 3862 3870 3873
8722 38 3862 3870 3874
8723 38 3871 3870 3873
8724 38 3871 3870 3874
8725 38 3871 3879 3882
8726 38 3871 3879 3883
8727 38 3880 3879 3882
8728 38 3880 3879 3883
8729 38 3880 3888 3891
8730 38 3880 3888 3892
8731 38 3889 3888 3891
8732 38 3889 3888 3892
8733 38 3889 3897 3900
8734 38 3889 3897 3901
8735 38 3898 3897 3900
8736 38 3898 3897 3901
8737 38 3898 3906 3909
8738 38 3898 3906 3910
8739 38 3907 3906 3909
8740 38 3907 3906 3910
8741 38 3907 3915 3918
8742 38 3907 3915 3919
8743 38 3916 3915 3918
8744 38 3916 3915 3919
8745 38 3916 3924 3927
8746 38 3916 3924 3928
8747 38 3925 3924 3927
8748 38 3925 3924 3928
8749 38 3925 3933 3936
8750 38 3925 3933 3937
8751 38 3934 3933 3936
8752 38 3934 3933 3937
8753 38 3934 3942 3945
8754 38 3934 3942 3946
8755 38 3943 3942 3945
8756 38 3943 3942 3946
8757 38 3943 3951 3954
8758 38 3943 3951 3955
8759 38 3952 3951 3954
8760 38 3952 3951 3955
8761 38 3952 3960 3963
8762 38 3952 3960 3964
8763 38 3961 3960 3963
8764 38 3961 3960 3964
8765 38 3961 3969 3972
8766 38 3961 3969 3973
8767 38 3970 3969 3972
8768 38 3970 3969 3973
8769 38 3970 3978 3981
8770 38 3970 3978 3982
8771 38 3979 3978 3981
8772 38 3979 3978 3982
8773 38 3979 3987 3990
8774 38 3979 3987 3991
8775 38 3988 3987 3990
8776 38 3988 3987 3991
8777 38 3988 3996 3999
8778 38 3988 3996 4000
8779 38 3997 3996 3999
8780 38 3997 3996 4000
8781 38 3997 4005 4008
8782 38 3997 4005 4009
8783 38 4006 4005 4008
8784 38 4006 4005 4009
8785 38 4006 4014 4017
8786 38 4006 4014 4018
8787 38 4015 4014 4017
8788 38 4015 4014 4018
8789 38 4015 4023 4026
8790 38 4015 4023 4027
8791 38 4024 4023 4026
8792 38 4024 4023 4027
8793 38 4024 4032 4035
8794 38 4024 4032 4036
8795 38 4033 4032 4035
8796 38 4033 4032 4036
8797 38 4033 4041 4044
8798 38 4033 4041 4045
8799 38 4042 4041 4044
8800 38 4042 4041 4045
8801 38 4042 4050 4053
8802 38 4042 4050 4054
8803 38 4051 4050 4053
8804 38 4051 4050 4054
8805 38 4051 4059 4062
8806 38 4051 4059 4063
8807 38 4070 4079 4082
8808 38 4070 4079 4083
8809 38 4080 4079 4082
8810 38 4080 4079 4083
8811 38 4080 4088 4091
8812 38 4080 4088 4092
8813 38 4089 4088 4091
8814 38 4089 4088 4092
8815 38 4089 4097 4100
8816 38 4089 4097 4101
8817 38 4098 4097 4100
8818 38 4098 4097 4101
8819 38 4098 4106 4109
8820 38 4098 4106 4110
8821 38 4107 4106 4109
8822 38 4107 4106 4110
8823 38 4107 4115 4118
8824 38 4107 4115 4119
8825 38 4116 4115 4118
8826 38 4116 4115 4119
8827 38 4116 4124 4127
8828 38 4116 4124 4128
8829 38 4125 4124 4127
8830 38 4125 4124 4128
8831 38 4125 4133 4136
8832 38 4125 4133 4137
8833 38 4134 4133 4136
8834 38 4134 4133 4137
8835 38 4134 4142 4145
8836 38 4134 4142 4146
8837 38 4143 4142 4145
8838 38 4143 4142 4146
8839 38 4143 4151 4154
8840 38 4143 4151 4155
8841 38 4152 4151 4154
8842 38 4152 4151 4155
8843 38 4152 4160 4163
8844 38 4152 4160 4164
8845 38 4161 4160 4163
8846 38 4161 4160 4164
8847 38 4161 4169 4172
8848 38 4161 4169 4173
8849 38 4170 4169 4172
8850 38 4170 4169 4173
8851 38 4170 4178 4181
8852 38 4170 4178 4182
8853 38 4179 4178 4181
8854 38 4179 4178 4182
8855 38 4179 4187 4190
8856 38 4179 4187 4191
8857 38 4188 4187 4190
8858 38 4188 4187 4191
8859 38 4188 4196 4199
8860 38 4188 4196 4200
8861 38 4197 4196 4199
8862 38 4197 4196 4200
8863 38 4197 4205 4208
8864 38 4197 4205 4209
8865 38 4206 4205 4208
8866 38 4206 4205 4209
8867 38 4206 4214 4217
8868 38 4206 4214 4218
8869 38 4215 4214 4217
8870 38 4215 4214 4218
8871 38 4215 4223 4226
8872 38 4215 4223 4227
8873 38 4224 4223 4226
8874 38 4224 4223 4227
8875 38 4224 4232 4235
8876 38 4224 4232 4236
8877 38 4233 4232 4235
8878 38 4233 4232 4236
8879 38 4233 4241 4244
8880 38 4233 4241 4245
8881 38 4242 4241 4244
8882 38 4242 4241 4245
8883 38 4242 4250 4253
8884 38 4242 4250 4254
8885 38 4251 4250 4253
8886 38 4251 4250 4254
8887 38 4251 4259 4262
8888 38 4251 4259 4263
8889 38 4260 4259 4262
8890 38 4260 4259 4263
8891 38 4260 4268 4271
8892 38 4260 4268 4272
8893 38 4269 4268 4271
8894 38 4269 4268 4272
8895 38 4269 4277 4280
8896 38 4269 4277 4281
8897 38 4278 4277 4280
8898 38 4278 4277 4281
8899 38 4278 4286 4289
8900 38 4278 4286 4290
8901 38 4287 4286 4289
8902 38 4287 4286 4290
8903 38 4287 4295 4298
8904 38 4287 4295 4299
8905 38 4296 4295 4298
8906 38 4296 4295 4299
8907 38 4296 4304 4307
8908 38 4296 4304 4308
8909 38 4305 4304 4307
8910 38 4305 4304 4308
8911 38 4305 4313 4316
8912 38 4305 4313 4317
8913 38 4314 4313 4316
8914 38 4314 4313 4317
8915 38 4314 4322 4325
8916 38 4314 4322 4326
8917 38 4323 4322 4325
8918 38 4323 4322 4326
8919 38 4323 4331 4334
8920 38 4323 4331 4335
8921 38 4332 4331 4334
8922 38 4332 4331 4335
8923 38 4332 4340 4343
8924 38 4332 4340 4344
8925 38 4341 4340 4343
8926 38 4341 4340 4344
8927 38 4341 4349 4352
8928 38 4341 4349 4353
8929 38 4350 4349 4352
8930 38 4350 4349 4353
8931 38 4350 4358 4361
8932 38 4350 4358 4362
8933 38 4359 4358 4361
8934 38 4359 4358 4362
8935 38 4359 4367 4370
8936 38 4359 4367 4371
8937 38 4368 4367 4370
8938 38 4368 4367 4371
8939 38 4368 4376 4379
8940 38 4368 4376 4380
8941 38 4377 4376 4379
8942 38 4377 4376 4380
8943 38 4377 4385 4388
8944 38 4377 4385 4389
8945 38 4386 4385 4388
8946 38 4386 4385 4389
8947 38 4386 4394 4397
8948 38 4386 4394 4398
8949 38 4395 4394 4397
8950 38 4395 4394 4398
8951 38 4395 4403 4406
8952 38 4395 4403 4407
8953 38 4404 4403 4406
8954 38 4404 4403 4407
8955 38 4404 4412 4415
8956 38 4404 4412 4416
8957 38 4413 4412 4415
8958 38 4413 4412 4416
8959 38 4413 4421 4424
8960 38 4413 4421 4425
8961 38 4422 4421 4424
8962 38 4422 4421 4425
8963 38 4422 4430 4433
8964 38 4422 4430 4434
8965 38 4431 4430 4433
8966 38 4431 4430 4434
8967 38 4431 4439 4442
8968 38 4431 4439 4443
8969 38 4440 4439 4442
8970 38 4440 4439 4443
8971 38 4440 4448 4451
8972 38 4440 4448 4452
8973 38 4449 4448 4451
8974 38 4449 4448 4452
8975 38 4449 4457 4460
8976 38 4449 4457 4461
8977 38 4458 4457 4460
8978 38 4458 4457 4461
8979 38 4458 4466 4469
8980 38 4458 4466 4470
8981 38 4467 4466 4469
8982 38 4467 4466 4470
8983 38 4467 4475 4478
8984 38 4467 4475 4479
8985 38 4476 4475 4478
8986 38 4476 4475 4479
8987 38 4476 4484 4487
8988 38 4476 4484 4488
8989 38 4485 4484 4487
8990 38 4485 4484 4488
8991 38 4485 4493 4496
8992 38 4485 4493 4497
8993 38 4494 4493 4496
8994 38 4494 4493 4497
8995 38 4494 4502 4505
8996 38 4494 4502 4506
8997 38 4503 4502 4505
8998 38 4503 4502 4506
8999 38 4503 4511 4514
9000 38 4503 4511 4515

Dihedrals

1 15 435 443 444 445
2 15 887 895 896 897
3 15 1339 1347 1348 1349
4 15 1791 1799 1800 1801
5 15 2243 2251 2252 2253
6 15 2695 2703 2704 2705
7 15 3147 3155 3156 3157
8 15 3599 3607 3608 3609
9 15 4051 4059 4060 4061
10 15 4503 4511 4512 4513
11 23 434 435 443 444
12 23 886 887 895 896
13 23 1338 1339 1347 1348
14 23 1790 1791 1799 1800
15 23 2242 2243 2251 2252
16 23 2694 2695 2703 2704
17 23 3146 3147 3155 3156
18 23 3598 3599 3607 3608
19 23 4050 4051 4059 4060
20 23 4502 4503 4511 4512
21 23 436 435 443 444
22 23 888 887 895 896
23 23 1340 1339 1347 1348
24 23 1792 1791 1799 1800
25 23 2244 2243 2251 2252
26 23 2696 2695 2703 2704
27 23 3148 3147 3155 3156
28 23 3600 3599 3607 3608
29 23 4052 4051 4059 4060
30 23 4504 4503 4511 4512
31 24 1 2 11 12
32 24 3 2 11 12
33 24 2 11 12 13
34 24 13 12 20 21
35 24 12 20 21 22
36 24 22 21 29 30
37 24 21 29 30 31
38 24 31 30 38 39
39 24 30 38 39 40
40 24 40 39 47 48
41 24 39 47 48 49
42 24 49 48 56 57
43 24 48 56 57 58
44 24 58 57 65 66
45 24 57 65 66 67
46 24 67 66 74 75
47 24 66 74 75 76
48 24 76 75 83 84
49 24 75 83 84 85
50 24 85 84 92 93
51 24 84 92 93 94
52 24 94 93 101 102
53 24 93 101 102 103
54 24 103 102 110 111
55 24 102 110 111 112
56 24 112 111 119 120
57 24 111 119 120 121
58 24 121 120 128 129
59 24 120 128 129 130
60 24 130 129 137 138
61 24 129 137 138 139
62 24 139 138 146 147
63 24 138 146 147 148
64 24 148 147 155 156
65 24 147 155 156 157
66 24 157 156 164 165
67 24 156 164 165 166
68 24 166 165 173 174
69 24 165 173 174 175
70 24 175 174 182 183
71 24 174 182 183 184
72 24 184 183 191 192
73 24 183 191 192 193
74 24 193 192 200 201
75 24 192 200 201 202
76 24 202 201 209 210
77 24 201 209 210 211
78 24 211 210 218 219
79 24 210 218 219 220
80 24 220 219 227 228
81 24 219 227 228 229
82 24 229 228 236 237
83 24 228 236 237 238
84 24 238 237 245 246
85 24 237 245 246 247
86 24 247 246 254 255
87 24 246 254 255 256
88 24 256 255 263 264
89 24 255 263 264 265
90 24 265 264 272 273
91 24 264 272 273 274
92 24 274 273 281 282
93 24 273 281 282 283
94 24 283 282 290 291
95 24 282 290 291 292
96 24 292 291 299 300
97 24 291 299 300 301
98 24 301 300 308 309
99 24 300 308 309 310
100 24 310 309 317 318
101 24 309 317 318 319
102 24 319 318 326 327
103 24 318 326 327 328
104 24 328 327 335 336
105 24 327 335 336 337
106 24 337 336 344 345
107 24 336 344 345 346
108 24 346 345 353 354
109 24 345 353 354 355
110 24 355 354 362 363
111 24 354 362 363 364
112 24 364 363 371 372
113 24 363 371 372 373
114 24 373 372 380 381
115 24 372 380 381 382
116 24 382 381 389 390
117 24 381 389 390 391
118 24 391 390 398 399
119 24 390 398 399 400
120 24 400 399 407 408
121 24 399 407 408 409
122 24 409 408 416 417
123 24 408 416 417 418
124 24 418 417 425 426
125 24 417 425 426 427
126 24 427 426 434 435
127 24 426 434 435 436
128 24 453 454 463 464
129 24 455 454 463 464
130 24 454 463 464 465
131 24 465 464 472 473
132 24 464 472 473 474
133 24 474 473 481 482
134 24 473 481 482 483
135 24 483 482 490 491
136 24 482 490 491 492
137 24 492 491 499 500
138 24 491 499 500 501
139 24 501 500 508 509
140 24 500 508 509 510
141 24 510 509 517 518
142 24 509 517 518 519
143 24 519 518 526 527
144 24 518 526 527 528
145 24 528 527 535 536
146 24 527 535 536 537
147 24 537 536 544 545
148 24 536 544 545 546
149 24 546 545 553 554
150 24 545 553 554 555
151 24 555 554 562 563
152 24 554 562 563 564
153 24 564 563 571 572
154 24 563 571 572 573
155 24 573 572 580 581
156 24 572 580 581 582
157 24 582 581 589 590
158 24 581 589 590 591
159 24 591 590 598 599
160 24 590 598 599 600
161 24 600 599 607 608
162 24 599 607 608 609
163 24 609 608 616 617
164 24 608 616 617 618
165 24 618 617 625 626
166 24 617 625 626 627
167 24 627 626 634 635
168 24 626 634 635 636
169 24 636 635 643 644
170 24 635 643 644 645
171 24 645 644 652 653
172 24 644 652 653 654
173 24 654 653 661 662
174 24 653 661 662 663
175 24 663 662 670 671
176 24 662 670 671 672
177 24 672 671 679 680
178 24 671 679 680 681
179 24 681 680 688 689
180 24 680 688 689 690
181 24 690 689 697 698
182 24 689 697 698 699
183 24 699 698 706 707
184 24 698 706 707 708
185 24 708 707 715 716
186 24 707 715 716 717
187 24 717 716 724 725
188 24 716 724 725 726
189 24 726 725 733 734
190 24 725 733 734 735
191 24 735 734 742 743
192 24 734 742 743 744
193 24 744 743 751 752
194 24 743 751 752 753
195 24 753 752 760 761
196 24 752 760 761 762
197 24 762 761 769 770
198 24 761 769 770 771
199 24 771 770 778 779
200 24 770 778 779 780
201 24 780 779 787 788
202 24 779 787 788 789
203 24 789 788 796 797
204 24 788 796 797 798
205 24 798 797 805 806
206 24 797 805 806 807
207 24 807 806 814 815
208 24 806 814 815 816
209 24 816 815 823 824
210 24 815 823 824 825
211 24 825 824 832 833
212 24 824 832 833 834
213 24 834 833 841 842
214 24 833 841 842 843
215 24 843 842 850 851
216 24 842 850 851 852
217 24 852 851 859 860
218 24 851 859 860 861
219 24 861 860 868 869
220 24 860 868 869 870
221 24 870 869 877 878
222 24 869 877 878 879
223 24 879 878 886 887
224 24 878 886 887 888
225 24 905 906 915 916
226 24 907 906 915 916
227 24 906 915 916 917
228 24 917 916 924 925
229 24 916 924 925 926
230 24 926 925 933 934
231 24 925 933 934 935
232 24 935 934 942 943
233 24 934 942 943 944
234 24 944 943 951 952
235 24 943 951 952 953
236 24 953 952 960 961
237 24 952 960 961 962
238 24 962 961 969 970
239 24 961 969 970 971
240 24 971 970 978 979
241 24 970 978 979 980
242 24 980 979 987 988
243 24 979 987 988 989
244 24 989 988 996 997
245 24 988 996 997 998
246 24 998 997 1005 1006
247 24 997 1005 1006 1007
248 24 1007 1006 1014 1015
249 24 1006 1014 1015 1016
250 24 1016 1015 1023 1024
251 24 1015 1023 1024 1025
252 24 1025 1024 1032 1033
253 24 1024 1032 1033 1034
254 24 1034 1033 1041 1042
255 24 1033 1041 1042 1043
256 24 1043 1042 1050 1051
257 24 1042 1050 1051 1052
258 24 1052 1051 1059 1060
259 24 1051 1059 1060 1061
260 24 1061 1060 1068 1069
261 24 1060 1068 1069 1070
262 24 1070 1069 1077 1078
263 24 1069 1077 1078 1079
264 24 1079 1078 1086 1087
265 24 1078 1086 1087 1088
266 24 1088 1087 1095 1096
267 24 1087 1095 1096 1097
268 24 1097 1096 1104 1105
269 24 1096 1104 1105 1106
270 24 1106 1105 1113 1114
271 24 1105 1113 1114 1115
272 24 1115 1114 1122 1123
273 24 1114 1122 1123 1124
274 24 1124 1123 1131 1132
275 24 1123 1131 1132 1133
276 24 1133 1132 1140 1141
277 24 1132 1140 1141 1142
278 24 1142 1141 1149 1150
279 24 1141 1149 1150 1151
280 24 1151 1150 1158 1159
281 24 1150 1158 1159 1160
282 24 1160 1159 1167 1168
283 24 1159 1167 1168 1169
284 24 1169 1168 1176 1177
285 24 1168 1176 1177 1178
286 24 1178 1177 1185 1186
287 24 1177 1185 1186 1187
288 24 1187 1186 1194 1195
289 24 1186 1194 1195 1196
290 24 1196 1195 1203 1204
291 24 1195 1203 1204 1205
292 24 1205 1204 1212 1213
293 24 1204 1212 1213 1214
294 24 1214 1213 1221 1222
295 24 1213 1221 1222 1223
296 24 1223 1222 1230 1231
297 24 1222 1230 1231 1232
298 24 1232 1231 1239 1240
299 24 1231 1239 1240 1241
300 24 1241 1240 1248 1249
301 24 1240 1248 1249 1250
302 24 1250 1249 1257 1258
303 24 1249 1257 1258 1259
304 24 1259 1258 1266 1267
305 24 1258 1266 1267 1268
306 24 1268 1267 1275 1276
307 24 1267 1275 1276 1277
308 24 1277 1276 1284 1285
309 24 1276 1284 1285 1286
310 24 1286 1285 1293 1294
311 24 1285 1293 1294 1295
312 24 1295 1294 1302 1303
313 24 1294 1302 1303 1304
314 24 1304 1303 1311 1312
315 24 1303 1311 1312 1313
316 24 1313 1312 1320 1321
317 24 1312 1320 1321 1322
318 24 1322 1321 1329 1330
319 24 1321 1329 1330 1331
320 24 1331 1330 1338 1339
321 24 1330 1338 1339 1340
322 24 1357 1358 1367 1368
323 24 1359 1358 1367 1368
324 24 1358 1367 1368 1369
325 24 1369 1368 1376 1377
326 24 1368 1376 1377 1378
327 24 1378 1377 1385 1386
328 24 1377 1385 1386 1387
329 24 1387 1386 1394 1395
330 24 1386 1394 1395 1396
331 24 1396 1395 1403 1404
332 24 1395 1403 1404 1405
333 24 1405 1404 1412 1413
334 24 1404 1412 1413 1414
335 24 1414 1413 1421 1422
336 24 1413 1421 1422 1423
337 24 1423 1422 1430 1431
338 24 1422 1430 1431 1432
339 24 1432 1431 1439 1440
340 24 1431 1439 1440 1441
341 24 1441 1440 1448 1449
342 24 1440 1448 1449 1450
343 24 1450 1449 1457 1458
344 24 1449 1457 1458 1459
345 24 1459 1458 1466 1467
346 24 1458 1466 1467 1468
347 24 1468 1467 1475 1476
348 24 1467 1475 1476 1477
349 24 1477 1476 1484 1485
350 24 1476 1484 1485 1486
351 24 1486 1485 1493 1494
352 24 1485 1493 1494 1495
353 24 1495 1494 1502 1503
354 24 1494 1502 1503 1504
355 24 1504 1503 1511 1512
356 24 1503 1511 1512 1513
357 24 1513 1512 1520 1521
358 24 1512 1520 1521 1522
359 24 1522 1521 1529 1530
360 24 1521 1529 1530 1531
361 24 1531 1530 1538 1539
362 24 1530 1538 1539 1540
363 24 1540 1539 1547 1548
364 24 1539 1547 1548 1549
365 24 1549 1548 1556 1557
366 24 1548 1556 1557 1558
367 24 1558 1557 1565 1566
368 24 1557 1565 1566 1567
369 24 1567 1566 1574 1575
370 24 1566 1574 1575 1576
371 24 1576 1575 1583 1584
372 24 1575 1583 1584 1585
373 24 1585 1584 1592 1593
374 24 1584 1592 1593 1594
375 24 1594 1593 1601 1602
376 24 1593 1601 1602 1603
377 24 1603 1602 1610 1611
378 24 1602 1610 1611 1612
379 24 1612 1611 1619 1620
380 24 1611 1619 1620 1621
381 24 1621 1620 1628 1629
382 24 1620 1628 1629 1630
383 24 1630 1629 1637 1638
384 24 1629 1637 1638 1639
385 24 1639 1638 1646 1647
386 24 1638 1646 1647 1648
387 24 1648 1647 1655 1656
388 24 1647 1655 1656 1657
389 24 1657 1656 1664 1665
390 24 1656 1664 1665 1666
391 24 1666 1665 1673 1674
392 24 1665 1673 1674 1675
393 24 1675 1674 1682 1683
394 24 1674 1682 1683 1684
395 24 1684 1683 1691 1692
396 24 1683 1691 1692 1693
397 24 1693 1692 1700 1701
398 24 1692 1700 1701 1702
399 24 1702 1701 1709 1710
400 24 1701 1709 1710 1711
401 24 1711 1710 1718 1719
402 24 1710 1718 1719 1720
403 24 1720 1719 1727 1728
404 24 1719 1727 1728 1729
405 24 1729 1728 1736 1737
406 24 1728 1736 1737 1738
407 24 1738 1737 1745 1746
408 24 1737 1745 1746 1747
409 24 1747 1746 1754 1755
410 24 1746 1754 1755 1756
411 24 1756 1755 1763 1764
412 24 1755 1763 1764 1765
413 24 1765 1764 1772 1773
414 24 1764 1772 1773 1774
415 24 1774 1773 1781 1782
416 24 1773 1781 1782 1783
417 24 1783 1782 1790 1791
418 24 1782 1790 1791 1792
419 24 1809 1810 1819 1820
420 24 1811 1810 1819 1820
421 24 1810 1819 1820 1821
422 24 1821 1820 1828 1829
423 24 1820 1828 1829 1830
424 24 1830 1829 1837 1838
425 24 1829 1837 1838 1839
426 24 1839 1838 1846 1847
427 24 1838 1846 1847 1848
428 24 1848 1847 1855 1856
429 24 1847 1855 1856 1857
430 24 1857 1856 1864 1865
431 24 1856 1864 1865 1866
432 24 1866 1865 1873 1874
433 24 1865 1873 1874 1875
434 24 1875 1874 1882 1883
435 24 1874 1882 1883 1884
436 24 1884 1883 1891 1892
437 24 1883 1891 1892 1893
438 24 1893 1892 1900 1901
439 24 1892 1900 1901 1902
440 24 1902 1901 1909 1910
441 24 1901 1909 1910 1911
442 24 1911 1910 1918 1919
443 24 1910 1918 1919 1920
444 24 1920 1919 1927 1928
445 24 1919 1927 1928 1929
446 24 1929 1928 1936 1937
447 24 1928 1936 1937 1938
448 24 1938 1937 1945 1946
449 24 1937 1945 1946 1947
450 24 1947 1946 1954 1955
451 24 1946 1954 1955 1956
452 24 1956 1955 1963 1964
453 24 1955 1963 1964 1965
454 24 1965 1964 1972 1973
455 24 1964 1972 1973 1974
456 24 1974 1973 1981 1982
457 24 1973 1981 1982 1983
458 24 1983 1982 1990 1991
459 24 1982 1990 1991 1992
460 24 1992 1991 1999 2000
461 24 1991 1999 2000 2001
462 24 2001 2000 2008 2009
463 24 2000 2008 2009 2010
464 24 2010 2009 2017 2018
465 24 2009 2017 2018 2019
466 24 2019 2018 2026 2027
467 24 2018 2026 2027 2028
468 24 2028 2027 2035 2036
469 24 2027 2035 2036 2037
470 24 2037 2036 2044 2045
471 24 2036 2044 2045 2046
472 24 2046 2045 2053 2054
473 24 2045 2053 2054 2055
474 24 2055 2054 2062 2063
475 24 2054 2062 2063 2064
476 24 2064 2063 2071 2072
477 24 2063 2071 2072 2073
478 24 2073 2072 2080 2081
479 24 2072 2080 2081 2082
480 24 2082 2081 2089 2090
481 24 2081 2089 2090 2091
482 24 2091 2090 2098 2099
483 24 2090 2098 2099 2100
484 24 2100 2099 2107 2108
485 24 2099 2107 2108 2109
486 24 2109 2108 2116 2117
487 24 2108 2116 2117 2118
488 24 2118 2117 2125 2126
489 24 2117 2125 2126 2127
490 24 2127 2126 2134 2135
491 24 2126 2134 2135 2136
492 24 2136 2135 2143 2144
493 24 2135 2143 2144 2145
494 24 2145 2144 2152 2153
495 24 2144 2152 2153 2154
496 24 2154 2153 2161 2162
497 24 2153 2161 2162 2163
498 24 2163 2162 2170 2171
499 24 2162 2170 2171 2172
500 24 2172 2171 2179 2180
501 24 2171 2179 2180 2181
502 24 2181 2180 2188 2189
503 24 2180 2188 2189 2190
504 24 2190 2189 2197 2198
505 24 2189 2197 2198 2199
506 24 2199 2198 2206 2207
507 24 2198 2206 2207 2208
508 24 2208 2207 2215 2216
509 24 2207 2215 2216 2217
510 24 2217 2216 2224 2225
511 24 2216 2224 2225 2226
512 24 2226 2225 2233 2234
513 24 2225 2233 2234 2235
514 24 2235 2234 2242 2243
515 24 2234 2242 2243 2244
516 24 2261 2262 2271 2272
517 24 2263 2262 2271 2272
518 24 2262 2271 2272 2273
519 24 2273 2272 2280 2281
520 24 2272 2280 2281 2282
521 24 2282 2281 2289 2290
522 24 2281 2289 2290 2291
523 24 2291 2290 2298 2299
524 24 2290 2298 2299 2300
525 24 2300 2299 2307 2308
526 24 2299 2307 2308 2309
527 24 2309 2308 2316 2317
528 24 2308 2316 2317 2318
529 24 2318 2317 2325 2326
530 24 2317 2325 2326 2327
531 24 2327 2326 2334 2335
532 24 2326 2334 2335 2336
533 24 2336 2335 2343 2344
534 24 2335 2343 2344 2345
535 24 2345 2344 2352 2353
536 24 2344 2352 2353 2354
537 24 2354 2353 2361 2362
538 24 2353 2361 2362 2363
539 24 2363 2362 2370 2371
540 24 2362 2370 2371 2372
541 24 2372 2371 2379 2380
542 24 2371 2379 2380 2381
543 24 2381 2380 2388 2389
544 24 2380 2388 2389 2390
545 24 2390 2389 2397 2398
546 24 2389 2397 2398 2399
547 24 2399 2398 2406 2407
548 24 2398 2406 2407 2408
549 24 2408 2407 2415 2416
550 24 2407 2415 2416 2417
551 24 2417 2416 2424 2425
552 24 2416 2424 2425 2426
553 24 2426 2425 2433 2434
554 24 2425 2433 2434 2435
555 24 2435 2434 2442 2443
556 24 2434 2442 2443 2444
557 24 2444 2443 2451 2452
558 24 2443 2451 2452 2453
559 24 2453 2452 2460 2461
560 24 2452 2460 2461 2462
561 24 2462 2461 2469 2470
562 24 2461 2469 2470 2471
563 24 2471 2470 2478 2479
564 24 2470 2478 2479 2480
565 24 2480 2479 2487 2488
566 24 2479 2487 2488 2489
567 24 2489 2488 2496 2497
568 24 2488 2496 2497 2498
569 24 2498 2497 2505 2506
570 24 2497 2505 2506 2507
571 24 2507 2506 2514 2515
572 24 2506 2514 2515 2516
573 24 2516 2515 2523 2524
574 24 2515 2523 2524 2525
575 24 2525 2524 2532 2533
576 24 2524 2532 2533 2534
577 24 2534 2533 2541 2542
578 24 2533 2541 2542 2543
579 24 2543 2542 2550 2551
580 24 2542 2550 2551 2552
581 24 2552 2551 2559 2560
582 24 2551 2559 2560 2561
583 24 2561 2560 2568 2569
584 24 2560 2568 2569 2570
585 24 2570 2569 2577 2578
586 24 2569 2577 2578 2579
587 24 2579 2578 2586 2587
588 24 2578 2586 2587 2588
589 24 2588 2587 2595 2596
590 24 2587 2595 2596 2597
591 24 2597 2596 2604 2605
592 24 2596 2604 2605 2606
593 24 2606 2605 2613 2614
594 24 2605 2613 2614 2615
595 24 2615 2614 2622 2623
596 24 2614 2622 2623 2624
597 24 2624 2623 2631 2632
598 24 2623 2631 2632 2633
599 24 2633 2632 2640 2641
600 24 2632 2640 2641 2642
601 24 2642 2641 2649 2650
602 24 2641 2649 2650 2651
603 24 2651 2650 2658 2659
604 24 2650 2658 2659 2660
605 24 2660 2659 2667 2668
606 24 2659 2667 2668 2669
607 24 2669 2668 2676 2677
608 24 2668 2676 2677 2678
609 24 2678 2677 2685 2686
610 24 2677 2685 2686 2687
611 24 2687 2686 2694 2695
612 24 2686 2694 2695 2696
613 24 2713 2714 2723 2724
614 24 2715 2714 2723 2724
615 24 2714 2723 2724 2725
616 24 2725 2724 2732 2733
617 24 2724 2732 2733 2734
618 24 2734 2733 2741 2742
619 24 2733 2741 2742 2743
620 24 2743 2742 2750 2751
621 24 2742 2750 2751 2752
622 24 2752 2751 2759 2760
623 24 2751 2759 2760 2761
624 24 2761 2760 2768 2769
625 24 2760 2768 2769 2770
626 24 2770 2769 2777 2778
627 24 2769 2777 2778 2779
628 24 2779 2778 2786 2787
629 24 2778 2786 2787 2788
630 24 2788 2787 2795 2796
631 24 2787 2795 2796 2797
632 24 2797 2796 2804 2805
633 24 2796 2804 2805 2806
634 24 2806 2805 2813 2814
635 24 2805 2813 2814 2815
636 24 2815 2814 2822 2823
637 24 2814 2822 2823 2824
638 24 2824 2823 2831 2832
639 24 2823 2831 2832 2833
640 24 2833 2832 2840 2841
641 24 2832 2840 2841 2842
642 24 2842 2841 2849 2850
643 24 2841 2849 2850 2851
644 24 2851 2850 2858 2859
645 24 2850 2858 2859 2860
646 24 2860 2859 2867 2868
647 24 2859 2867 2868 2869
648 24 2869 2868 2876 2877
649 24 2868 2876 2877 2878
650 24 2878 2877 2885 2886
651 24 2877 2885 2886 2887
652 24 2887 2886 2894 2895
653 24 2886 2894 2895 2896
654 24 2896 2895 2903 2904
655 24 2895 2903 2904 2905
656 24 2905 2904 2912 2913
657 24 2904 2912 2913 2914
658 24 2914 2913 2921 2922
659 24 2913 2921 2922 2923
660 24 2923 2922 2930 2931
661 24 2922 2930 2931 2932
662 24 2932 2931 2939 2940
663 24 2931 2939 2940 2941
664 24 2941 2940 2948 2949
665 24 2940 2948 2949 2950
666 24 2950 2949 2957 2958
667 24 2949 2957 2958 2959
668 24 2959 2958 2966 2967
669 24 2958 2966 2967 2968
670 24 2968 2967 2975 2976
671 24 2967 2975 2976 2977
672 24 2977 2976 2984 2985
673 24 2976 2984 2985 2986
674 24 2986 2985 2993 2994
675 24 2985 2993 2994 2995
676 24 2995 2994 3002 3003
677 24 2994 3002 3003 3004
678 24 3004 3003 3011 3012
679 24 3003 3011 3012 3013
680 24 3013 3012 3020 3021
681 24 3012 3020 3021 3022
682 24 3022 3021 3029 3030
683 24 3021 3029 3030 3031
684 24 3031 3030 3038 3039
685 24 3030 3038 3039 3040
686 24 3040 3039 3047 3048
687 24 3039 3047 3048 3049
688 24 3049 3048 3056 3057
689 24 3048 3056 3057 3058
690 24 3058 3057 3065 3066
691 24 3057 3065 3066 3067
692 24 3067 3066 3074 3075
693 24 3066 3074 3075 3076
694 24 3076 3075 3083 3084
695 24 3075 3083 3084 3085
696 24 3085 3084 3092 3093
697 24 3084 3092 3093 3094
698 24 3094 3093 3101 3102
699 24 3093 3101 3102 3103
700 24 3103 3102 3110 3111
701 24 3102 3110 3111 3112
702 24 3112 3111 3119 3120
703 24 3111 3119 3120 3121
704 24 3121 3120 3128 3129
705 24 3120 3128 3129 3130
706 24 3130 3129 3137 3138
707 24 3129 3137 3138 3139
708 24 3139 3138 3146 3147
709 24 3138 3146 3147 3148
710 24 3165 3166 3175 3176
711 24 3167 3166 3175 3176
712 24 3166 3175 3176 3177
713 24 3177 3176 3184 3185
714 24 3176 3184 3185 3186
715 24 3186 3185 3193 3194
716 24 3185 3193 3194 3195
717 24 3195 3194 3202 3203
718 24 3194 3202 3203 3204
719 24 3204 3203 3211 3212
720 24 3203 3211 3212 3213
721 24 3213 3212 3220 3221
722 24 3212 3220 3221 3222
723 24 3222 3221 3229 3230
724 24 3221 3229 3230 3231
725 24 3231 3230 3238 3239
726 24 3230 3238 3239 3240
727 24 3240 3239 3247 3248
728 24 3239 3247 3248 3249
729 24 3249 3248 3256 3257
730 24 3248 3256 3257 3258
731 24 3258 3257 3265 3266
732 24 3257 3265 3266 3267
733 24 3267 3266 3274 3275
734 24 3266 3274 3275 3276
735 24 3276 3275 3283 3284
736 24 3275 3283 3284 3285
737 24 3285 3284 3292 3293
738 24 3284 3292 3293 3294
739 24 3294 3293 3301 3302
740 24 3293 3301 3302 3303
741 24 3303 3302 3310 3311
742 24 3302 3310 3311 3312
743 24 3312 3311 3319 3320
744 24 3311 3319 3320 3321
745 24 3321 3320 3328 3329
746 24 3320 3328 3329 3330
747 24 3330 3329 3337 3338
748 24 3329 3337 3338 3339
749 24 3339 3338 3346 3347
750 24 3338 3346 3347 3348
751 24 3348 3347 3355 3356
752 24 3347 3355 3356 3357
753 24 3357 3356 3364 3365
754 24 3356 3364 3365 3366
755 24 3366 3365 3373 3374
756 24 3365 3373 3374 3375
757 24 3375 3374 3382 3383
758 24 3374 3382 3383 3384
759 24 3384 3383 3391 3392
760 24 3383 3391 3392 3393
761 24 3393 3392 3400 3401
762 24 3392 3400 3401 3402
763 24 3402 3401 3409 3410
764 24 3401 3409 3410 3411
765 24 3411 3410 3418 3419
766 24 3410 3418 3419 3420
767 24 3420 3419 3427 3428
768 24 3419 3427 3428 3429
769 24 3429 3428 3436 3437
770 24 3428 3436 3437 3438
771 24 3438 3437 3445 3446
772 24 3437 3445 3446 3447
773 24 3447 3446 3454 3455
774 24 3446 3454 3455 3456
775 24 3456 3455 3463 3464
776 24 3455 3463 3464 3465
777 24 3465 3464 3472 3473
778 24 3464 3472 3473 3474
779 24 3474 3473 3481 3482
780 24 3473 3481 3482 3483
781 24 3483 3482 3490 3491
782 24 3482 3490 3491 3492
783 24 3492 3491 3499 3500
784 24 3491 3499 3500 3501
785 24 3501 3500 3508 3509
786 24 3500 3508 3509 3510
787 24 3510 3509 3517 3518
788 24 3509 3517 3518 3519
789 24 3519 3518 3526 3527
790 24 3518 3526 3527 3528
791 24 3528 3527 3535 3536
792 24 3527 3535 3536 3537
793 24 3537 3536 3544 3545
794 24 3536 3544 3545 3546
795 24 3546 3545 3553 3554
796 24 3545 3553 3554 3555
797 24 3555 3554 3562 3563
798 24 3554 3562 3563 3564
799 24 3564 3563 3571 3572
800 24 3563 3571 3572 3573
801 24 3573 3572 3580 3581
802 24 3572 3580 3581 3582
803 24 3582 3581 3589 3590
804 24 3581 3589 3590 3591
805 24 3591 3590 3598 3599
806 24 3590 3598 3599 3600
807 24 3617 3618 3627 3628
808 24 3619 3618 3627 3628
809 24 3618 3627 3628 3629
810 24 3629 3628 3636 3637
811 24 3628 3636 3637 3638
812 24 3638 3637 3645 3646
813 24 3637 3645 3646 3647
814 24 3647 3646 3654 3655
815 24 3646 3654 3655 3656
816 24 3656 3655 3663 3664
817 24 3655 3663 3664 3665
818 24 3665 3664 3672 3673
819 24 3664 3672 3673 3674
820 24 3674 3673 3681 3682
821 24 3673 3681 3682 3683
822 24 3683 3682 3690 3691
823 24 3682 3690 3691 3692
824 24 3692 3691 3699 3700
825 24 3691 3699 3700 3701
826 24 3701 3700 3708 3709
827 24 3700 3708 3709 3710
828 24 3710 3709 3717 3718
829 24 3709 3717 3718 3719
830 24 3719 3718 3726 3727
831 24 3718 3726 3727 3728
832 24 3728 3727 3735 3736
833 24 3727 3735 3736 3737
834 24 3737 3736 3744 3745
835 24 3736 3744 3745 3746
836 24 3746 3745 3753 3754
837 24 3745 3753 3754 3755
838 24 3755 3754 3762 3763
839 24 3754 3762 3763 3764
840 24 3764 3763 3771 3772
841 24 3763 3771 3772 3773
842 24 3773 3772 3780 3781
843 24 3772 3780 3781 3782
844 24 3782 3781 3789 3790
845 24 3781 3789 3790 3791
846 24 3791 3790 3798 3799
847 24 3790 3798 3799 3800
848 24 3800 3799 3807 3808
849 24 3799 3807 3808 3809
850 24 3809 3808 3816 3817
851 24 3808 3816 3817 3818
852 24 3818 3817 3825 3826
853 24 3817 3825 3826 3827
854 24 3827 3826 3834 3835
855 24 3826 3834 3835 3836
856 24 3836 3835 3843 3844
857 24 3835 3843 3844 3845
858 24 3845 3844 3852 3853
859 24 3844 3852 3853 3854
860 24 3854 3853 3861 3862
861 24 3853 3861 3862 3863
862 24 3863 3862 3870 3871
863 24 3862 3870 3871 3872
864 24 3872 3871 3879 3880
865 24 3871 3879 3880 3881
866 24 3881 3880 3888 3889
867 24 3880 3888 3889 3890
868 24 3890 3889 3897 3898
869 24 3889 3897 3898 3899
870 24 3899 3898 3906 3907
871 24 3898 3906 3907 3908
872 24 3908 3907 3915 3916
873 24 3907 3915 3916 3917
874 24 3917 3916 3924 3925
875 24 3916 3924 3925 3926
876 24 3926 3925 3933 3934
877 24 3925 3933 3934 3935
878 24 3935 3934 3942 3943
879 24 3934 3942 3943 3944
880 24 3944 3943 3951 3952
881 24 3943 3951 3952 3953
882 24 3953 3952 3960 3961
883 24 3952 3960 3961 3962
884 24 3962 3961 3969 3970
885 24 3961 3969 3970 3971
886 24 3971 3970 3978 3979
887 24 3970 3978 3979 3980
888 24 3980 3979 3987 3988
889 24 3979 3987 3988 3989
890 24 3989 3988 3996 3997
891 24 3988 3996 3997 3998
892 24 3998 3997 4005 4006
893 24 3997 4005 4006 4007
894 24 4007 4006 4014 4015
895 24 4006 4014 4015 4016
896 24 4016 4015 4023 4024
897 24 4015 4023 4024 4025
898 24 4025 4024 4032 4033
899 24 4024 4032 4033 4034
900 24 4034 4033 4041 4042
901 24 4033 4041 4042 4043
902 24 4043 4042 4050 4051
903 24 4042 4050 4051 4052
904 24 4069 4070 4079 4080
905 24 4071 4070 4079 4080
906 24 4070 4079 4080 4081
907 24 4081 4080 4088 4089
908 24 4080 4088 4089 4090
909 24 4090 4089 4097 4098
910 24 4089 4097 4098 4099
911 24 4099 4098 4106 4107
912 24 4098 4106 4107 4108
913 24 4108 4107 4115 4116
914 24 4107 4115 4116 4117
915 24 4117 4116 4124 4125
916 24 4116 4124 4125 4126
917 24 4126 4125 4133 4134
918 24 4125 4133 4134 4135
919 24 4135 4134 4142 4143
920 24 4134 4142 4143 4144
921 24 4144 4143 4151 4152
922 24 4143 4151 4152 4153
923 24 4153 4152 4160 4161
924 24 4152 4160 4161 4162
925 24 4162 4161 4169 4170
926 24 4161 4169 4170 4171
927 24 4171 4170 4178 4179
928 24 4170 4178 4179 4180
929 24 4180 4179 4187 4188
930 24 4179 4187 4188 4189
931 24 4189 4188 4196 4197
932 24 4188 4196 4197 4198
933 24 4198 4197 4205 4206
934 24 4197 4205 4206 4207
935 24 4207 4206 4214 4215
936 24 4206 4214 4215 4216
937 24 4216 4215 4223 4224
938 24 4215 4223 4224 4225
939 24 4225 4224 4232 4233
940 24 4224 4232 4233 4234
941 24 4234 4233 4241 4242
942 24 4233 4241 4242 4243
943 24 4243 4242 4250 4251
944 24 4242 4250 4251 4252
945 24 4252 4251 4259 4260
946 24 4251 4259 4260 4261
947 24 4261 4260 4268 4269
948 24 4260 4268 4269 4270
949 24 4270 4269 4277 4278
950 24 4269 4277 4278 4279
951 24 4279 4278 4286 4287
952 24 4278 4286 4287 4288
953 24 4288 4287 4295 4296
954 24 4287 4295 4296 4297
955 24 4297 4296 4304 4305
956 24 4296 4304 4305 4306
957 24 4306 4305 4313 4314
958 24 4305 4313 4314 4315
959 24 4315 4314 4322 4323
960 24 4314 4322 4323 4324
961 24 4324 4323 4331 4332
962 24 4323 4331 4332 4333
963 24 4333 4332 4340 4341
964 24 4332 4340 4341 4342
965 24 4342 4341 4349 4350
966 24 4341 4349 4350 4351
967 24 4351 4350 4358 4359
968 24 4350 4358 4359 4360
969 24 4360 4359 4367 4368
970 24 4359 4367 4368 4369
971 24 4369 4368 4376 4377
972 24 4368 4376 4377 4378
973 24 4378 4377 4385 4386
974 24 4377 4385 4386 4387
975 24 4387 4386 4394 4395
976 24 4386 4394 4395 4396
977 24 4396 4395 4403 4404
978 24 4395 4403 4404 4405
979 24 4405 4404 4412 4413
980 24 4404 4412 4413 4414
981 24 4414 4413 4421 4422
982 24 4413 4421 4422 4423
983 24 4423 4422 4430 4431
984 24 4422 4430 4431 4432
985 24 4432 4431 4439 4440
986 24 4431 4439 4440 4441
987 24 4441 4440 4448 4449
988 24 4440 4448 4449 4450
989 24 4450 4449 4457 4458
990 24 4449 4457 4458 4459
991 24 4459 4458 4466 4467
992 24 4458 4466 4467 4468
993 24 4468 4467 4475 4476
994 24 4467 4475 4476 4477
995 24 4477 4476 4484 4485
996 24 4476 4484 4485 4486
997 24 4486 4485 4493 4494
998 24 4485 4493 4494 4495
999 24 4495 4494 4502 4503
1000 24 4494 4502 4503 4504
1001 24 11 12 20 21
1002 24 20 21 29 30
1003 24 2 11 12 20
1004 24 29 30 38 39
1005 24 12 20 21 29
1006 24 38 39 47 48
1007 24 21 29 30 38
1008 24 47 48 56 57
1009 24 30 38 39 47
1010 24 56 57 65 66
1011 24 39 47 48 56
1012 24 65 66 74 75
1013 24 48 56 57 65
1014 24 74 75 83 84
1015 24 57 65 66 74
1016 24 83 84 92 93
1017 24 66 74 75 83
1018 24 92 93 101 102
1019 24 75 83 84 92
1020 24 101 102 110 111
1021 24 84 92 93 101
1022 24 110 111 119 120
1023 24 93 101 102 110
1024 24 119 120 128 129
1025 24 102 110 111 119
1026 24 128 129 137 138
1027 24 111 119 120 128
1028 24 137 138 146 147
1029 24 120 128 129 137
1030 24 146 147 155 156
1031 24 129 137 138 146
1032 24 155 156 164 165
1033 24 138 146 147 155
1034 24 164 165 173 174
1035 24 147 155 156 164
1036 24 173 174 182 183
1037 24 156 164 165 173
1038 24 182 183 191 192
1039 24 165 173 174 182
1040 24 191 192 200 201
1041 24 174 182 183 191
1042 24 200 201 209 210
1043 24 183 191 192 200
1044 24 209 210 218 219
1045 24 192 200 201 209
1046 24 218 219 227 228
1047 24 201 209 210 218
1048 24 227 228 236 237
1049 24 210 218 219 227
1050 24 236 237 245 246
1051 24 219 227 228 236
1052 24 245 246 254 255
1053 24 228 236 237 245
1054 24 254 255 263 264
1055 24 237 245 246 254
1056 24 263 264 272 273
1057 24 246 254 255 263
1058 24 272 273 281 282
1059 24 255 263 264 272
1060 24 281 282 290 291
1061 24 264 272 273 281
1062 24 290 291 299 300
1063 24 273 281 282 290
1064 24 299 300 308 309
1065 24 282 290 291 299
1066 24 308 309 317 318
1067 24 291 299 300 308
1068 24 317 318 326 327
1069 24 300 308 309 317
1070 24 326 327 335 336
1071 24 309 317 318 326
1072 24 335 336 344 345
1073 24 318 326 327 335
1074 24 344 345 353 354
1075 24 327 335 336 344
1076 24 353 354 362 363
1077 24 336 344 345 353
1078 24 362 363 371 372
1079 24 345 353 354 362
1080 24 371 372 380 381
1081 24 354 362 363 371
1082 24 380 381 389 390
1083 24 363 371 372 380
1084 24 389 390 398 399
1085 24 372 380 381 389
1086 24 398 399 407 408
1087 24 381 389 390 398
1088 24 407 408 416 417
1089 24 390 398 399 407
1090 24 416 417 425 426
1091 24 399 407 408 416
1092 24 425 426 434 435
1093 24 408 416 417 425
1094 24 417 425 426 434
1095 24 426 434 435 443
1096 24 463 464 472 473
1097 24 472 473 481 482
1098 24 454 463 464 472
1099 24 481 482 490 491
1100 24 464 472 473 481
1101 24 490 491 499 500
1102 24 473 481 482 490
1103 24 499 500 508 509
1104 24 482 490 491 499
1105 24 508 509 517 518
1106 24 491 499 500 508
1107 24 517 518 526 527
1108 24 500 508 509 517
1109 24 526 527 535 536
1110 24 509 517 518 526
1111 24 535 536 544 545
1112 24 518 526 527 535
1113 24 544 545 553 554
1114 24 527 535 536 544
1115 24 553 554 562 563
1116 24 536 544 545 553
1117 24 562 563 571 572
1118 24 545 553 554 562
1119 24 571 572 580 581
1120 24 554 562 563 571
1121 24 580 581 589 590
1122 24 563 571 572 580
1123 24 589 590 598 599
1124 24 572 580 581 589
1125 24 598 599 607 608
1126 24 581 589 590 598
1127 24 607 608 616 617
1128 24 590 598 599 607
1129 24 616 617 625 626
1130 24 599 607 608 616
1131 24 625 626 634 635
1132 24 608 616 617 625
1133 24 634 635 643 644
1134 24 617 625 626 634
1135 24 643 644 652 653
1136 24 626 634 635 643
1137 24 652 653 661 662
1138 24 635 643 644 652
1139 24 661 662 670 671
1140 24 644 652 653 661
1141 24 670 671 679 680
1142 24 653 661 662 670
1143 24 679 680 688 689
1144 24 662 670 671 679
1145 24 688 689 697 698
1146 24 671 679 680 688
1147 24 697 698 706 707
1148 24 680 688 689 697
1149 24 706 707 715 716
1150 24 689 697 698 706
1151 24 715 716 724 725
1152 24 698 706 707 715
1153 24 724 725 733 734
1154 24 707 715 716 724
1155 24 733 734 742 743
1156 24 716 724 725 733
1157 24 742 743 751 752
1158 24 725 733 734 742
1159 24 751 752 760 761
1160 24 734 742 743 751
1161 24 760 761 769 770
1162 24 743 751 752 760
1163 24 769 770 778 779
1164 24 752 760 761 769
1165 24 778 779 787 788
1166 24 761 769 770 778
1167 24 787 788 796 797
1168 24 770 778 779 787
1169 24 796 797 805 806
1170 24 779 787 788 796
1171 24 805 806 814 815
1172 24 788 796 797 805
1173 24 814 815 823 824
1174 24 797 805 806 814
1175 24 823 824 832 833
1176 24 806 814 815 823
1177 24 832 833 841 842
1178 24 815 823 824 832
1179 24 841 842 850 851
1180 24 824 832 833 841
1181 24 850 851 859 860
1182 24 833 841 842 850
1183 24 859 860 868 869
1184 24 842 850 851 859
1185 24 868 869 877 878
1186 24 851 859 860 868
1187 24 877 878 886 887
1188 24 860 868 869 877
1189 24 869 877 878 886
1190 24 878 886 887 895
1191 24 915 916 924 925
1192 24 924 925 933 934
1193 24 906 915 916 924
1194 24 933 934 942 943
1195 24 916 924 925 933
1196 24 942 943 951 952
1197 24 925 933 934 942
1198 24 951 952 960 961
1199 24 934 942 943 951
1200 24 960 961 969 970
1201 24 943 951 952 960
1202 24 969 970 978 979
1203 24 952 960 961 969
1204 24 978 979 987 988
1205 24 961 969 970 978
1206 24 987 988 996 997
1207 24 970 978 979 987
1208 24 996 997 1005 1006
1209 24 979 987 988 996
1210 24 1005 1006 1014 1015
1211 24 988 996 997 1005
1212 24 1014 1015 1023 1024
1213 24 997 1005 1006 1014
1214 24 1023 1024 1032 1033
1215 24 1006 1014 1015 1023
1216 24 1032 1033 1041 1042
1217 24 1015 1023 1024 1032
1218 24 1041 1042 1050 1051
1219 24 1024 1032 1033 1041
1220 24 1050 1051 1059 1060
1221 24 1033 1041 1042 1050
1222 24 1059 1060 1068 1069
1223 24 1042 1050 1051 1059
1224 24 1068 1069 1077 1078
1225 24 1051 1059 1060 1068
1226 24 1077 1078 1086 1087
1227 24 1060 1068 1069 1077
1228 24 1086 1087 1095 1096
1229 24 1069 1077 1078 1086
1230 24 1095 1096 1104 1105
1231 24 1078 1086 1087 1095
1232 24 1104 1105 1113 1114
1233 24 1087 1095 1096 1104
1234 24 1113 1114 1122 1123
1235 24 1096 1104 1105 1113
1236 24 1122 1123 1131 1132
1237 24 1105 1113 1114 1122
1238 24 1131 1132 1140 1141
1239 24 1114 1122 1123 1131
1240 24 1140 1141 1149 1150
1241 24 1123 1131 1132 1140
1242 24 1149 1150 1158 1159
1243 24 1132 1140 1141 1149
1244 24 1158 1159 1167 1168
1245 24 1141 1149 1150 1158
1246 24 1167 1168 1176 1177
1247 24 1150 1158 1159 1167
1248 24 1176 1177 1185 1186
1249 24 1159 1167 1168 1176
1250 24 1185 1186 1194 1195
1251 24 1168 1176 1177 1185
1252 24 1194 1195 1203 1204
1253 24 1177 1185 1186 1194
1254 24 1203 1204 1212 1213
1255 24 1186 1194 1195 1203
1256 24 1212 1213 1221 1222
1257 24 1195 1203 1204 1212
1258 24 1221 1222 1230 1231
1259 24 1204 1212 1213 1221
1260 24 1230 1231 1239 1240
1261 24 1213 1221 1222 1230
1262 24 1239 1240 1248 1249
1263 24 1222 1230 1231 1239
1264 24 1248 1249 1257 1258
1265 24 1231 1239 1240 1248
1266 24 1257 1258 1266 1267
1267 24 1240 1248 1249 1257
1268 24 1266 1267 1275 1276
1269 24 1249 1257 1258 1266
1270 24 1275 1276 1284 1285
1271 24 1258 1266 1267 1275
1272 24 1284 1285 1293 1294
1273 24 1267 1275 1276 1284
1274 24 1293 1294 1302 1303
1275 24 1276 1284 1285 1293
1276 24 1302 1303 1311 1312
1277 24 1285 1293 1294 1302
1278 24 1311 1312 1320 1321
1279 24 1294 1302 1303 1311
1280 24 1320 1321 1329 1330
1281 24 1303 1311 1312 1320
1282 24 1329 1330 1338 1339
1283 24 1312 1320 1321 1329
1284 24 1321 1329 1330 1338
1285 24 1330 1338 1339 1347
1286 24 1367 1368 1376 1377
1287 24 1376 1377 1385 1386
1288 24 1358 1367 1368 1376
1289 24 1385 1386 1394 1395
1290 24 1368 1376 1377 1385
1291 24 1394 1395 1403 1404
1292 24 1377 1385 1386 1394
1293 24 1403 1404 1412 1413
1294 24 1386 1394 1395 1403
1295 24 1412 1413 1421 1422
1296 24 1395 1403 1404 1412
1297 24 1421 1422 1430 1431
1298 24 1404 1412 1413 1421
1299 24 1430 1431 1439 1440
1300 24 1413 1421 1422 1430
1301 24 1439 1440 1448 1449
1302 24 1422 1430 1431 1439
1303 24 1448 1449 1457 1458
1304 24 1431 1439 1440 1448
1305 24 1457 1458 1466 1467
1306 24 1440 1448 1449 1457
1307 24 1466 1467 1475 1476
1308 24 1449 1457 1458 1466
1309 24 1475 1476 1484 1485
1310 24 1458 1466 1467 1475
1311 24 1484 1485 1493 1494
1312 24 1467 1475 1476 1484
1313 24 1493 1494 1502 1503
1314 24 1476 1484 1485 1493
1315 24 1502 1503 1511 1512
1316 24 1485 1493 1494 1502
1317 24 1511 1512 1520 1521
1318 24 1494 1502 1503 1511
1319 24 1520 1521 1529 1530
1320 24 1503 1511 1512 1520
1321 24 1529 1530 1538 1539
1322 24 1512 1520 1521 1529
1323 24 1538 1539 1547 1548
1324 24 1521 1529 1530 1538
1325 24 1547 1548 1556 1557
1326 24 1530 1538 1539 1547
1327 24 1556 1557 1565 1566
1328 24 1539 1547 1548 1556
1329 24 1565 1566 1574 1575
1330 24 1548 1556 1557 1565
1331 24 1574 1575 1583 1584
1332 24 1557 1565 1566 1574
1333 24 1583 1584 1592 1593
1334 24 1566 1574 1575 1583
1335 24 1592 1593 1601 1602
1336 24 1575 1583 1584 1592
1337 24 1601 1602 1610 1611
1338 24 1584 1592 1593 1601
1339 24 1610 1611 1619 1620
1340 24 1593 1601 1602 1610
1341 24 1619 1620 1628 1629
1342 24 1602 1610 1611 1619
1343 24 1628 1629 1637 1638
1344 24 1611 1619 1620 1628
1345 24 1637 1638 1646 1647
1346 24 1620 1628 1629 1637
1347 24 1646 1647 1655 1656
1348 24 1629 1637 1638 1646
1349 24 1655 1656 1664 1665
1350 24 1638 1646 1647 1655
1351 24 1664 1665 1673 1674
1352 24 1647 1655 1656 1664
1353 24 1673 1674 1682 1683
1354 24 1656 1664 1665 1673
1355 24 1682 1683 1691 1692
1356 24 1665 1673 1674 1682
1357 24 1691 1692 1700 1701
1358 24 1674 1682 1683 1691
1359 24 1700 1701 1709 1710
1360 24 1683 1691 1692 1700
1361 24 1709 1710 1718 1719
1362 24 1692 1700 1701 1709
1363 24 1718 1719 1727 1728
1364 24 1701 1709 1710 1718
1365 24 1727 1728 1736 1737
1366 24 1710 1718 1719 1727
1367 24 1736 1737 1745 1746
1368 24 1719 1727 1728 1736
1369 24 1745 1746 1754 1755
1370 24 1728 1736 1737 1745
1371 24 1754 1755 1763 1764
1372 24 1737 1745 1746 1754
1373 24 1763 1764 1772 1773
1374 24 1746 1754 1755 1763
1375 24 1772 1773 1781 1782
1376 24 1755 1763 1764 1772
1377 24 1781 1782 1790 1791
1378 24 1764 1772 1773 1781
1379 24 1773 1781 1782 1790
1380 24 1782 1790 1791 1799
1381 24 1819 1820 1828 1829
1382 24 1828 1829 1837 1838
1383 24 1810 1819 1820 1828
1384 24 1837 1838 1846 1847
1385 24 1820 1828 1829 1837
1386 24 1846 1847 1855 1856
1387 24 1829 1837 1838 1846
1388 24 1855 1856 1864 1865
1389 24 1838 1846 1847 1855
1390 24 1864 1865 1873 1874
1391 24 1847 1855 1856 1864
1392 24 1873 1874 1882 1883
1393 24 1856 1864 1865 1873
1394 24 1882 1883 1891 1892
1395 24 1865 1873 1874 1882
1396 24 1891 1892 1900 1901
1397 24 1874 1882 1883 1891
1398 24 1900 1901 1909 1910
1399 24 1883 1891 1892 1900
1400 24 1909 1910 1918 1919
1401 24 1892 1900 1901 1909
1402 24 1918 1919 1927 1928
1403 24 1901 1909 1910 1918
1404 24 1927 1928 1936 1937
1405 24 1910 1918 1919 1927
1406 24 1936 1937 1945 1946
1407 24 1919 1927 1928 1936
1408 24 1945 1946 1954 1955
1409 24 1928 1936 1937 1945
1410 24 1954 1955 1963 1964
1411 24 1937 1945 1946 1954
1412 24 1963 1964 1972 1973
1413 24 1946 1954 1955 1963
1414 24 1972 1973 1981 1982
1415 24 1955 1963 1964 1972
1416 24 1981 1982 1990 1991
1417 24 1964 1972 1973 1981
1418 24 1990 1991 1999 2000
1419 24 1973 1981 1982 1990
1420 24 1999 2000 2008 2009
1421 24 1982 1990 1991 1999
1422 24 2008 2009 2017 2018
1423 24 1991 1999 2000 2008
1424 24 2017 2018 2026 2027
1425 24 2000 2008 2009 2017
1426 24 2026 2027 2035 2036
1427 24 2009 2017 2018 2026
1428 24 2035 2036 2044 2045
1429 24 2018 2026 2027 2035
1430 24 2044 2045 2053 2054
1431 24 2027 2035 2036 2044
1432 24 2053 2054 2062 2063
1433 24 2036 2044 2045 2053
1434 24 2062 2063 2071 2072
1435 24 2045 2053 2054 2062
1436 24 2071 2072 2080 2081
1437 24 2054 2062 2063 2071
1438 24 2080 2081 2089 2090
1439 24 2063 2071 2072 2080
1440 24 2089 2090 2098 2099
1441 24 2072 2080 2081 2089
1442 24 2098 2099 2107 2108
1443 24 2081 2089 2090 2098
1444 24 2107 2108 2116 2117
1445 24 2090 2098 2099 2107
1446 24 2116 2117 2125 2126
1447 24 2099 2107 2108 2116
1448 24 2125 2126 2134 2135
1449 24 2108 2116 2117 2125
1450 24 2134 2135 2143 2144
1451 24 2117 2125 2126 2134
1452 24 2143 2144 2152 2153
1453 24 2126 2134 2135 2143
1454 24 2152 2153 2161 2162
1455 24 2135 2143 2144 2152
1456 24 2161 2162 2170 2171
1457 24 2144 2152 2153 2161
1458 24 2170 2171 2179 2180
1459 24 2153 2161 2162 2170
1460 24 2179 2180 2188 2189
1461 24 2162 2170 2171 2179
1462 24 2188 2189 2197 2198
1463 24 2171 2179 2180 2188
1464 24 2197 2198 2206 2207
1465 24 2180 2188 2189 2197
1466 24 2206 2207 2215 2216
1467 24 2189 2197 2198 2206
1468 24 2215 2216 2224 2225
1469 24 2198 2206 2207 2215
1470 24 2224 2225 2233 2234
1471 24 2207 2215 2216 2224
1472 24 2233 2234 2242 2243
1473 24 2216 2224 2225 2233
1474 24 2225 2233 2234 2242
1475 24 2234 2242 2243 2251
1476 24 2271 2272 2280 2281
1477 24 2280 2281 2289 2290
1478 24 2262 2271 2272 2280
1479 24 2289 2290 2298 2299
1480 24 2272 2280 2281 2289
1481 24 2298 2299 2307 2308
1482 24 2281 2289 2290 2298
1483 24 2307 2308 2316 2317
1484 24 2290 2298 2299 2307
1485 24 2316 2317 2325 2326
1486 24 2299 2307 2308 2316
1487 24 2325 2326 2334 2335
1488 24 2308 2316 2317 2325
1489 24 2334 2335 2343 2344
1490 24 2317 2325 2326 2334
1491 24 2343 2344 2352 2353
1492 24 2326 2334 2335 2343
1493 24 2352 2353 2361 2362
1494 24 2335 2343 2344 2352
1495 24 2361 2362 2370 2371
1496 24 2344 2352 2353 2361
1497 24 2370 2371 2379 2380
1498 24 2353 2361 2362 2370
1499 24 2379 2380 2388 2389
1500 24 2362 2370 2371 2379
1501 24 2388 2389 2397 2398
1502 24 2371 2379 2380 2388
1503 24 2397 2398 2406 2407
1504 24 2380 2388 2389 2397
1505 24 2406 2407 2415 2416
1506 24 2389 2397 2398 2406
1507 24 2415 2416 2424 2425
1508 24 2398 2406 2407 2415
1509 24 2424 2425 2433 2434
1510 24 2407 2415 2416 2424
1511 24 2433 2434 2442 2443
1512 24 2416 2424 2425 2433
1513 24 2442 2443 2451 2452
1514 24 2425 2433 2434 2442
1515 24 2451 2452 2460 2461
1516 24 2434 2442 2443 2451
1517 24 2460 2461 2469 2470
1518 24 2443 2451 2452 2460
1519 24 2469 2470 2478 2479
1520 24 2452 2460 2461 2469
1521 24 2478 2479 2487 2488
1522 24 2461 2469 2470 2478
1523 24 2487 2488 2496 2497
1524 24 2470 2478 2479 2487
1525 24 2496 2497 2505 2506
1526 24 2479 2487 2488 2496
1527 24 2505 2506 2514 2515
1528 24 2488 2496 2497 2505
1529 24 2514 2515 2523 2524
1530 24 2497 2505 2506 2514
1531 24 2523 2524 2532 2533
1532 24 2506 2514 2515 2523
1533 24 2532 2533 2541 2542
1534 24 2515 2523 2524 2532
1535 24 2541 2542 2550 2551
1536 24 2524 2532 2533 2541
1537 24 2550 2551 2559 2560
1538 24 2533 2541 2542 2550
1539 24 2559 2560 2568 2569
1540 24 2542 2550 2551 2559
1541 24 2568 2569 2577 2578
1542 24 2551 2559 2560 2568
1543 24 2577 2578 2586 2587
1544 24 2560 2568 2569 2577
1545 24 2586 2587 2595 2596
1546 24 2569 2577 2578 2586
1547 24 2595 2596 2604 2605
1548 24 2578 2586 2587 2595
1549 24 2604 2605 2613 2614
1550 24 2587 2595 2596 2604
1551 24 2613 2614 2622 2623
1552 24 2596 2604 2605 2613
1553 24 2622 2623 2631 2632
1554 24 2605 2613 2614 2622
1555 24 2631 2632 2640 2641
1556 24 2614 2622 2623 2631
1557 24 2640 2641 2649 2650
1558 24 2623 2631 2632 2640
1559 24 2649 2650 2658 2659
1560 24 2632 2640 2641 2649
1561 24 2658 2659 2667 2668
1562 24 2641 2649 2650 2658
1563 24 2667 2668 2676 2677
1564 24 2650 2658 2659 2667
1565 24 2676 2677 2685 2686
1566 24 2659 2667 2668 2676
1567 24 2685 2686 2694 2695
1568 24 2668 2676 2677 2685
1569 24 2677 2685 2686 2694
1570 24 2686 2694 2695 2703
1571 24 2723 2724 2732 2733
1572 24 2732 2733 2741 2742
1573 24 2714 2723 2724 2732
1574 24 2741 2742 2750 2751
1575 24 2724 2732 2733 2741
1576 24 2750 2751 2759 2760
1577 24 2733 2741 2742 2750
1578 24 2759 2760 2768 2769
1579 24 2742 2750 2751 2759
1580 24 2768 2769 2777 2778
1581 24 2751 2759 2760 2768
1582 24 2777 2778 2786 2787
1583 24 2760 2768 2769 2777
1584 24 2786 2787 2795 2796
1585 24 2769 2777 2778 2786
1586 24 2795 2796 2804 2805
1587 24 2778 2786 2787 2795
1588 24 2804 2805 2813 2814
1589 24 2787 2795 2796 2804
1590 24 2813 2814 2822 2823
1591 24 2796 2804 2805 2813
1592 24 2822 2823 2831 2832
1593 24 2805 2813 2814 2822
1594 24 2831 2832 2840 2841
1595 24 2814 2822 2823 2831
1596 24 2840 2841 2849 2850
1597 24 2823 2831 2832 2840
1598 24 2849 2850 2858 2859
1599 24 2832 2840 2841 2849
1600 24 2858 2859 2867 2868
1601 24 2841 2849 2850 2858
1602 24 2867 2868 2876 2877
1603 24 2850 2858 2859 2867
1604 24 2876 2877 2885 2886
1605 24 2859 2867 2868 2876
1606 24 2885 2886 2894 2895
1607 24 2868 2876 2877 2885
1608 24 2894 2895 2903 2904
1609 24 2877 2885 2886 2894
1610 24 2903 2904 2912 2913
1611 24 2886 2894 2895 2903
1612 24 2912 2913 2921 2922
1613 24 2895 2903 2904 2912
1614 24 2921 2922 2930 2931
1615 24 2904 2912 2913 2921
1616 24 2930 2931 2939 2940
1617 24 2913 2921 2922 2930
1618 24 2939 2940 2948 2949
1619 24 2922 2930 2931 2939
1620 24 2948 2949 2957 2958
1621 24 2931 2939 2940 2948
1622 24 2957 2958 2966 2967
1623 24 2940 2948 2949 2957
1624 24 2966 2967 2975 2976
1625 24 2949 2957 2958 2966
1626 24 2975 2976 2984 2985
1627 24 2958 2966 2967 2975
1628 24 2984 2985 2993 2994
1629 24 2967 2975 2976 2984
1630 24 2993 2994 3002 3003
1631 24 2976 2984 2985 2993
1632 24 3002 3003 3011 3012
1633 24 2985 2993 2994 3002
1634 24 3011 3012 3020 3021
1635 24 2994 3002 3003 3011
1636 24 3020 3021 3029 3030
1637 24 3003 3011 3012 3020
1638 24 3029 3030 3038 3039
1639 24 3012 3020 3021 3029
1640 24 3038 3039 3047 3048
1641 24 3021 3029 3030 3038
1642 24 3047 3048 3056 3057
1643 24 3030 3038 3039 3047
1644 24 3056 3057 3065 3066
1645 24 3039 3047 3048 3056
1646 24 3065 3066 3074 3075
1647 24 3048 3056 3057 3065
1648 24 3074 3075 3083 3084
1649 24 3057 3065 3066 3074
1650 24 3083 3084 3092 3093
1651 24 3066 3074 3075 3083
1652 24 3092 3093 3101 3102
1653 24 3075 3083 3084 3092
1654 24 3101 3102 3110 3111
1655 24 3084 3092 3093 3101
1656 24 3110 3111 3119 3120
1657 24 3093 3101 3102 3110
1658 24 3119 3120 3128 3129
1659 24 3102 3110 3111 3119
1660 24 3128 3129 3137 3138
1661 24 3111 3119 3120 3128
1662 24 3137 3138 3146 3147
1663 24 3120 3128 3129 3137
1664 24 3129 3137 3138 3146
1665 24 3138 3146 3147 3155
1666 24 3175 3176 3184 3185
1667 24 3184 3185 3193 3194
1668 24 3166 3175 3176 3184
1669 24 3193 3194 3202 3203
1670 24 3176 3184 3185 3193
1671 24 3202 3203 3211 3212
1672 24 3185 3193 3194 3202
1673 24 3211 3212 3220 3221
1674 24 3194 3202 3203 3211
1675 24 3220 3221 3229 3230
1676 24 3203 3211 3212 3220
1677 24 3229 3230 3238 3239
1678 24 3212 3220 3221 3229
1679 24 3238 3239 3247 3248
1680 24 3221 3229 3230 3238
1681 24 3247 3248 3256 3257
1682 24 3230 3238 3239 3247
1683 24 3256 3257 3265 3266
1684 24 3239 3247 3248 3256
1685 24 3265 3266 3274 3275
1686 24 3248 3256 3257 3265
1687 24 3274 3275 3283 3284
1688 24 3257 3265 3266 3274
1689 24 3283 3284 3292 3293
1690 24 3266 3274 3275 3283
1691 24 3292 3293 3301 3302
1692 24 3275 3283 3284 3292
1693 24 3301 3302 3310 3311
1694 24 3284 3292 3293 3301
1695 24 3310 3311 3319 3320
1696 24 3293 3301 3302 3310
1697 24 3319 3320 3328 3329
1698 24 3302 3310 3311 3319
1699 24 3328 3329 3337 3338
1700 24 3311 3319 3320 3328
1701 24 3337 3338 3346 3347
1702 24 3320 3328 3329 3337
1703 24 3346 3347 3355 3356
1704 24 3329 3337 3338 3346
1705 24 3355 3356 3364 3365
1706 24 3338 3346 3347 3355
1707 24 3364 3365 3373 3374
1708 24 3347 3355 3356 3364
1709 24 3373 3374 3382 3383
1710 24 3356 3364 3365 3373
1711 24 3382 3383 3391 3392
1712 24 3365 3373 3374 3382
1713 24 3391 3392 3400 3401
1714 24 3374 3382 3383 3391
1715 24 3400 3401 3409 3410
1716 24 3383 3391 3392 3400
1717 24 3409 3410 3418 3419
1718 24 3392 3400 3401 3409
1719 24 3418 3419 3427 3428
1720 24 3401 3409 3410 3418
1721 24 3427 3428 3436 3437
1722 24 3410 3418 3419 3427
1723 24 3436 3437 3445 3446
1724 24 3419 3427 3428 3436
1725 24 3445 3446 3454 3455
1726 24 3428 3436 3437 3445
1727 24 3454 3455 3463 3464
1728 24 3437 3445 3446 3454
1729 24 3463 3464 3472 3473
1730 24 3446 3454 3455 3463
1731 24 3472 3473 3481 3482
1732 24 3455 3463 3464 3472
1733 24 3481 3482 3490 3491
1734 24 3464 3472 3473 3481
1735 24 3490 3491 3499 3500
1736 24 3473 3481 3482 3490
1737 24 3499 3500 3508 3509
1738 24 3482 3490 3491 3499
1739 24 3508 3509 3517 3518
1740 24 3491 3499 3500 3508
1741 24 3517 3518 3526 3527
1742 24 3500 3508 3509 3517
1743 24 3526 3527 3535 3536
1744 24 3509 3517 3518 3526
1745 24 3535 3536 3544 3545
1746 24 3518 3526 3527 3535
1747 24 3544 3545 3553 3554
1748 24 3527 3535 3536 3544
1749 24 3553 3554 3562 3563
1750 24 3536 3544 3545 3553
1751 24 3562 3563 3571 3572
1752 24 3545 3553 3554 3562
1753 24 3571 3572 3580 3581
1754 24 3554 3562 3563 3571
1755 24 3580 3581 3589 3590
1756 24 3563 3571 3572 3580
1757 24 3589 3590 3598 3599
1758 24 3572 3580 3581 3589
1759 24 3581 3589 3590 3598
1760 24 3590 3598 3599 3607
1761 24 3627 3628 3636 3637
1762 24 3636 3637 3645 3646
1763 24 3618 3627 3628 3636
1764 24 3645 3646 3654 3655
1765 24 3628 3636 3637 3645
1766 24 3654 3655 3663 3664
1767 24 3637 3645 3646 3654
1768 24 3663 3664 3672 3673
1769 24 3646 3654 3655 3663
1770 24 3672 3673 3681 3682
1771 24 3655 3663 3664 3672
1772 24 3681 3682 3690 3691
1773 24 3664 3672 3673 3681
1774 24 3690 3691 3699 3700
1775 24 3673 3681 3682 3690
1776 24 3699 3700 3708 3709
1777 24 3682 3690 3691 3699
1778 24 3708 3709 3717 3718
1779 24 3691 3699 3700 3708
1780 24 3717 3718 3726 3727
1781 24 3700 3708 3709 3717
1782 24 3726 3727 3735 3736
1783 24 3709 3717 3718 3726
1784 24 3735 3736 3744 3745
1785 24 3718 3726 3727 3735
1786 24 3744 3745 3753 3754
1787 24 3727 3735 3736 3744
1788 24 3753 3754 3762 3763
1789 24 3736 3744 3745 3753
1790 24 3762 3763 3771 3772
1791 24 3745 3753 3754 3762
1792 24 3771 3772 3780 3781
1793 24 3754 3762 3763 3771
1794 24 3780 3781 3789 3790
1795 24 3763 3771 3772 3780
1796 24 3789 3790 3798 3799
1797 24 3772 3780 3781 3789
1798 24 3798 3799 3807 3808
1799 24 3781 3789 3790 3798
1800 24 3807 3808 3816 3817
1801 24 3790 3798 3799 3807
1802 24 3816 3817 3825 3826
1803 24 3799 3807 3808 3816
1804 24 3825 3826 3834 3835
1805 24 3808 3816 3817 3825
1806 24 3834 3835 3843 3844
1807 24 3817 3825 3826 3834
1808 24 3843 3844 3852 3853
1809 24 3826 3834 3835 3843
1810 24 3852 3853 3861 3862
1811 24 3835 3843 3844 3852
1812 24 3861 3862 3870 3871
1813 24 3844 3852 3853 3861
1814 24 3870 3871 3879 3880
1815 24 3853 3861 3862 3870
1816 24 3879 3880 3888 3889
1817 24 3862 3870 3871 3879
1818 24 3888 3889 3897 3898
1819 24 3871 3879 3880 3888
1820 24 3897 3898 3906 3907
1821 24 3880 3888 3889 3897
1822 24 3906 3907 3915 3916
1823 24 3889 3897 3898 3906
1824 24 3915 3916 3924 3925
1825 24 3898 3906 3907 3915
1826 24 3924 3925 3933 3934
1827 24 3907 3915 3916 3924
1828 24 3933 3934 3942 3943
1829 24 3916 3924 3925 3933
1830 24 3942 3943 3951 3952
1831 24 3925 3933 3934 3942
1832 24 3951 3952 3960 3961
1833 24 3934 3942 3943 3951
1834 24 3960 3961 3969 3970
1835 24 3943 3951 3952 3960
1836 24 3969 3970 3978 3979
1837 24 3952 3960 3961 3969
1838 24 3978 3979 3987 3988
1839 24 3961 3969 3970 3978
1840 24 3987 3988 3996 3997
1841 24 3970 3978 3979 3987
1842 24 3996 3997 4005 4006
1843 24 3979 3987 3988 3996
1844 24 4005 4006 4014 4015
1845 24 3988 3996 3997 4005
1846 24 4014 4015 4023 4024
1847 24 3997 4005 4006 4014
1848 24 4023 4024 4032 4033
1849 24 4006 4014 4015 4023
1850 24 4032 4033 4041 4042
1851 24 4015 4023 4024 4032
1852 24 4041 4042 4050 4051
1853 24 4024 4032 4033 4041
1854 24 4033 4041 4042 4050
1855 24 4042 4050 4051 4059
1856 24 4079 4080 4088 4089
1857 24 4088 4089 4097 4098
1858 24 4070 4079 4080 4088
1859 24 4097 4098 4106 4107
1860 24 4080 4088 4089 4097
1861 24 4106 4107 4115 4116
1862 24 4089 4097 4098 4106
1863 24 4115 4116 4124 4125
1864 24 4098 4106 4107 4115
1865 24 4124 4125 4133 4134
1866 24 4107 4115 4116 4124
1867 24 4133 4134 4142 4143
1868 24 4116 4124 4125 4133
1869 24 4142 4143 4151 4152
1870 24 4125 4133 4134 4142
1871 24 4151 4152 4160 4161
1872 24 4134 4142 4143 4151
1873 24 4160 4161 4169 4170
1874 24 4143 4151 4152 4160
1875 24 4169 4170 4178 4179
1876 24 4152 4160 4161 4169
1877 24 4178 4179 4187 4188
1878 24 4161 4169 4170 4178
1879 24 4187 4188 4196 4197
1880 24 4170 4178 4179 4187
1881 24 4196 4197 4205 4206
1882 24 4179 4187 4188 4196
1883 24 4205 4206 4214 4215
1884 24 4188 4196 4197 4205
1885 24 4214 4215 4223 4224
1886 24 4197 4205 4206 4214
1887 24 4223 4224 4232 4233
1888 24 4206 4214 4215 4223
1889 24 4232 4233 4241 4242
1890 24 4215 4223 4224 4232
1891 24 4241 4242 4250 4251
1892 24 4224 4232 4233 4241
1893 24 4250 4251 4259 4260
1894 24 4233 4241 4242 4250
1895 24 4259 4260 4268 4269
1896 24 4242 4250 4251 4259
1897 24 4268 4269 4277 4278
1898 24 4251 4259 4260 4268
1899 24 4277 4278 4286 4287
1900 24 4260 4268 4269 4277
1901 24 4286 4287 4295 4296
1902 24 4269 4277 4278 4286
1903 24 4295 4296 4304 4305
1904 24 4278 4286 4287 4295
1905 24 4304 4305 4313 4314
1906 24 4287 4295 4296 4304
1907 24 4313 4314 4322 4323
1908 24 4296 4304 4305 4313
1909 24 4322 4323 4331 4332
1910 24 4305 4313 4314 4322
1911 24 4331 4332 4340 4341
1912 24 4314 4322 4323 4331
1913 24 4340 4341 4349 4350
1914 24 4323 4331 4332 4340
1915 24 4349 4350 4358 4359
1916 24 4332 4340 4341 4349
1917 24 4358 4359 4367 4368
1918 24 4341 4349 4350 4358
1919 24 4367 4368 4376 4377
1920 24 4350 4358 4359 4367
1921 24 4376 4377 4385 4386
1922 24 4359 4367 4368 4376
1923 24 4385 4386 4394 4395
1924 24 4368 4376 4377 4385
1925 24 4394 4395 4403 4404
1926 24 4377 4385 4386 4394
1927 24 4403 4404 4412 4413
1928 24 4386 4394 4395 4403
1929 24 4412 4413 4421 4422
1930 24 4395 4403 4404 4412
1931 24 4421 4422 4430 4431
1932 24 4404 4412 4413 4421
1933 24 4430 4431 4439 4440
1934 24 4413 4421 4422 4430
1935 24 4439 4440 4448 4449
1936 24 4422 4430 4431 4439
1937 24 4448 4449 4457 4458
1938 24 4431 4439 4440 4448
1939 24 4457 4458 4466 4467
1940 24 4440 4448 4449 4457
1941 24 4466 4467 4475 4476
1942 24 4449 4457 4458 4466
1943 24 4475 4476 4484 4485
1944 24 4458 4466 4467 4475
1945 24 4484 4485 4493 4494
1946 24 4467 4475 4476 4484
1947 24 4493 4494 4502 4503
1948 24 4476 4484 4485 4493
1949 24 4485 4493 4494 4502
1950 24 4494 4502 4503 4511
1951 32 445 444 443 446
1952 32 445 444 443 447
1953 32 897 896 895 898
1954 32 897 896 895 899
1955 32 1349 1348 1347 1350
1956 32 1349 1348 1347 1351
1957 32 1801 1800 1799 1802
1958 32 1801 1800 1799 1803
1959 32 2253 2252 2251 2254
1960 32 2253 2252 2251 2255
1961 32 2705 2704 2703 2706
1962 32 2705 2704 2703 2707
1963 32 3157 3156 3155 3158
1964 32 3157 3156 3155 3159
1965 32 3609 3608 3607 3610
1966 32 3609 3608 3607 3611
1967 32 4061 4060 4059 4062
1968 32 4061 4060 4059 4063
1969 32 4513 4512 4511 4514
1970 32 4513 4512 4511 4515
1971 34 1 2 3 8
1972 34 1 2 3 9
1973 34 1 2 3 10
1974 34 3 2 1 4
1975 34 3 2 1 5
1976 34 3 2 1 6
1977 34 453 454 455 460
1978 34 453 454 455 461
1979 34 453 454 455 462
1980 34 455 454 453 456
1981 34 455 454 453 457
1982 34 455 454 453 458
1983 34 905 906 907 912
1984 34 905 906 907 913
1985 34 905 906 907 914
1986 34 907 906 905 908
1987 34 907 906 905 909
1988 34 907 906 905 910
1989 34 1357 1358 1359 1364
1990 34 1357 1358 1359 1365
1991 34 1357 1358 1359 1366
1992 34 1359 1358 1357 1360
1993 34 1359 1358 1357 1361
1994 34 1359 1358 1357 1362
1995 34 1809 1810 1811 1816
1996 34 1809 1810 1811 1817
1997 34 1809 1810 1811 1818
1998 34 1811 1810 1809 1812
1999 34 1811 1810 1809 1813
2000 34 1811 1810 1809 1814
2001 34 2261 2262 2263 2268
2002 34 2261 2262 2263 2269
2003 34 2261 2262 2263 2270
2004 34 2263 2262 2261 2264
2005 34 2263 2262 2261 2265
2006 34 2263 2262 2261 2266
2007 34 2713 2714 2715 2720
2008 34 2713 2714 2715 2721
2009 34 2713 2714 2715 2722
2010 34 2715 2714 2713 2716
2011 34 2715 2714 2713 2717
2012 34 2715 2714 2713 2718
2013 34 3165 3166 3167 3172
2014 34 3165 3166 3167 3173
2015 34 3165 3166 3167 3174
2016 34 3167 3166 3165 3168
2017 34 3167 3166 3165 3169
2018 34 3167 3166 3165 3170
2019 34 3617 3618 3619 3624
2020 34 3617 3618 3619 3625
2021 34 3617 3618 3619 3626
2022 34 3619 3618 3617 3620
2023 34 3619 3618 3617 3621
2024 34 3619 3618 3617 3622
2025 34 4069 4070 4071 4076
2026 34 4069 4070 4071 4077
2027 34 4069 4070 4071 4078
2028 34 4071 4070 4069 4072
2029 34 4071 4070 4069 4073
2030 34 4071 4070 4069 4074
2031 35 1 2 11 14
2032 35 1 2 11 15
2033 35 3 2 11 14
2034 35 3 2 11 15
2035 35 13 12 11 14
2036 35 13 12 11 15
2037 35 13 12 20 23
2038 35 13 12 20 24
2039 35 22 21 20 23
2040 35 22 21 20 24
2041 35 22 21 29 32
2042 35 22 21 29 33
2043 35 31 30 29 32
2044 35 31 30 29 33
2045 35 31 30 38 41
2046 35 31 30 38 42
2047 35 40 39 38 41
2048 35 40 39 38 42
2049 35 40 39 47 50
2050 35 40 39 47 51
2051 35 49 48 47 50
2052 35 49 48 47 51
2053 35 49 48 56 59
2054 35 49 48 56 60
2055 35 58 57 56 59
2056 35 58 57 56 60
2057 35 58 57 65 68
2058 35 58 57 65 69
2059 35 67 66 65 68
2060 35 67 66 65 69
2061 35 67 66 74 77
2062 35 67 66 74 78
2063 35 76 75 74 77
2064 35 76 75 74 78
2065 35 76 75 83 86
2066 35 76 75 83 87
2067 35 85 84 83 86
2068 35 85 84 83 87
2069 35 85 84 92 95
2070 35 85 84 92 96
2071 35 94 93 92 95
2072 35 94 93 92 96
2073 35 94 93 101 104
2074 35 94 93 101 105
2075 35 103 102 101 104
2076 35 103 102 101 105
2077 35 103 102 110 113
2078 35 103 102 110 114
2079 35 112 111 110 113
2080 35 112 111 110 114
2081 35 112 111 119 122
2082 35 112 111 119 123
2083 35 121 120 119 122
2084 35 121 120 119 123
2085 35 121 120 128 131
2086 35 121 120 128 132
2087 35 130 129 128 131
2088 35 130 129 128 132
2089 35 130 129 137 140
2090 35 130 129 137 141
2091 35 139 138 137 140
2092 35 139 138 137 141
2093 35 139 138 146 149
2094 35 139 138 146 150
2095 35 148 147 146 149
2096 35 148 147 146 150
2097 35 148 147 155 158
2098 35 148 147 155 159
2099 35 157 156 155 158
2100 35 157 156 155 159
2101 35 157 156 164 167
2102 35 157 156 164 168
2103 35 166 165 164 167
2104 35 166 165 164 168
2105 35 166 165 173 176
2106 35 166 165 173 177
2107 35 175 174 173 176
2108 35 175 174 173 177
2109 35 175 174 182 185
2110 35 175 174 182 186
2111 35 184 183 182 185
2112 35 184 183 182 186
2113 35 184 183 191 194
2114 35 184 183 191 195
2115 35 193 192 191 194
2116 35 193 192 191 195
2117 35 193 192 200 203
2118 35 193 192 200 204
2119 35 202 201 200 203
2120 35 202 201 200 204
2121 35 202 201 209 212
2122 35 202 201 209 213
2123 35 211 210 209 212
2124 35 211 210 209 213
2125 35 211 210 218 221
2126 35 211 210 218 222
2127 35 220 219 218 221
2128 35 220 219 218 222
2129 35 220 219 227 230
2130 35 220 219 227 231
2131 35 229 228 227 230
2132 35 229 228 227 231
2133 35 229 228 236 239
2134 35 229 228 236 240
2135 35 238 237 236 239
2136 35 238 237 236 240
2137 35 238 237 245 248
2138 35 238 237 245 249
2139 35 247 246 245 248
2140 35 247 246 245 249
2141 35 247 246 254 257
2142 35 247 246 254 258
2143 35 256 255 254 257
2144 35 256 255 254 258
2145 35 256 255 263 266
2146 35 256 255 263 267
2147 35 265 264 263 266
2148 35 265 264 263 267
2149 35 265 264 272 275
2150 35 265 264 272 276
2151 35 274 273 272 275
2152 35 274 273 272 276
2153 35 274 273 281 284
2154 35 274 273 281 285
2155 35 283 282 281 284
2156 35 283 282 281 285
2157 35 283 282 290 293
2158 35 283 282 290 294
2159 35 292 291 290 293
2160 35 292 291 290 294
2161 35 292 291 299 302
2162 35 292 291 299 303
2163 35 301 300 299 302
2164 35 301 300 299 303
2165 35 301 300 308 311
2166 35 301 300 308 312
2167 35 310 309 308 311
2168 35 310 309 308 312
2169 35 310 309 317 320
2170 35 310 309 317 321
2171 35 319 318 317 320
2172 35 319 318 317 321
2173 35 319 318 326 329
2174 35 319 318 326 330
2175 35 328 327 326 329
2176 35 328 327 326 330
2177 35 328 327 335 338
2178 35 328 327 335 339
2179 35 337 336 335 338
2180 35 337 336 335 339
2181 35 337 336 344 347
2182 35 337 336 344 348
2183 35 346 345 344 347
2184 35 346 345 344 348
2185 35 346 345 353 356
2186 35 346 345 353 357
2187 35 355 354 353 356
2188 35 355 354 353 357
2189 35 355 354 362 365
2190 35 355 354 362 366
2191 35 364 363 362 365
2192 35 364 363 362 366
2193 35 364 363 371 374
2194 35 364 363 371 375
2195 35 373 372 371 374
2196 35 373 372 371 375
2197 35 373 372 380 383
2198 35 373 372 380 384
2199 35 382 381 380 383
2200 35 382 381 380 384
2201 35 382 381 389 392
2202 35 382 381 389 393
2203 35 391 390 389 392
2204 35 391 390 389 393
2205 35 391 390 398 401
2206 35 391 390 398 402
2207 35 400 399 398 401
2208 35 400 399 398 402
2209 35 400 399 407 410
2210 35 400 399 407 411
2211 35 409 408 407 410
2212 35 409 408 407 411
2213 35 409 408 416 419
2214 35 409 408 416 420
2215 35 418 417 416 419
2216 35 418 417 416 420
2217 35 418 417 425 428
2218 35 418 417 425 429
2219 35 427 426 425 428
2220 35 427 426 425 429
2221 35 427 426 434 437
2222 35 427 426 434 438
2223 35 436 435 434 437
2224 35 436 435 434 438
2225 35 436 435 443 446
2226 35 436 435 443 447
2227 35 453 454 463 466
2228 35 453 454 463 467
2229 35 455 454 463 466
2230 35 455 454 463 467
2231 35 465 464 463 466
2232 35 465 464 463 467
2233 35 465 464 472 475
2234 35 465 464 472 476
2235 35 474 473 472 475
2236 35 474 473 472 476
2237 35 474 473 481 484
2238 35 474 473 481 485
2239 35 483 482 481 484
2240 35 483 482 481 485
2241 35 483 482 490 493
2242 35 483 482 490 494
2243 35 492 491 490 493
2244 35 492 491 490 494
2245 35 492 491 499 502
2246 35 492 491 499 503
2247 35 501 500 499 502
2248 35 501 500 499 503
2249 35 501 500 508 511
2250 35 501 500 508 512
2251 35 510 509 508 511
2252 35 510 509 508 512
2253 35 510 509 517 520
2254 35 510 509 517 521
2255 35 519 518 517 520
2256 35 519 518 517 521
2257 35 519 518 526 529
2258 35 519 518 526 530
2259 35 528 527 526 529
2260 35 528 527 526 530
2261 35 528 527 535 538
2262 35 528 527 535 539
2263 35 537 536 535 538
2264 35 537 536 535 539
2265 35 537 536 544 547
2266 35 537 536 544 548
2267 35 546 545 544 547
2268 35 546 545 544 548
2269 35 546 545 553 556
2270 35 546 545 553 557
2271 35 555 554 553 556
2272 35 555 554 553 557
2273 35 555 554 562 565
2274 35 555 554 562 566
2275 35 564 563 562 565
2276 35 564 563 562 566
2277 35 564 563 571 574
2278 35 564 563 571 575
2279 35 573 572 571 574
2280 35 573 572 571 575
2281 35 573 572 580 583
2282 35 573 572 580 584
2283 35 582 581 580 583
2284 35 582 581 580 584
2285 35 582 581 589 592
2286 35 582 581 589 593
2287 35 591 590 589 592
2288 35 591 590 589 593
2289 35 591 590 598 601
2290 35 591 590 598 602
2291 35 600 599 598 601
2292 35 600 599 598 602
2293 35 600 599 607 610
2294 35 600 599 607 611
2295 35 609 608 607 610
2296 35 609 608 607 611
2297 35 609 608 616 619
2298 35 609 608 616 620
2299 35 618 617 616 619
2300 35 618 617 616 620
2301 35 618 617 625 628
2302 35 618 617 625 629
2303 35 627 626 625 628
2304 35 627 626 625 629
2305 35 627 626 634 637
2306 35 627 626 634 638
2307 35 636 635 634 637
2308 35 636 635 634 638
2309 35 636 635 643 646
2310 35 636 635 643 647
2311 35 645 644 643 646
2312 35 645 644 643 647
2313 35 645 644 652 655
2314 35 645 644 652 656
2315 35 654 653 652 655
2316 35 654 653 652 656
2317 35 654 653 661 664
2318 35 654 653 661 665
2319 35 663 662 661 664
2320 35 663 662 661 665
2321 35 663 662 670 673
2322 35 663 662 670 674
2323 35 672 671 670 673
2324 35 672 671 670 674
2325 35 672 671 679 682
2326 35 672 671 679 683
2327 35 681 680 679 682
2328 35 681 680 679 683
2329 35 681 680 688 691
2330 35 681 680 688 692
2331 35 690 689 688 691
2332 35 690 689 688 692
2333 35 690 689 697 700
2334 35 690 689 697 701
2335 35 699 698 697 700
2336 35 699 698 697 701
2337 35 699 698 706 709
2338 35 699 698 706 710
2339 35 708 707 706 709
2340 35 708 707 706 710
2341 35 708 707 715 718
2342 35 708 707 715 719
2343 35 717 716 715 718
2344 35 717 716 715 719
2345 35 717 716 724 727
2346 35 717 716 724 728
2347 35 726 725 724 727
2348 35 726 725 724 728
2349 35 726 725 733 736
2350 35 726 725 733 737
2351 35 735 734 733 736
2352 35 735 734 733 737
2353 35 735 734 742 745
2354 35 735 734 742 746
2355 35 744 743 742 745
2356 35 744 743 742 746
2357 35 744 743 751 754
2358 35 744 743 751 755
2359 35 753 752 751 754
2360 35 753 752 751 755
2361 35 753 752 760 763
2362 35 753 752 760 764
2363 35 762 761 760 763
2364 35 762 761 760 764
2365 35 762 761 769 772
2366 35 762 761 769 773
2367 35 771 770 769 772
2368 35 771 770 769 773
2369 35 771 770 778 781
2370 35 771 770 778 782
2371 35 780 779 778 781
2372 35 780 779 778 782
2373 35 780 779 787 790
2374 35 780 779 787 791
2375 35 789 788 787 790
2376 35 789 788 787 791
2377 35 789 788 796 799
2378 35 789 788 796 800
2379 35 798 797 796 799
2380 35 798 797 796 800
2381 35 798 797 805 808
2382 35 798 797 805 809
2383 35 807 806 805 808
2384 35 807 806 805 809
2385 35 807 806 814 817
2386 35 807 806 814 818
2387 35 816 815 814 817
2388 35 816 815 814 818
2389 35 816 815 823 826
2390 35 816 815 823 827
2391 35 825 824 823 826
2392 35 825 824 823 827
2393 35 825 824 832 835
2394 35 825 824 832 836
2395 35 834 833 832 835
2396 35 834 833 832 836
2397 35 834 833 841 844
2398 35 834 833 841 845
2399 35 843 842 841 844
2400 35 843 842 841 845
2401 35 843 842 850 853
2402 35 843 842 850 854
2403 35 852 851 850 853
2404 35 852 851 850 854
2405 35 852 851 859 862
2406 35 852 851 859 863
2407 35 861 860 859 862
2408 35 861 860 859 863
2409 35 861 860 868 871
2410 35 861 860 868 872
2411 35 870 869 868 871
2412 35 870 869 868 872
2413 35 870 869 877 880
2414 35 870 869 877 881
2415 35 879 878 877 880
2416 35 879 878 877 881
2417 35 879 878 886 889
2418 35 879 878 886 890
2419 35 888 887 886 889
2420 35 888 887 886 890
2421 35 888 887 895 898
2422 35 888 887 895 899
2423 35 905 906 915 918
2424 35 905 906 915 919
2425 35 907 906 915 918
2426 35 907 906 915 919
2427 35 917 916 915 918
2428 35 917 916 915 919
2429 35 917 916 924 927
2430 35 917 916 924 928
2431 35 926 925 924 927
2432 35 926 925 924 928
2433 35 926 925 933 936
2434 35 926 925 933 937
2435 35 935 934 933 936
2436 35 935 934 933 937
2437 35 935 934 942 945
2438 35 935 934 942 946
2439 35 944 943 942 945
2440 35 944 943 942 946
2441 35 944 943 951 954
2442 35 944 943 951 955
2443 35 953 952 951 954
2444 35 953 952 951 955
2445 35 953 952 960 963
2446 35 953 952 960 964
2447 35 962 961 960 963
2448 35 962 961 960 964
2449 35 962 961 969 972
2450 35 962 961 969 973
2451 35 971 970 969 972
2452 35 971 970 969 973
2453 35 971 970 978 981
2454 35 971 970 978 982
2455 35 980 979 978 981
2456 35 980 979 978 982
2457 35 980 979 987 990
2458 35 980 979 987 991
2459 35 989 988 987 990
2460 35 989 988 987 991
2461 35 989 988 996 999
2462 35 989 988 996 1000
2463 35 998 997 996 999
2464 35 998 997 996 1000
2465 35 998 997 1005 1008
2466 35 998 997 1005 1009
2467 35 1007 1006 1005 1008
2468 35 1007 1006 1005 1009
2469 35 1007 1006 1014 1017
2470 35 1007 1006 1014 1018
2471 35 1016 1015 1014 1017
2472 35 1016 1015 1014 1018
2473 35 1016 1015 1023 1026
2474 35 1016 1015 1023 1027
2475 35 1025 1024 1023 1026
2476 35 1025 1024 1023 1027
2477 35 1025 1024 1032 1035
2478 35 1025 1024 1032 1036
2479 35 1034 1033 1032 1035
2480 35 1034 1033 1032 1036
2481 35 1034 1033 1041 1044
2482 35 1034 1033 1041 1045
2483 35 1043 1042 1041 1044
2484 35 1043 1042 1041 1045
2485 35 1043 1042 1050 1053
2486 35 1043 1042 1050 1054
2487 35 1052 1051 1050 1053
2488 35 1052 1051 1050 1054
2489 35 1052 1051 1059 1062
2490 35 1052 1051 1059 1063
2491 35 1061 1060 1059 1062
2492 35 1061 1060 1059 1063
2493 35 1061 1060 1068 1071
2494 35 1061 1060 1068 1072
2495 35 1070 1069 1068 1071
2496 35 1070 1069 1068 1072
2497 35 1070 1069 1077 1080
2498 35 1070 1069 1077 1081
2499 35 1079 1078 1077 1080
2500 35 1079 1078 1077 1081
2501 35 1079 1078 1086 1089
2502 35 1079 1078 1086 1090
2503 35 1088 1087 1086 1089
2504 35 1088 1087 1086 1090
2505 35 1088 1087 1095 1098
2506 35 1088 1087 1095 1099
2507 35 1097 1096 1095 1098
2508 35 1097 1096 1095 1099
2509 35 1097 1096 1104 1107
2510 35 1097 1096 1104 1108
2511 35 1106 1105 1104 1107
2512 35 1106 1105 1104 1108
2513 35 1106 1105 1113 1116
2514 35 1106 1105 1113 1117
2515 35 1115 1114 1113 1116
2516 35 1115 1114 1113 1117
2517 35 1115 1114 1122 1125
2518 35 1115 1114 1122 1126
2519 35 1124 1123 1122 1125
2520 35 1124 1123 1122 1126
2521 35 1124 1123 1131 1134
2522 35 1124 1123 1131 1135
2523 35 1133 1132 1131 1134
2524 35 1133 1132 1131 1135
2525 35 1133 1132 1140 1143
2526 35 1133 1132 1140 1144
2527 35 1142 1141 1140 1143
2528 35 1142 1141 1140 1144
2529 35 1142 1141 1149 1152
2530 35 1142 1141 1149 1153
2531 35 1151 1150 1149 1152
2532 35 1151 1150 1149 1153
2533 35 1151 1150 1158 1161
2534 35 1151 1150 1158 1162
2535 35 1160 1159 1158 1161
2536 35 1160 1159 1158 1162
2537 35 1160 1159 1167 1170
2538 35 1160 1159 1167 1171
2539 35 1169 1168 1167 1170
2540 35 1169 1168 1167 1171
2541 35 1169 1168 1176 1179
2542 35 1169 1168 1176 1180
2543 35 1178 1177 1176 1179
2544 35 1178 1177 1176 1180
2545 35 1178 1177 1185 1188
2546 35 1178 1177 1185 1189
2547 35 1187 1186 1185 1188
2548 35 1187 1186 1185 1189
2549 35 1187 1186 1194 1197
2550 35 1187 1186 1194 1198
2551 35 1196 1195 1194 1197
2552 35 1196 1195 1194 1198
2553 35 1196 1195 1203 1206
2554 35 1196 1195 1203 1207
2555 35 1205 1204 1203 1206
2556 35 1205 1204 1203 1207
2557 35 1205 1204 1212 1215
2558 35 1205 1204 1212 1216
2559 35 1214 1213 1212 1215
2560 35 1214 1213 1212 1216
2561 35 1214 1213 1221 1224
2562 35 1214 1213 1221 1225
2563 35 1223 1222 1221 1224
2564 35 1223 1222 1221 1225
2565 35 1223 1222 1230 1233
2566 35 1223 1222 1230 1234
2567 35 1232 1231 1230 1233
2568 35 1232 1231 1230 1234
2569 35 1232 1231 1239 1242
2570 35 1232 1231 1239 1243
2571 35 1241 1240 1239 1242
2572 35 1241 1240 1239 1243
2573 35 1241 1240 1248 1251
2574 35 1241 1240 1248 1252
2575 35 1250 1249 1248 1251
2576 35 1250 1249 1248 1252
2577 35 1250 1249 1257 1260
2578 35 1250 1249 1257 1261
2579 35 1259 1258 1257 1260
2580 35 1259 1258 1257 1261
2581 35 1259 1258 1266 1269
2582 35 1259 1258 1266 1270
2583 35 1268 1267 1266 1269
2584 35 1268 1267 1266 1270
2585 35 1268 1267 1275 1278
2586 35 1268 1267 1275 1279
2587 35 1277 1276 1275 1278
2588 35 1277 1276 1275 1279
2589 35 1277 1276 1284 1287
2590 35 1277 1276 1284 1288
2591 35 1286 1285 1284 1287
2592 35 1286 1285 1284 1288
2593 35 1286 1285 1293 1296
2594 35 1286 1285 1293 1297
2595 35 1295 1294 1293 1296
2596 35 1295 1294 1293 1297
2597 35 1295 1294 1302 1305
2598 35 1295 1294 1302 1306
2599 35 1304 1303 1302 1305
2600 35 1304 1303 1302 1306
2601 35 1304 1303 1311 1314
2602 35 1304 1303 1311 1315
2603 35 1313 1312 1311 1314
2604 35 1313 1312 1311 1315
2605 35 1313 1312 1320 1323
2606 35 1313 1312 1320 1324
2607 35 1322 1321 1320 1323
2608 35 1322 1321 1320 1324
2609 35 1322 1321 1329 1332
2610 35 1322 1321 1329 1333
2611 35 1331 1330 1329 1332
2612 35 1331 1330 1329 1333
2613 35 1331 1330 1338 1341
2614 35 1331 1330 1338 1342
2615 35 1340 1339 1338 1341
2616 35 1340 1339 1338 1342
2617 35 1340 1339 1347 1350
2618 35 1340 1339 1347 1351
2619 35 1357 1358 1367 1370
2620 35 1357 1358 1367 1371
2621 35 1359 1358 1367 1370
2622 35 1359 1358 1367 1371
2623 35 1369 1368 1367 1370
2624 35 1369 1368 1367 1371
2625 35 1369 1368 1376 1379
2626 35 1369 1368 1376 1380
2627 35 1378 1377 1376 1379
2628 35 1378 1377 1376 1380
2629 35 1378 1377 1385 1388
2630 35 1378 1377 1385 1389
2631 35 1387 1386 1385 1388
2632 35 1387 1386 1385 1389
2633 35 1387 1386 1394 1397
2634 35 1387 1386 1394 1398
2635 35 1396 1395 1394 1397
2636 35 1396 1395 1394 1398
2637 35 1396 1395 1403 1406
2638 35 1396 1395 1403 1407
2639 35 1405 1404 1403 1406
2640 35 1405 1404 1403 1407
2641 35 1405 1404 1412 1415
2642 35 1405 1404 1412 1416
2643 35 1414 1413 1412 1415
2644 35 1414 1413 1412 1416
2645 35 1414 1413 1421 1424
2646 35 1414 1413 1421 1425
2647 35 1423 1422 1421 1424
2648 35 1423 1422 1421 1425
2649 35 1423 1422 1430 1433
2650 35 1423 1422 1430 1434
2651 35 1432 1431 1430 1433
2652 35 1432 1431 1430 1434
2653 35 1432 1431 1439 1442
2654 35 1432 1431 1439 1443
2655 35 1441 1440 1439 1442
2656 35 1441 1440 1439 1443
2657 35 1441 1440 1448 1451
2658 35 1441 1440 1448 1452
2659 35 1450 1449 1448 1451
2660 35 1450 1449 1448 1452
2661 35 1450 1449 1457 1460
2662 35 1450 1449 1457 1461
2663 35 1459 1458 1457 1460
2664 35 1459 1458 1457 1461
2665 35 1459 1458 1466 1469
2666 35 1459 1458 1466 1470
2667 35 1468 1467 1466 1469
2668 35 1468 1467 1466 1470
2669 35 1468 1467 1475 1478
2670 35 1468 1467 1475 1479
2671 35 1477 1476 1475 1478
2672 35 1477 1476 1475 1479
2673 35 1477 1476 1484 1487
2674 35 1477 1476 1484 1488
2675 35 1486 1485 1484 1487
2676 35 1486 1485 1484 1488
2677 35 1486 1485 1493 1496
2678 35 1486 1485 1493 1497
2679 35 1495 1494 1493 1496
2680 35 1495 1494 1493 1497
2681 35 1495 1494 1502 1505
2682 35 1495 1494 1502 1506
2683 35 1504 1503 1502 1505
2684 35 1504 1503 1502 1506
2685 35 1504 1503 1511 1514
2686 35 1504 1503 1511 1515
2687 35 1513 1512 1511 1514
2688 35 1513 1512 1511 1515
2689 35 1513 1512 1520 1523
2690 35 1513 1512 1520 1524
2691 35 1522 1521 1520 1523
2692 35 1522 1521 1520 1524
2693 35 1522 1521 1529 1532
2694 35 1522 1521 1529 1533
2695 35 1531 1530 1529 1532
2696 35 1531 1530 1529 1533
2697 35 1531 1530 1538 1541
2698 35 1531 1530 1538 1542
2699 35 1540 1539 1538 1541
2700 35 1540 1539 1538 1542
2701 35 1540 1539 1547 1550
2702 35 1540 1539 1547 1551
2703 35 1549 1548 1547 1550
2704 35 1549 1548 1547 1551
2705 35 1549 1548 1556 1559
2706 35 1549 1548 1556 1560
2707 35 1558 1557 1556 1559
2708 35 1558 1557 1556 1560
2709 35 1558 1557 1565 1568
2710 35 1558 1557 1565 1569
2711 35 1567 1566 1565 1568
2712 35 1567 1566 1565 1569
2713 35 1567 1566 1574 1577
2714 35 1567 1566 1574 1578
2715 35 1576 1575 1574 1577
2716 35 1576 1575 1574 1578
2717 35 1576 1575 1583 1586
2718 35 1576 1575 1583 1587
2719 35 1585 1584 1583 1586
2720 35 1585 1584 1583 1587
2721 35 1585 1584 1592 1595
2722 35 1585 1584 1592 1596
2723 35 1594 1593 1592 1595
2724 35 1594 1593 1592 1596
2725 35 1594 1593 1601 1604
2726 35 1594 1593 1601 1605
2727 35 1603 1602 1601 1604
2728 35 1603 1602 1601 1605
2729 35 1603 1602 1610 1613
2730 35 1603 1602 1610 1614
2731 35 1612 1611 1610 1613
2732 35 1612 1611 1610 1614
2733 35 1612 1611 1619 1622
2734 35 1612 1611 1619 1623
2735 35 1621 1620 1619 1622
2736 35 1621 1620 1619 1623
2737 35 1621 1620 1628 1631
2738 35 1621 1620 1628 1632
2739 35 1630 1629 1628 1631
2740 35 1630 1629 1628 1632
2741 35 1630 1629 1637 1640
2742 35 1630 1629 1637 1641
2743 35 1639 1638 1637 1640
2744 35 1639 1638 1637 1641
2745 35 1639 1638 1646 1649
2746 35 1639 1638 1646 1650
2747 35 1648 1647 1646 1649
2748 35 1648 1647 1646 1650
2749 35 1648 1647 1655 1658
2750 35 1648 1647 1655 1659
2751 35 1657 1656 1655 1658
2752 35 1657 1656 1655 1659
2753 35 1657 1656 1664 1667
2754 35 1657 1656 1664 1668
2755 35 1666 1665 1664 1667
2756 35 1666 1665 1664 1668
2757 35 1666 1665 1673 1676
2758 35 1666 1665 1673 1677
2759 35 1675 1674 1673 1676
2760 35 1675 1674 1673 1677
2761 35 1675 1674 1682 1685
2762 35 1675 1674 1682 1686
2763 35 1684 1683 1682 1685
2764 35 1684 1683 1682 1686
2765 35 1684 1683 1691 1694
2766 35 1684 1683 1691 1695
2767 35 1693 1692 1691 1694
2768 35 1693 1692 1691 1695
2769 35 1693 1692 1700 1703
2770 35 1693 1692 1700 1704
2771 35 1702 1701 1700 1703
2772 35 1702 1701 1700 1704
2773 35 1702 1701 1709 1712
2774 35 1702 1701 1709 1713
2775 35 1711 1710 1709 1712
2776 35 1711 1710 1709 1713
2777 35 1711 1710 1718 1721
2778 35 1711 1710 1718 1722
2779 35 1720 1719 1718 1721
2780 35 1720 1719 1718 1722
2781 35 1720 1719 1727 1730
2782 35 1720 1719 1727 1731
2783 35 1729 1728 1727 1730
2784 35 1729 1728 1727 1731
2785 35 1729 1728 1736 1739
2786 35 1729 1728 1736 1740
2787 35 1738 1737 1736 1739
2788 35 1738 1737 1736 1740
2789 35 1738 1737 1745 1748
2790 35 1738 1737 1745 1749
2791 35 1747 1746 1745 1748
2792 35 1747 1746 1745 1749
2793 35 1747 1746 1754 1757
2794 35 1747 1746 1754 1758
2795 35 1756 1755 1754 1757
2796 35 1756 1755 1754 1758
2797 35 1756 1755 1763 1766
2798 35 1756 1755 1763 1767
2799 35 1765 1764 1763 1766
2800 35 1765 1764 1763 1767
2801 35 1765 1764 1772 1775
2802 35 1765 1764 1772 1776
2803 35 1774 1773 1772 1775
2804 35 1774 1773 1772 1776
2805 35 1774 1773 1781 1784
2806 35 1774 1773 1781 1785
2807 35 1783 1782 1781 1784
2808 35 1783 1782 1781 1785
2809 35 1783 1782 1790 1793
2810 35 1783 1782 1790 1794
2811 35 1792 1791 1790 1793
2812 35 1792 1791 1790 1794
2813 35 1792 1791 1799 1802
2814 35 1792 1791 1799 1803
2815 35 1809 1810 1819 1822
2816 35 1809 1810 1819 1823
2817 35 1811 1810 1819 1822
2818 35 1811 1810 1819 1823
2819 35 1821 1820 1819 1822
2820 35 1821 1820 1819 1823
2821 35 1821 1820 1828 1831
2822 35 1821 1820 1828 1832
2823 35 1830 1829 1828 1831
2824 35 1830 1829 1828 1832
2825 35 1830 1829 1837 1840
2826 35 1830 1829 1837 1841
2827 35 1839 1838 1837 1840
2828 35 1839 1838 1837 1841
2829 35 1839 1838 1846 1849
2830 35 1839 1838 1846 1850
2831 35 1848 1847 1846 1849
2832 35 1848 1847 1846 1850
2833 35 1848 1847 1855 1858
2834 35 1848 1847 1855 1859
2835 35 1857 1856 1855 1858
2836 35 1857 1856 1855 1859
2837 35 1857 1856 1864 1867
2838 35 1857 1856 1864 1868
2839 35 1866 1865 1864 1867
2840 35 1866 1865 1864 1868
2841 35 1866 1865 1873 1876
2842 35 1866 1865 1873 1877
2843 35 1875 1874 1873 1876
2844 35 1875 1874 1873 1877
2845 35 1875 1874 1882 1885
2846 35 1875 1874 1882 1886
2847 35 1884 1883 1882 1885
2848 35 1884 1883 1882 1886
2849 35 1884 1883 1891 1894
2850 35 1884 1883 1891 1895
2851 35 1893 1892 1891 1894
2852 35 1893 1892 1891 1895
2853 35 1893 1892 1900 1903
2854 35 1893 1892 1900 1904
2855 35 1902 1901 1900 1903
2856 35 1902 1901 1900 1904
2857 35 1902 1901 1909 1912
2858 35 1902 1901 1909 1913
2859 35 1911 1910 1909 1912
2860 35 1911 1910 1909 1913
2861 35 1911 1910 1918 1921
2862 35 1911 1910 1918 1922
2863 35 1920 1919 1918 1921
2864 35 1920 1919 1918 1922
2865 35 1920 1919 1927 1930
2866 35 1920 1919 1927 1931
2867 35 1929 1928 1927 1930
2868 35 1929 1928 1927 1931
2869 35 1929 1928 1936 1939
2870 35 1929 1928 1936 1940
2871 35 1938 1937 1936 1939
2872 35 1938 1937 1936 1940
2873 35 1938 1937 1945 1948
2874 35 1938 1937 1945 1949
2875 35 1947 1946 1945 1948
2876 35 1947 1946 1945 1949
2877 35 1947 1946 1954 1957
2878 35 1947 1946 1954 1958
2879 35 1956 1955 1954 1957
2880 35 1956 1955 1954 1958
2881 35 1956 1955 1963 1966
2882 35 1956 1955 1963 1967
2883 35 1965 1964 1963 1966
2884 35 1965 1964 1963 1967
2885 35 1965 1964 1972 1975
2886 35 1965 1964 1972 1976
2887 35 1974 1973 1972 1975
2888 35 1974 1973 1972 1976
2889 35 1974 1973 1981 1984
2890 35 1974 1973 1981 1985
2891 35 1983 1982 1981 1984
2892 35 1983 1982 1981 1985
2893 35 1983 1982 1990 1993
2894 35 1983 1982 1990 1994
2895 35 1992 1991 1990 1993
2896 35 1992 1991 1990 1994
2897 35 1992 1991 1999 2002
2898 35 1992 1991 1999 2003
2899 35 2001 2000 1999 2002
2900 35 2001 2000 1999 2003
2901 35 2001 2000 2008 2011
2902 35 2001 2000 2008 2012
2903 35 2010 2009 2008 2011
2904 35 2010 2009 2008 2012
2905 35 2010 2009 2017 2020
2906 35 2010 2009 2017 2021
2907 35 2019 2018 2017 2020
2908 35 2019 2018 2017 2021
2909 35 2019 2018 2026 2029
2910 35 2019 2018 2026 2030
2911 35 2028 2027 2026 2029
2912 35 2028 2027 2026 2030
2913 35 2028 2027 2035 2038
2914 35 2028 2027 2035 2039
2915 35 2037 2036 2035 2038
2916 35 2037 2036 2035 2039
2917 35 2037 2036 2044 2047
2918 35 2037 2036 2044 2048
2919 35 2046 2045 2044 2047
2920 35 2046 2045 2044 2048
2921 35 2046 2045 2053 2056
2922 35 2046 2045 2053 2057
2923 35 2055 2054 2053 2056
2924 35 2055 2054 2053 2057
2925 35 2055 2054 2062 2065
2926 35 2055 2054 2062 2066
2927 35 2064 2063 2062 2065
2928 35 2064 2063 2062 2066
2929 35 2064 2063 2071 2074
2930 35 2064 2063 2071 2075
2931 35 2073 2072 2071 2074
2932 35 2073 2072 2071 2075
2933 35 2073 2072 2080 2083
2934 35 2073 2072 2080 2084
2935 35 2082 2081 2080 2083
2936 35 2082 2081 2080 2084
2937 35 2082 2081 2089 2092
2938 35 2082 2081 2089 2093
2939 35 2091 2090 2089 2092
2940 35 2091 2090 2089 2093
2941 35 2091 2090 2098 2101
2942 35 2091 2090 2098 2102
2943 35 2100 2099 2098 2101
2944 35 2100 2099 2098 2102
2945 35 2100 2099 2107 2110
2946 35 2100 2099 2107 2111
2947 35 2109 2108 2107 2110
2948 35 2109 2108 2107 2111
2949 35 2109 2108 2116 2119
2950 35 2109 2108 2116 2120
2951 35 2118 2117 2116 2119
2952 35 2118 2117 2116 2120
2953 35 2118 2117 2125 2128
2954 35 2118 2117 2125 2129
2955 35 2127 2126 2125 2128
2956 35 2127 2126 2125 2129
2957 35 2127 2126 2134 2137
2958 35 2127 2126 2134 2138
2959 35 2136 2135 2134 2137
2960 35 2136 2135 2134 2138
2961 35 2136 2135 2143 2146
2962 35 2136 2135 2143 2147
2963 35 2145 2144 2143 2146
2964 35 2145 2144 2143 2147
2965 35 2145 2144 2152 2155
2966 35 2145 2144 2152 2156
2967 35 2154 2153 2152 2155
2968 35 2154 2153 2152 2156
2969 35 2154 2153 2161 2164
2970 35 2154 2153 2161 2165
2971 35 2163 2162 2161 2164
2972 35 2163 2162 2161 2165
2973 35 2163 2162 2170 2173
2974 35 2163 2162 2170 2174
2975 35 2172 2171 2170 2173
2976 35 2172 2171 2170 2174
2977 35 2172 2171 2179 2182
2978 35 2172 2171 2179 2183
2979 35 2181 2180 2179 2182
2980 35 2181 2180 2179 2183
2981 35 2181 2180 2188 2191
2982 35 2181 2180 2188 2192
2983 35 2190 2189 2188 2191
2984 35 2190 2189 2188 2192
2985 35 2190 2189 2197 2200
2986 35 2190 2189 2197 2201
2987 35 2199 2198 2197 2200
2988 35 2199 2198 2197 2201
2989 35 2199 2198 2206 2209
2990 35 2199 2198 2206 2210
2991 35 2208 2207 2206 2209
2992 35 2208 2207 2206 2210
2993 35 2208 2207 2215 2218
2994 35 2208 2207 2215 2219
2995 35 2217 2216 2215 2218
2996 35 2217 2216 2215 2219
2997 35 2217 2216 2224 2227
2998 35 2217 2216 2224 2228
2999 35 2226 2225 2224 2227
3000 35 2226 2225 2224 2228
3001 35 2226 2225 2233 2236
3002 35 2226 2225 2233 2237
3003 35 2235 2234 2233 2236
3004 35 2235 2234 2233 2237
3005 35 2235 2234 2242 2245
3006 35 2235 2234 2242 2246
3007 35 2244 2243 2242 2245
3008 35 2244 2243 2242 2246
3009 35 2244 2243 2251 2254
3010 35 2244 2243 2251 2255
3011 35 2261 2262 2271 2274
3012 35 2261 2262 2271 2275
3013 35 2263 2262 2271 2274
3014 35 2263 2262 2271 2275
3015 35 2273 2272 2271 2274
3016 35 2273 2272 2271 2275
3017 35 2273 2272 2280 2283
3018 35 2273 2272 2280 2284
3019 35 2282 2281 2280 2283
3020 35 2282 2281 2280 2284
3021 35 2282 2281 2289 2292
3022 35 2282 2281 2289 2293
3023 35 2291 2290 2289 2292
3024 35 2291 2290 2289 2293
3025 35 2291 2290 2298 2301
3026 35 2291 2290 2298 2302
3027 35 2300 2299 2298 2301
3028 35 2300 2299 2298 2302
3029 35 2300 2299 2307 2310
3030 35 2300 2299 2307 2311
3031 35 2309 2308 2307 2310
3032 35 2309 2308 2307 2311
3033 35 2309 2308 2316 2319
3034 35 2309 2308 2316 2320
3035 35 2318 2317 2316 2319
3036 35 2318 2317 2316 2320
3037 35 2318 2317 2325 2328
3038 35 2318 2317 2325 2329
3039 35 2327 2326 2325 2328
3040 35 2327 2326 2325 2329
3041 35 2327 2326 2334 2337
3042 35 2327 2326 2334 2338
3043 35 2336 2335 2334 2337
3044 35 2336 2335 2334 2338
3045 35 2336 2335 2343 2346
3046 35 2336 2335 2343 2347
3047 35 2345 2344 2343 2346
3048 35 2345 2344 2343 2347
3049 35 2345 2344 2352 2355
3050 35 2345 2344 2352 2356
3051 35 2354 2353 2352 2355
3052 35 2354 2353 2352 2356
3053 35 2354 2353 2361 2364
3054 35 2354 2353 2361 2365
3055 35 2363 2362 2361 2364
3056 35 2363 2362 2361 2365
3057 35 2363 2362 2370 2373
3058 35 2363 2362 2370 2374
3059 35 2372 2371 2370 2373
3060 35 2372 2371 2370 2374
3061 35 2372 2371 2379 2382
3062 35 2372 2371 2379 2383
3063 35 2381 2380 2379 2382
3064 35 2381 2380 2379 2383
3065 35 2381 2380 2388 2391
3066 35 2381 2380 2388 2392
3067 35 2390 2389 2388 2391
3068 35 2390 2389 2388 2392
3069 35 2390 2389 2397 2400
3070 35 2390 2389 2397 2401
3071 35 2399 2398 2397 2400
3072 35 2399 2398 2397 2401
3073 35 2399 2398 2406 2409
3074 35 2399 2398 2406 2410
3075 35 2408 2407 2406 2409
3076 35 2408 2407 2406 2410
3077 35 2408 2407 2415 2418
3078 35 2408 2407 2415 2419
3079 35 2417 2416 2415 2418
3080 35 2417 2416 2415 2419
3081 35 2417 2416 2424 2427
3082 35 2417 2416 2424 2428
3083 35 2426 2425 2424 2427
3084 35 2426 2425 2424 2428
3085 35 2426 2425 2433 2436
3086 35 2426 2425 2433 2437
3087 35 2435 2434 2433 2436
3088 35 2435 2434 2433 2437
3089 35 2435 2434 2442 2445
3090 35 2435 2434 2442 2446
3091 35 2444 2443 2442 2445
3092 35 2444 2443 2442 2446
3093 35 2444 2443 2451 2454
3094 35 2444 2443 2451 2455
3095 35 2453 2452 2451 2454
3096 35 2453 2452 2451 2455
3097 35 2453 2452 2460 2463
3098 35 2453 2452 2460 2464
3099 35 2462 2461 2460 2463
3100 35 2462 2461 2460 2464
3101 35 2462 2461 2469 2472
3102 35 2462 2461 2469 2473
3103 35 2471 2470 2469 2472
3104 35 2471 2470 2469 2473
3105 35 2471 2470 2478 2481
3106 35 2471 2470 2478 2482
3107 35 2480 2479 2478 2481
3108 35 2480 2479 2478 2482
3109 35 2480 2479 2487 2490
3110 35 2480 2479 2487 2491
3111 35 2489 2488 2487 2490
3112 35 2489 2488 2487 2491
3113 35 2489 2488 2496 2499
3114 35 2489 2488 2496 2500
3115 35 2498 2497 2496 2499
3116 35 2498 2497 2496 2500
3117 35 2498 2497 2505 2508
3118 35 2498 2497 2505 2509
3119 35 2507 2506 2505 2508
3120 35 2507 2506 2505 2509
3121 35 2507 2506 2514 2517
3122 35 2507 2506 2514 2518
3123 35 2516 2515 2514 2517
3124 35 2516 2515 2514 2518
3125 35 2516 2515 2523 2526
3126 35 2516 2515 2523 2527
3127 35 2525 2524 2523 2526
3128 35 2525 2524 2523 2527
3129 35 2525 2524 2532 2535
3130 35 2525 2524 2532 2536
3131 35 2534 2533 2532 2535
3132 35 2534 2533 2532 2536
3133 35 2534 2533 2541 2544
3134 35 2534 2533 2541 2545
3135 35 2543 2542 2541 2544
3136 35 2543 2542 2541 2545
3137 35 2543 2542 2550 2553
3138 35 2543 2542 2550 2554
3139 35 2552 2551 2550 2553
3140 35 2552 2551 2550 2554
3141 35 2552 2551 2559 2562
3142 35 2552 2551 2559 2563
3143 35 2561 2560 2559 2562
3144 35 2561 2560 2559 2563
3145 35 2561 2560 2568 2571
3146 35 2561 2560 2568 2572
3147 35 2570 2569 2568 2571
3148 35 2570 2569 2568 2572
3149 35 2570 2569 2577 2580
3150 35 2570 2569 2577 2581
3151 35 2579 2578 2577 2580
3152 35 2579 2578 2577 2581
3153 35 2579 2578 2586 2589
3154 35 2579 2578 2586 2590
3155 35 2588 2587 2586 2589
3156 35 2588 2587 2586 2590
3157 35 2588 2587 2595 2598
3158 35 2588 2587 2595 2599
3159 35 2597 2596 2595 2598
3160 35 2597 2596 2595 2599
3161 35 2597 2596 2604 2607
3162 35 2597 2596 2604 2608
3163 35 2606 2605 2604 2607
3164 35 2606 2605 2604 2608
3165 35 2606 2605 2613 2616
3166 35 2606 2605 2613 2617
3167 35 2615 2614 2613 2616
3168 35 2615 2614 2613 2617
3169 35 2615 2614 2622 2625
3170 35 2615 2614 2622 2626
3171 35 2624 2623 2622 2625
3172 35 2624 2623 2622 2626
3173 35 2624 2623 2631 2634
3174 35 2624 2623 2631 2635
3175 35 2633 2632 2631 2634
3176 35 2633 2632 2631 2635
3177 35 2633 2632 2640 2643
3178 35 2633 2632 2640 2644
3179 35 2642 2641 2640 2643
3180 35 2642 2641 2640 2644
3181 35 2642 2641 2649 2652
3182 35 2642 2641 2649 2653
3183 35 2651 2650 2649 2652
3184 35 2651 2650 2649 2653
3185 35 2651 2650 2658 2661
3186 35 2651 2650 2658 2662
3187 35 2660 2659 2658 2661
3188 35 2660 2659 2658 2662
3189 35 2660 2659 2667 2670
3190 35 2660 2659 2667 2671
3191 35 2669 2668 2667 2670
3192 35 2669 2668 2667 2671
3193 35 2669 2668 2676 2679
3194 35 2669 2668 2676 2680
3195 35 2678 2677 2676 2679
3196 35 2678 2677 2676 2680
3197 35 2678 2677 2685 2688
3198 35 2678 2677 2685 2689
3199 35 2687 2686 2685 2688
3200 35 2687 2686 2685 2689
3201 35 2687 2686 2694 2697
3202 35 2687 2686 2694 2698
3203 35 2696 2695 2694 2697
3204 35 2696 2695 2694 2698
3205 35 2696 2695 2703 2706
3206 35 2696 2695 2703 2707
3207 35 2713 2714 2723 2726
3208 35 2713 2714 2723 2727
3209 35 2715 2714 2723 2726
3210 35 2715 2714 2723 2727
3211 35 2725 2724 2723 2726
3212 35 2725 2724 2723 2727
3213 35 2725 2724 2732 2735
3214 35 2725 2724 2732 2736
3215 35 2734 2733 2732 2735
3216 35 2734 2733 2732 2736
3217 35 2734 2733 2741 2744
3218 35 2734 2733 2741 2745
3219 35 2743 2742 2741 2744
3220 35 2743 2742 2741 2745
3221 35 2743 2742 2750 2753
3222 35 2743 2742 2750 2754
3223 35 2752 2751 2750 2753
3224 35 2752 2751 2750 2754
3225 35 2752 2751 2759 2762
3226 35 2752 2751 2759 2763
3227 35 2761 2760 2759 2762
3228 35 2761 2760 2759 2763
3229 35 2761 2760 2768 2771
3230 35 2761 2760 2768 2772
3231 35 2770 2769 2768 2771
3232 35 2770 2769 2768 2772
3233 35 2770 2769 2777 2780
3234 35 2770 2769 2777 2781
3235 35 2779 2778 2777 2780
3236 35 2779 2778 2777 2781
3237 35 2779 2778 2786 2789
3238 35 2779 2778 2786 2790
3239 35 2788 2787 2786 2789
3240 35 2788 2787 2786 2790
3241 35 2788 2787 2795 2798
3242 35 2788 2787 2795 2799
3243 35 2797 2796 2795 2798
3244 35 2797 2796 2795 2799
3245 35 2797 2796 2804 2807
3246 35 2797 2796 2804 2808
3247 35 2806 2805 2804 2807
3248 35 2806 2805 2804 2808
3249 35 2806 2805 2813 2816
3250 35 2806 2805 2813 2817
3251 35 2815 2814 2813 2816
3252 35 2815 2814 2813 2817
3253 35 2815 2814 2822 2825
3254 35 2815 2814 2822 2826
3255 35 2824 2823 2822 2825
3256 35 2824 2823 2822 2826
3257 35 2824 2823 2831 2834
3258 35 2824 2823 2831 2835
3259 35 2833 2832 2831 2834
3260 35 2833 2832 2831 2835
3261 35 2833 2832 2840 2843
3262 35 2833 2832 2840 2844
3263 35 2842 2841 2840 2843
3264 35 2842 2841 2840 2844
3265 35 2842 2841 2849 2852
3266 35 2842 2841 2849 2853
3267 35 2851 2850 2849 2852
3268 35 2851 2850 2849 2853
3269 35 2851 2850 2858 2861
3270 35 2851 2850 2858 2862
3271 35 2860 2859 2858 2861
3272 35 2860 2859 2858 2862
3273 35 2860 2859 2867 2870
3274 35 2860 2859 2867 2871
3275 35 2869 2868 2867 2870
3276 35 2869 2868 2867 2871
3277 35 2869 2868 2876 2879
3278 35 2869 2868 2876 2880
3279 35 2878 2877 2876 2879
3280 35 2878 2877 2876 2880
3281 35 2878 2877 2885 2888
3282 35 2878 2877 2885 2889
3283 35 2887 2886 2885 2888
3284 35 2887 2886 2885 2889
3285 35 2887 2886 2894 2897
3286 35 2887 2886 2894 2898
3287 35 2896 2895 2894 2897
3288 35 2896 2895 2894 2898
3289 35 2896 2895 2903 2906
3290 35 2896 2895 2903 2907
3291 35 2905 2904 2903 2906
3292 35 2905 2904 2903 2907
3293 35 2905 2904 2912 2915
3294 35 2905 2904 2912 2916
3295 35 2914 2913 2912 2915
3296 35 2914 2913 2912 2916
3297 35 2914 2913 2921 2924
3298 35 2914 2913 2921 2925
3299 35 2923 2922 2921 2924
3300 35 2923 2922 2921 2925
3301 35 2923 2922 2930 2933
3302 35 2923 2922 2930 2934
3303 35 2932 2931 2930 2933
3304 35 2932 2931 2930 2934
3305 35 2932 2931 2939 2942
3306 35 2932 2931 2939 2943
3307 35 2941 2940 2939 2942
3308 35 2941 2940 2939 2943
3309 35 2941 2940 2948 2951
3310 35 2941 2940 2948 2952
3311 35 2950 2949 2948 2951
3312 35 2950 2949 2948 2952
3313 35 2950 2949 2957 2960
3314 35 2950 2949 2957 2961
3315 35 2959 2958 2957 2960
3316 35 2959 2958 2957 2961
3317 35 2959 2958 2966 2969
3318 35 2959 2958 2966 2970
3319 35 2968 2967 2966 2969
3320 35 2968 2967 2966 2970
3321 35 2968 2967 2975 2978
3322 35 2968 2967 2975 2979
3323 35 2977 2976 2975 2978
3324 35 2977 2976 2975 2979
3325 35 2977 2976 2984 2987
3326 35 2977 2976 2984 2988
3327 35 2986 2985 2984 2987
3328 35 2986 2985 2984 2988
3329 35 2986 2985 2993 2996
3330 35 2986 2985 2993 2997
3331 35 2995 2994 2993 2996
3332 35 2995 2994 2993 2997
3333 35 2995 2994 3002 3005
3334 35 2995 2994 3002 3006
3335 35 3004 3003 3002 3005
3336 35 3004 3003 3002 3006
3337 35 3004 3003 3011 3014
3338 35 3004 3003 3011 3015
3339 35 3013 3012 3011 3014
3340 35 3013 3012 3011 3015
3341 35 3013 3012 3020 3023
3342 35 3013 3012 3020 3024
3343 35 3022 3021 3020 3023
3344 35 3022 3021 3020 3024
3345 35 3022 3021 3029 3032
3346 35 3022 3021 3029 3033
3347 35 3031 3030 3029 3032
3348 35 3031 3030 3029 3033
3349 35 3031 3030 3038 3041
3350 35 3031 3030 3038 3042
3351 35 3040 3039 3038 3041
3352 35 3040 3039 3038 3042
3353 35 3040 3039 3047 3050
3354 35 3040 3039 3047 3051
3355 35 3049 3048 3047 3050
3356 35 3049 3048 3047 3051
3357 35 3049 3048 3056 3059
3358 35 3049 3048 3056 3060
3359 35 3058 3057 3056 3059
3360 35 3058 3057 3056 3060
3361 35 3058 3057 3065 3068
3362 35 3058 3057 3065 3069
3363 35 3067 3066 3065 3068
3364 35 3067 3066 3065 3069
3365 35 3067 3066 3074 3077
3366 35 3067 3066 3074 3078
3367 35 3076 3075 3074 3077
3368 35 3076 3075 3074 3078
3369 35 3076 3075 3083 3086
3370 35 3076 3075 3083 3087
3371 35 3085 3084 3083 3086
3372 35 3085 3084 3083 3087
3373 35 3085 3084 3092 3095
3374 35 3085 3084 3092 3096
3375 35 3094 3093 3092 3095
3376 35 3094 3093 3092 3096
3377 35 3094 3093 3101 3104
3378 35 3094 3093 3101 3105
3379 35 3103 3102 3101 3104
3380 35 3103 3102 3101 3105
3381 35 3103 3102 3110 3113
3382 35 3103 3102 3110 3114
3383 35 3112 3111 3110 3113
3384 35 3112 3111 3110 3114
3385 35 3112 3111 3119 3122
3386 35 3112 3111 3119 3123
3387 35 3121 3120 3119 3122
3388 35 3121 3120 3119 3123
3389 35 3121 3120 3128 3131
3390 35 3121 3120 3128 3132
3391 35 3130 3129 3128 3131
3392 35 3130 3129 3128 3132
3393 35 3130 3129 3137 3140
3394 35 3130 3129 3137 3141
3395 35 3139 3138 3137 3140
3396 35 3139 3138 3137 3141
3397 35 3139 3138 3146 3149
3398 35 3139 3138 3146 3150
3399 35 3148 3147 3146 3149
3400 35 3148 3147 3146 3150
3401 35 3148 3147 3155 3158
3402 35 3148 3147 3155 3159
3403 35 3165 3166 3175 3178
3404 35 3165 3166 3175 3179
3405 35 3167 3166 3175 3178
3406 35 3167 3166 3175 3179
3407 35 3177 3176 3175 3178
3408 35 3177 3176 3175 3179
3409 35 3177 3176 3184 3187
3410 35 3177 3176 3184 3188
3411 35 3186 3185 3184 3187
3412 35 3186 3185 3184 3188
3413 35 3186 3185 3193 3196
3414 35 3186 3185 3193 3197
3415 35 3195 3194 3193 3196
3416 35 3195 3194 3193 3197
3417 35 3195 3194 3202 3205
3418 35 3195 3194 3202 3206
3419 35 3204 3203 3202 3205
3420 35 3204 3203 3202 3206
3421 35 3204 3203 3211 3214
3422 35 3204 3203 3211 3215
3423 35 3213 3212 3211 3214
3424 35 3213 3212 3211 3215
3425 35 3213 3212 3220 3223
3426 35 3213 3212 3220 3224
3427 35 3222 3221 3220 3223
3428 35 3222 3221 3220 3224
3429 35 3222 3221 3229 3232
3430 35 3222 3221 3229 3233
3431 35 3231 3230 3229 3232
3432 35 3231 3230 3229 3233
3433 35 3231 3230 3238 3241
3434 35 3231 3230 3238 3242
3435 35 3240 3239 3238 3241
3436 35 3240 3239 3238 3242
3437 35 3240 3239 3247 3250
3438 35 3240 3239 3247 3251
3439 35 3249 3248 3247 3250
3440 35 3249 3248 3247 3251
3441 35 3249 3248 3256 3259
3442 35 3249 3248 3256 3260
3443 35 3258 3257 3256 3259
3444 35 3258 3257 3256 3260
3445 35 3258 3257 3265 3268
3446 35 3258 3257 3265 3269
3447 35 3267 3266 3265 3268
3448 35 3267 3266 3265 3269
3449 35 3267 3266 3274 3277
3450 35 3267 3266 3274 3278
3451 35 3276 3275 3274 3277
3452 35 3276 3275 3274 3278
3453 35 3276 3275 3283 3286
3454 35 3276 3275 3283 3287
3455 35 3285 3284 3283 3286
3456 35 3285 3284 3283 3287
3457 35 3285 3284 3292 3295
3458 35 3285 3284 3292 3296
3459 35 3294 3293 3292 3295
3460 35 3294 3293 3292 3296
3461 35 3294 3293 3301 3304
3462 35 3294 3293 3301 3305
3463 35 3303 3302 3301 3304
3464 35 3303 3302 3301 3305
3465 35 3303 3302 3310 3313
3466 35 3303 3302 3310 3314
3467 35 3312 3311 3310 3313
3468 35 3312 3311 3310 3314
3469 35 3312 3311 3319 3322
3470 35 3312 3311 3319 3323
3471 35 3321 3320 3319 3322
3472 35 3321 3320 3319 3323
3473 35 3321 3320 3328 3331
3474 35 3321 3320 3328 3332
3475 35 3330 3329 3328 3331
3476 35 3330 3329 3328 3332
3477 35 3330 3329 3337 3340
3478 35 3330 3329 3337 3341
3479 35 3339 3338 3337 3340
3480 35 3339 3338 3337 3341
3481 35 3339 3338 3346 3349
3482 35 3339 3338 3346 3350
3483 35 3348 3347 3346 3349
3484 35 3348 3347 3346 3350
3485 35 3348 3347 3355 3358
3486 35 3348 3347 3355 3359
3487 35 3357 3356 3355 3358
3488 35 3357 3356 3355 3359
3489 35 3357 3356 3364 3367
3490 35 3357 3356 3364 3368
3491 35 3366 3365 3364 3367
3492 35 3366 3365 3364 3368
3493 35 3366 3365 3373 3376
3494 35 3366 3365 3373 3377
3495 35 3375 3374 3373 3376
3496 35 3375 3374 3373 3377
3497 35 3375 3374 3382 3385
3498 35 3375 3374 3382 3386
3499 35 3384 3383 3382 3385
3500 35 3384 3383 3382 3386
3501 35 3384 3383 3391 3394
3502 35 3384 3383 3391 3395
3503 35 3393 3392 3391 3394
3504 35 3393 3392 3391 3395
3505 35 3393 3392 3400 3403
3506 35 3393 3392 3400 3404
3507 35 3402 3401 3400 3403
3508 35 3402 3401 3400 3404
3509 35 3402 3401 3409 3412
3510 35 3402 3401 3409 3413
3511 35 3411 3410 3409 3412
3512 35 3411 3410 3409 3413
3513 35 3411 3410 3418 3421
3514 35 3411 3410 3418 3422
3515 35 3420 3419 3418 3421
3516 35 3420 3419 3418 3422
3517 35 3420 3419 3427 3430
3518 35 3420 3419 3427 3431
3519 35 3429 3428 3427 3430
3520 35 3429 3428 3427 3431
3521 35 3429 3428 3436 3439
3522 35 3429 3428 3436 3440
3523 35 3438 3437 3436 3439
3524 35 3438 3437 3436 3440
3525 35 3438 3437 3445 3448
3526 35 3438 3437 3445 3449
3527 35 3447 3446 3445 3448
3528 35 3447 3446 3445 3449
3529 35 3447 3446 3454 3457
3530 35 3447 3446 3454 3458
3531 35 3456 3455 3454 3457
3532 35 3456 3455 3454 3458
3533 35 3456 3455 3463 3466
3534 35 3456 3455 3463 3467
3535 35 3465 3464 3463 3466
3536 35 3465 3464 3463 3467
3537 35 3465 3464 3472 3475
3538 35 3465 3464 3472 3476
3539 35 3474 3473 3472 3475
3540 35 3474 3473 3472 3476
3541 35 3474 3473 3481 3484
3542 35 3474 3473 3481 3485
3543 35 3483 3482 3481 3484
3544 35 3483 3482 3481 3485
3545 35 3483 3482 3490 3493
3546 35 3483 3482 3490 3494
3547 35 3492 3491 3490 3493
3548 35 3492 3491 3490 3494
3549 35 3492 3491 3499 3502
3550 35 3492 3491 3499 3503
3551 35 3501 3500 3499 3502
3552 35 3501 3500 3499 3503
3553 35 3501 3500 3508 3511
3554 35 3501 3500 3508 3512
3555 35 3510 3509 3508 3511
3556 35 3510 3509 3508 3512
3557 35 3510 3509 3517 3520
3558 35 3510 3509 3517 3521
3559 35 3519 3518 3517 3520
3560 35 3519 3518 3517 3521
3561 35 3519 3518 3526 3529
3562 35 3519 3518 3526 3530
3563 35 3528 3527 3526 3529
3564 35 3528 3527 3526 3530
3565 35 3528 3527 3535 3538
3566 35 3528 3527 3535 3539
3567 35 3537 3536 3535 3538
3568 35 3537 3536 3535 3539
3569 35 3537 3536 3544 3547
3570 35 3537 3536 3544 3548
3571 35 3546 3545 3544 3547
3572 35 3546 3545 3544 3548
3573 35 3546 3545 3553 3556
3574 35 3546 3545 3553 3557
3575 35 3555 3554 3553 3556
3576 35 3555 3554 3553 3557
3577 35 3555 3554 3562 3565
3578 35 3555 3554 3562 3566
3579 35 3564 3563 3562 3565
3580 35 3564 3563 3562 3566
3581 35 3564 3563 3571 3574
3582 35 3564 3563 3571 3575
3583 35 3573 3572 3571 3574
3584 35 3573 3572 3571 3575
3585 35 3573 3572 3580 3583
3586 35 3573 3572 3580 3584
3587 35 3582 3581 3580 3583
3588 35 3582 3581 3580 3584
3589 35 3582 3581 3589 3592
3590 35 3582 3581 3589 3593
3591 35 3591 3590 3589 3592
3592 35 3591 3590 3589 3593
3593 35 3591 3590 3598 3601
3594 35 3591 3590 3598 3602
3595 35 3600 3599 3598 3601
3596 35 3600 3599 3598 3602
3597 35 3600 3599 3607 3610
3598 35 3600 3599 3607 3611
3599 35 3617 3618 3627 3630
3600 35 3617 3618 3627 3631
3601 35 3619 3618 3627 3630
3602 35 3619 3618 3627 3631
3603 35 3629 3628 3627 3630
3604 35 3629 3628 3627 3631
3605 35 3629 3628 3636 3639
3606 35 3629 3628 3636 3640
3607 35 3638 3637 3636 3639
3608 35 3638 3637 3636 3640
3609 35 3638 3637 3645 3648
3610 35 3638 3637 3645 3649
3611 35 3647 3646 3645 3648
3612 35 3647 3646 3645 3649
3613 35 3647 3646 3654 3657
3614 35 3647 3646 3654 3658
3615 35 3656 3655 3654 3657
3616 35 3656 3655 3654 3658
3617 35 3656 3655 3663 3666
3618 35 3656 3655 3663 3667
3619 35 3665 3664 3663 3666
3620 35 3665 3664 3663 3667
3621 35 3665 3664 3672 3675
3622 35 3665 3664 3672 3676
3623 35 3674 3673 3672 3675
3624 35 3674 3673 3672 3676
3625 35 3674 3673 3681 3684
3626 35 3674 3673 3681 3685
3627 35 3683 3682 3681 3684
3628 35 3683 3682 3681 3685
3629 35 3683 3682 3690 3693
3630 35 3683 3682 3690 3694
3631 35 3692 3691 3690 3693
3632 35 3692 3691 3690 3694
3633 35 3692 3691 3699 3702
3634 35 3692 3691 3699 3703
3635 35 3701 3700 3699 3702
3636 35 3701 3700 3699 3703
3637 35 3701 3700 3708 3711
3638 35 3701 3700 3708 3712
3639 35 3710 3709 3708 3711
3640 35 3710 3709 3708 3712
3641 35 3710 3709 3717 3720
3642 35 3710 3709 3717 3721
3643 35 3719 3718 3717 3720
3644 35 3719 3718 3717 3721
3645 35 3719 3718 3726 3729
3646 35 3719 3718 3726 3730
3647 35 3728 3727 3726 3729
3648 35 3728 3727 3726 3730
3649 35 3728 3727 3735 3738
3650 35 3728 3727 3735 3739
3651 35 3737 3736 3735 3738
3652 35 3737 3736 3735 3739
3653 35 3737 3736 3744 3747
3654 35 3737 3736 3744 3748
3655 35 3746 3745 3744 3747
3656 35 3746 3745 3744 3748
3657 35 3746 3745 3753 3756
3658 35 3746 3745 3753 3757
3659 35 3755 3754 3753 3756
3660 35 3755 3754 3753 3757
3661 35 3755 3754 3762 3765
3662 35 3755 3754 3762 3766
3663 35 3764 3763 3762 3765
3664 35 3764 3763 3762 3766
3665 35 3764 3763 3771 3774
3666 35 3764 3763 3771 3775
3667 35 3773 3772 3771 3774
3668 35 3773 3772 3771 3775
3669 35 3773 3772 3780 3783
3670 35 3773 3772 3780 3784
3671 35 3782 3781 3780 3783
3672 35 3782 3781 3780 3784
3673 35 3782 3781 3789 3792
3674 35 3782 3781 3789 3793
3675 35 3791 3790 3789 3792
3676 35 3791 3790 3789 3793
3677 35 3791 3790 3798 3801
3678 35 3791 3790 3798 3802
3679 35 3800 3799 3798 3801
3680 35 3800 3799 3798 3802
3681 35 3800 3799 3807 3810
3682 35 3800 3799 3807 3811
3683 35 3809 3808 3807 3810
3684 35 3809 3808 3807 3811
3685 35 3809 3808 3816 3819
3686 35 3809 3808 3816 3820
3687 35 3818 3817 3816 3819
3688 35 3818 3817 3816 3820
3689 35 3818 3817 3825 3828
3690 35 3818 3817 3825 3829
3691 35 3827 3826 3825 3828
3692 35 3827 3826 3825 3829
3693 35 3827 3826 3834 3837
3694 35 3827 3826 3834 3838
3695 35 3836 3835 3834 3837
3696 35 3836 3835 3834 3838
3697 35 3836 3835 3843 3846
3698 35 3836 3835 3843 3847
3699 35 3845 3844 3843 3846
3700 35 3845 3844 3843 3847
3701 35 3845 3844 3852 3855
3702 35 3845 3844 3852 3856
3703 35 3854 3853 3852 3855
3704 35 3854 3853 3852 3856
3705 35 3854 3853 3861 3864
3706 35 3854 3853 3861 3865
3707 35 3863 3862 3861 3864
3708 35 3863 3862 3861 3865
3709 35 3863 3862 3870 3873
3710 35 3863 3862 3870 3874
3711 35 3872 3871 3870 3873
3712 35 3872 3871 3870 3874
3713 35 3872 3871 3879 3882
3714 35 3872 3871 3879 3883
3715 35 3881 3880 3879 3882
3716 35 3881 3880 3879 3883
3717 35 3881 3880 3888 3891
3718 35 3881 3880 3888 3892
3719 35 3890 3889 3888 3891
3720 35 3890 3889 3888 3892
3721 35 3890 3889 3897 3900
3722 35 3890 3889 3897 3901
3723 35 3899 3898 3897 3900
3724 35 3899 3898 3897 3901
3725 35 3899 3898 3906 3909
3726 35 3899 3898 3906 3910
3727 35 3908 3907 3906 3909
3728 35 3908 3907 3906 3910
3729 35 3908 3907 3915 3918
3730 35 3908 3907 3915 3919
3731 35 3917 3916 3915 3918
3732 35 3917 3916 3915 3919
3733 35 3917 3916 3924 3927
3734 35 3917 3916 3924 3928
3735 35 3926 3925 3924 3927
3736 35 3926 3925 3924 3928
3737 35 3926 3925 3933 3936
3738 35 3926 3925 3933 3937
3739 35 3935 3934 3933 3936
3740 35 3935 3934 3933 3937
3741 35 3935 3934 3942 3945
3742 35 3935 3934 3942 3946
3743 35 3944 3943 3942 3945
3744 35 3944 3943 3942 3946
3745 35 3944 3943 3951 3954
3746 35 3944 3943 3951 3955
3747 35 3953 3952 3951 3954
3748 35 3953 3952 3951 3955
3749 35 3953 3952 3960 3963
3750 35 3953 3952 3960 3964
3751 35 3962 3961 3960 3963
3752 35 3962 3961 3960 3964
3753 35 3962 3961 3969 3972
3754 35 3962 3961 3969 3973
3755 35 3971 3970 3969 3972
3756 35 3971 3970 3969 3973
3757 35 3971 3970 3978 3981
3758 35 3971 3970 3978 3982
3759 35 3980 3979 3978 3981
3760 35 3980 3979 3978 3982
3761 35 3980 3979 3987 3990
3762 35 3980 3979 3987 3991
3763 35 3989 3988 3987 3990
3764 35 3989 3988 3987 3991
3765 35 3989 3988 3996 3999
3766 35 3989 3988 3996 4000
3767 35 3998 3997 3996 3999
3768 35 3998 3997 3996 4000
3769 35 3998 3997 4005 4008
3770 35 3998 3997 4005 4009
3771 35 4007 4006 4005 4008
3772 35 4007 4006 4005 4009
3773 35 4007 4006 4014 4017
3774 35 4007 4006 4014 4018
3775 35 4016 4015 4014 4017
3776 35 4016 4015 4014 4018
3777 35 4016 4015 4023 4026
3778 35 4016 4015 4023 4027
3779 35 4025 4024 4023 4026
3780 35 4025 4024 4023 4027
3781 35 4025 4024 4032 4035
3782 35 4025 4024 4032 4036
3783 35 4034 4033 4032 4035
3784 35 4034 4033 4032 4036
3785 35 4034 4033 4041 4044
3786 35 4034 4033 4041 4045
3787 35 4043 4042 4041 4044
3788 35 4043 4042 4041 4045
3789 35 4043 4042 4050 4053
3790 35 4043 4042 4050 4054
3791 35 4052 4051 4050 4053
3792 35 4052 4051 4050 4054
3793 35 4052 4051 4059 4062
3794 35 4052 4051 4059 4063
3795 35 4069 4070 4079 4082
3796 35 4069 4070 4079 4083
3797 35 4071 4070 4079 4082
3798 35 4071 4070 4079 4083
3799 35 4081 4080 4079 4082
3800 35 4081 4080 4079 4083
3801 35 4081 4080 4088 4091
3802 35 4081 4080 4088 4092
3803 35 4090 4089 4088 4091
3804 35 4090 4089 4088 4092
3805 35 4090 4089 4097 4100
3806 35 4090 4089 4097 4101
3807 35 4099 4098 4097 4100
3808 35 4099 4098 4097 4101
3809 35 4099 4098 4106 4109
3810 35 4099 4098 4106 4110
3811 35 4108 4107 4106 4109
3812 35 4108 4107 4106 4110
3813 35 4108 4107 4115 4118
3814 35 4108 4107 4115 4119
3815 35 4117 4116 4115 4118
3816 35 4117 4116 4115 4119
3817 35 4117 4116 4124 4127
3818 35 4117 4116 4124 4128
3819 35 4126 4125 4124 4127
3820 35 4126 4125 4124 4128
3821 35 4126 4125 4133 4136
3822 35 4126 4125 4133 4137
3823 35 4135 4134 4133 4136
3824 35 4135 4134 4133 4137
3825 35 4135 4134 4142 4145
3826 35 4135 4134 4142 4146
3827 35 4144 4143 4142 4145
3828 35 4144 4143 4142 4146
3829 35 4144 4143 4151 4154
3830 35 4144 4143 4151 4155
3831 35 4153 4152 4151 4154
3832 35 4153 4152 4151 4155
3833 35 4153 4152 4160 4163
3834 35 4153 4152 4160 4164
3835 35 4162 4161 4160 4163
3836 35 4162 4161 4160 4164
3837 35 4162 4161 4169 4172
3838 35 4162 4161 4169 4173
3839 35 4171 4170 4169 4172
3840 35 4171 4170 4169 4173
3841 35 4171 4170 4178 4181
3842 35 4171 4170 4178 4182
3843 35 4180 4179 4178 4181
3844 35 4180 4179 4178 4182
3845 35 4180 4179 4187 4190
3846 35 4180 4179 4187 4191
3847 35 4189 4188 4187 4190
3848 35 4189 4188 4187 4191
3849 35 4189 4188 4196 4199
3850 35 4189 4188 4196 4200
3851 35 4198 4197 4196 4199
3852 35 4198 4197 4196 4200
3853 35 4198 4197 4205 4208
3854 35 4198 4197 4205 4209
3855 35 4207 4206 4205 4208
3856 35 4207 4206 4205 4209
3857 35 4207 4206 4214 4217
3858 35 4207 4206 4214 4218
3859 35 4216 4215 4214 4217
3860 35 4216 4215 4214 4218
3861 35 4216 4215 4223 4226
3862 35 4216 4215 4223 4227
3863 35 4225 4224 4223 4226
3864 35 4225 4224 4223 4227
3865 35 4225 4224 4232 4235
3866 35 4225 4224 4232 4236
3867 35 4234 4233 4232 4235
3868 35 4234 4233 4232 4236
3869 35 4234 4233 4241 4244
3870 35 4234 4233 4241 4245
3871 35 4243 4242 4241 4244
3872 35 4243 4242 4241 4245
3873 35 4243 4242 4250 4253
3874 35 4243 4242 4250 4254
3875 35 4252 4251 4250 4253
3876 35 4252 4251 4250 4254
3877 35 4252 4251 4259 4262
3878 35 4252 4251 4259 4263
3879 35 4261 4260 4259 4262
3880 35 4261 4260 4259 4263
3881 35 4261 4260 4268 4271
3882 35 4261 4260 4268 4272
3883 35 4270 4269 4268 4271
3884 35 4270 4269 4268 4272
3885 35 4270 4269 4277 4280
3886 35 4270 4269 4277 4281
3887 35 4279 4278 4277 4280
3888 35 4279 4278 4277 4281
3889 35 4279 4278 4286 4289
3890 35 4279 4278 4286 4290
3891 35 4288 4287 4286 4289
3892 35 4288 4287 4286 4290
3893 35 4288 4287 4295 4298
3894 35 4288 4287 4295 4299
3895 35 4297 4296 4295 4298
3896 35 4297 4296 4295 4299
3897 35 4297 4296 4304 4307
3898 35 4297 4296 4304 4308
3899 35 4306 4305 4304 4307
3900 35 4306 4305 4304 4308
3901 35 4306 4305 4313 4316
3902 35 4306 4305 4313 4317
3903 35 4315 4314 4313 4316
3904 35 4315 4314 4313 4317
3905 35 4315 4314 4322 4325
3906 35 4315 4314 4322 4326
3907 35 4324 4323 4322 4325
3908 35 4324 4323 4322 4326
3909 35 4324 4323 4331 4334
3910 35 4324 4323 4331 4335
3911 35 4333 4332 4331 4334
3912 35 4333 4332 4331 4335
3913 35 4333 4332 4340 4343
3914 35 4333 4332 4340 4344
3915 35 4342 4341 4340 4343
3916 35 4342 4341 4340 4344
3917 35 4342 4341 4349 4352
3918 35 4342 4341 4349 4353
3919 35 4351 4350 4349 4352
3920 35 4351 4350 4349 4353
3921 35 4351 4350 4358 4361
3922 35 4351 4350 4358 4362
3923 35 4360 4359 4358 4361
3924 35 4360 4359 4358 4362
3925 35 4360 4359 4367 4370
3926 35 4360 4359 4367 4371
3927 35 4369 4368 4367 4370
3928 35 4369 4368 4367 4371
3929 35 4369 4368 4376 4379
3930 35 4369 4368 4376 4380
3931 35 4378 4377 4376 4379
3932 35 4378 4377 4376 4380
3933 35 4378 4377 4385 4388
3934 35 4378 4377 4385 4389
3935 35 4387 4386 4385 4388
3936 35 4387 4386 4385 4389
3937 35 4387 4386 4394 4397
3938 35 4387 4386 4394 4398
3939 35 4396 4395 4394 4397
3940 35 4396 4395 4394 4398
3941 35 4396 4395 4403 4406
3942 35 4396 4395 4403 4407
3943 35 4405 4404 4403 4406
3944 35 4405 4404 4403 4407
3945 35 4405 4404 4412 4415
3946 35 4405 4404 4412 4416
3947 35 4414 4413 4412 4415
3948 35 4414 4413 4412 4416
3949 35 4414 4413 4421 4424
3950 35 4414 4413 4421 4425
3951 35 4423 4422 4421 4424
3952 35 4423 4422 4421 4425
3953 35 4423 4422 4430 4433
3954 35 4423 4422 4430 4434
3955 35 4432 4431 4430 4433
3956 35 4432 4431 4430 4434
3957 35 4432 4431 4439 4442
3958 35 4432 4431 4439 4443
3959 35 4441 4440 4439 4442
3960 35 4441 4440 4439 4443
3961 35 4441 4440 4448 4451
3962 35 4441 4440 4448 4452
3963 35 4450 4449 4448 4451
3964 35 4450 4449 4448 4452
3965 35 4450 4449 4457 4460
3966 35 4450 4449 4457 4461
3967 35 4459 4458 4457 4460
3968 35 4459 4458 4457 4461
3969 35 4459 4458 4466 4469
3970 35 4459 4458 4466 4470
3971 35 4468 4467 4466 4469
3972 35 4468 4467 4466 4470
3973 35 4468 4467 4475 4478
3974 35 4468 4467 4475 4479
3975 35 4477 4476 4475 4478
3976 35 4477 4476 4475 4479
3977 35 4477 4476 4484 4487
3978 35 4477 4476 4484 4488
3979 35 4486 4485 4484 4487
3980 35 4486 4485 4484 4488
3981 35 4486 4485 4493 4496
3982 35 4486 4485 4493 4497
3983 35 4495 4494 4493 4496
3984 35 4495 4494 4493 4497
3985 35 4495 4494 4502 4505
3986 35 4495 4494 4502 4506
3987 35 4504 4503 4502 4505
3988 35 4504 4503 4502 4506
3989 35 4504 4503 4511 4514
3990 35 4504 4503 4511 4515
3991 40 443 444 445 450
3992 40 443 444 445 451
3993 40 443 444 445 452
3994 40 895 896 897 902
3995 40 895 896 897 903
3996 40 895 896 897 904
3997 40 1347 1348 1349 1354
3998 40 1347 1348 1349 1355
3999 40 1347 1348 1349 1356
4000 40 1799 1800 1801 1806
4001 40 1799 1800 1801 1807
4002 40 1799 1800 1801 1808
4003 40 2251 2252 2253 2258
4004 40 2251 2252 2253 2259
4005 40 2251 2252 2253 2260
4006 40 2703 2704 2705 2710
4007 40 2703 2704 2705 2711
4008 40 2703 2704 2705 2712
4009 40 3155 3156 3157 3162
4010 40 3155 3156 3157 3163
4011 40 3155 3156 3157 3164
4012 40 3607 3608 3609 3614
4013 40 3607 3608 3609 3615
4014 40 3607 3608 3609 3616
4015 40 4059 4060 4061 4066
4016 40 4059 4060 4061 4067
4017 40 4059 4060 4061 4068
4018 40 4511 4512 4513 4518
4019 40 4511 4512 4513 4519
4020 40 4511 4512 4513 4520
4021 42 439 435 443 444
4022 42 891 887 895 896
4023 42 1343 1339 1347 1348
4024 42 1795 1791 1799 1800
4025 42 2247 2243 2251 2252
4026 42 2699 2695 2703 2704
4027 42 3151 3147 3155 3156
4028 42 3603 3599 3607 3608
4029 42 4055 4051 4059 4060
4030 42 4507 4503 4511 4512
4031 43 11 12 13 17
4032 43 11 12 13 18
4033 43 11 12 13 19
4034 43 4 1 2 11
4035 43 5 1 2 11
4036 43 6 1 2 11
4037 43 8 3 2 11
4038 43 9 3 2 11
4039 43 10 3 2 11
4040 43 20 21 22 26
4041 43 20 21 22 27
4042 43 20 21 22 28
4043 43 17 13 12 20
4044 43 18 13 12 20
4045 43 19 13 12 20
4046 43 29 30 31 35
4047 43 29 30 31 36
4048 43 29 30 31 37
4049 43 26 22 21 29
4050 43 27 22 21 29
4051 43 28 22 21 29
4052 43 38 39 40 44
4053 43 38 39 40 45
4054 43 38 39 40 46
4055 43 35 31 30 38
4056 43 36 31 30 38
4057 43 37 31 30 38
4058 43 47 48 49 53
4059 43 47 48 49 54
4060 43 47 48 49 55
4061 43 44 40 39 47
4062 43 45 40 39 47
4063 43 46 40 39 47
4064 43 56 57 58 62
4065 43 56 57 58 63
4066 43 56 57 58 64
4067 43 53 49 48 56
4068 43 54 49 48 56
4069 43 55 49 48 56
4070 43 65 66 67 71
4071 43 65 66 67 72
4072 43 65 66 67 73
4073 43 62 58 57 65
4074 43 63 58 57 65
4075 43 64 58 57 65
4076 43 74 75 76 80
4077 43 74 75 76 81
4078 43 74 75 76 82
4079 43 71 67 66 74
4080 43 72 67 66 74
4081 43 73 67 66 74
4082 43 83 84 85 89
4083 43 83 84 85 90
4084 43 83 84 85 91
4085 43 80 76 75 83
4086 43 81 76 75 83
4087 43 82 76 75 83
4088 43 92 93 94 98
4089 43 92 93 94 99
4090 43 92 93 94 100
4091 43 89 85 84 92
4092 43 90 85 84 92
4093 43 91 85 84 92
4094 43 101 102 103 107
4095 43 101 102 103 108
4096 43 101 102 103 109
4097 43 98 94 93 101
4098 43 99 94 93 101
4099 43 100 94 93 101
4100 43 110 111 112 116
4101 43 110 111 112 117
4102 43 110 111 112 118
4103 43 107 103 102 110
4104 43 108 103 102 110
4105 43 109 103 102 110
4106 43 119 120 121 125
4107 43 119 120 121 126
4108 43 119 120 121 127
4109 43 116 112 111 119
4110 43 117 112 111 119
4111 43 118 112 111 119
4112 43 128 129 130 134
4113 43 128 129 130 135
4114 43 128 129 130 136
4115 43 125 121 120 128
4116 43 126 121 120 128
4117 43 127 121 120 128
4118 43 137 138 139 143
4119 43 137 138 139 144
4120 43 137 138 139 145
4121 43 134 130 129 137
4122 43 135 130 129 137
4123 43 136 130 129 137
4124 43 146 147 148 152
4125 43 146 147 148 153
4126 43 146 147 148 154
4127 43 143 139 138 146
4128 43 144 139 138 146
4129 43 145 139 138 146
4130 43 155 156 157 161
4131 43 155 156 157 162
4132 43 155 156 157 163
4133 43 152 148 147 155
4134 43 153 148 147 155
4135 43 154 148 147 155
4136 43 164 165 166 170
4137 43 164 165 166 171
4138 43 164 165 166 172
4139 43 161 157 156 164
4140 43 162 157 156 164
4141 43 163 157 156 164
4142 43 173 174 175 179
4143 43 173 174 175 180
4144 43 173 174 175 181
4145 43 170 166 165 173
4146 43 171 166 165 173
4147 43 172 166 165 173
4148 43 182 183 184 188
4149 43 182 183 184 189
4150 43 182 183 184 190
4151 43 179 175 174 182
4152 43 180 175 174 182
4153 43 181 175 174 182
4154 43 191 192 193 197
4155 43 191 192 193 198
4156 43 191 192 193 199
4157 43 188 184 183 191
4158 43 189 184 183 191
4159 43 190 184 183 191
4160 43 200 201 202 206
4161 43 200 201 202 207
4162 43 200 201 202 208
4163 43 197 193 192 200
4164 43 198 193 192 200
4165 43 199 193 192 200
4166 43 209 210 211 215
4167 43 209 210 211 216
4168 43 209 210 211 217
4169 43 206 202 201 209
4170 43 207 202 201 209
4171 43 208 202 201 209
4172 43 218 219 220 224
4173 43 218 219 220 225
4174 43 218 219 220 226
4175 43 215 211 210 218
4176 43 216 211 210 218
4177 43 217 211 210 218
4178 43 227 228 229 233
4179 43 227 228 229 234
4180 43 227 228 229 235
4181 43 224 220 219 227
4182 43 225 220 219 227
4183 43 226 220 219 227
4184 43 236 237 238 242
4185 43 236 237 238 243
4186 43 236 237 238 244
4187 43 233 229 228 236
4188 43 234 229 228 236
4189 43 235 229 228 236
4190 43 245 246 247 251
4191 43 245 246 247 252
4192 43 245 246 247 253
4193 43 242 238 237 245
4194 43 243 238 237 245
4195 43 244 238 237 245
4196 43 254 255 256 260
4197 43 254 255 256 261
4198 43 254 255 256 262
4199 43 251 247 246 254
4200 43 252 247 246 254
4201 43 253 247 246 254
4202 43 263 264 265 269
4203 43 263 264 265 270
4204 43 263 264 265 271
4205 43 260 256 255 263
4206 43 261 256 255 263
4207 43 262 256 255 263
4208 43 272 273 274 278
4209 43 272 273 274 279
4210 43 272 273 274 280
4211 43 269 265 264 272
4212 43 270 265 264 272
4213 43 271 265 264 272
4214 43 281 282 283 287
4215 43 281 282 283 288
4216 43 281 282 283 289
4217 43 278 274 273 281
4218 43 279 274 273 281
4219 43 280 274 273 281
4220 43 290 291 292 296
4221 43 290 291 292 297
4222 43 290 291 292 298
4223 43 287 283 282 290
4224 43 288 283 282 290
4225 43 289 283 282 290
4226 43 299 300 301 305
4227 43 299 300 301 306
4228 43 299 300 301 307
4229 43 296 292 291 299
4230 43 297 292 291 299
4231 43 298 292 291 299
4232 43 308 309 310 314
4233 43 308 309 310 315
4234 43 308 309 310 316
4235 43 305 301 300 308
4236 43 306 301 300 308
4237 43 307 301 300 308
4238 43 317 318 319 323
4239 43 317 318 319 324
4240 43 317 318 319 325
4241 43 314 310 309 317
4242 43 315 310 309 317
4243 43 316 310 309 317
4244 43 326 327 328 332
4245 43 326 327 328 333
4246 43 326 327 328 334
4247 43 323 319 318 326
4248 43 324 319 318 326
4249 43 325 319 318 326
4250 43 335 336 337 341
4251 43 335 336 337 342
4252 43 335 336 337 343
4253 43 332 328 327 335
4254 43 333 328 327 335
4255 43 334 328 327 335
4256 43 344 345 346 350
4257 43 344 345 346 351
4258 43 344 345 346 352
4259 43 341 337 336 344
4260 43 342 337 336 344
4261 43 343 337 336 344
4262 43 353 354 355 359
4263 43 353 354 355 360
4264 43 353 354 355 361
4265 43 350 346 345 353
4266 43 351 346 345 353
4267 43 352 346 345 353
4268 43 362 363 364 368
4269 43 362 363 364 369
4270 43 362 363 364 370
4271 43 359 355 354 362
4272 43 360 355 354 362
4273 43 361 355 354 362
4274 43 371 372 373 377
4275 43 371 372 373 378
4276 43 371 372 373 379
4277 43 368 364 363 371
4278 43 369 364 363 371
4279 43 370 364 363 371
4280 43 380 381 382 386
4281 43 380 381 382 387
4282 43 380 381 382 388
4283 43 377 373 372 380
4284 43 378 373 372 380
4285 43 379 373 372 380
4286 43 389 390 391 395
4287 43 389 390 391 396
4288 43 389 390 391 397
4289 43 386 382 381 389
4290 43 387 382 381 389
4291 43 388 382 381 389
4292 43 398 399 400 404
4293 43 398 399 400 405
4294 43 398 399 400 406
4295 43 395 391 390 398
4296 43 396 391 390 398
4297 43 397 391 390 398
4298 43 407 408 409 413
4299 43 407 408 409 414
4300 43 407 408 409 415
4301 43 404 400 399 407
4302 43 405 400 399 407
4303 43 406 400 399 407
4304 43 416 417 418 422
4305 43 416 417 418 423
4306 43 416 417 418 424
4307 43 413 409 408 416
4308 43 414 409 408 416
4309 43 415 409 408 416
4310 43 425 426 427 431
4311 43 425 426 427 432
4312 43 425 426 427 433
4313 43 422 418 417 425
4314 43 423 418 417 425
4315 43 424 418 417 425
4316 43 434 435 436 440
4317 43 434 435 436 441
4318 43 434 435 436 442
4319 43 431 427 426 434
4320 43 432 427 426 434
4321 43 433 427 426 434
4322 43 440 436 435 443
4323 43 441 436 435 443
4324 43 442 436 435 443
4325 43 463 464 465 469
4326 43 463 464 465 470
4327 43 463 464 465 471
4328 43 456 453 454 463
4329 43 457 453 454 463
4330 43 458 453 454 463
4331 43 460 455 454 463
4332 43 461 455 454 463
4333 43 462 455 454 463
4334 43 472 473 474 478
4335 43 472 473 474 479
4336 43 472 473 474 480
4337 43 469 465 464 472
4338 43 470 465 464 472
4339 43 471 465 464 472
4340 43 481 482 483 487
4341 43 481 482 483 488
4342 43 481 482 483 489
4343 43 478 474 473 481
4344 43 479 474 473 481
4345 43 480 474 473 481
4346 43 490 491 492 496
4347 43 490 491 492 497
4348 43 490 491 492 498
4349 43 487 483 482 490
4350 43 488 483 482 490
4351 43 489 483 482 490
4352 43 499 500 501 505
4353 43 499 500 501 506
4354 43 499 500 501 507
4355 43 496 492 491 499
4356 43 497 492 491 499
4357 43 498 492 491 499
4358 43 508 509 510 514
4359 43 508 509 510 515
4360 43 508 509 510 516
4361 43 505 501 500 508
4362 43 506 501 500 508
4363 43 507 501 500 508
4364 43 517 518 519 523
4365 43 517 518 519 524
4366 43 517 518 519 525
4367 43 514 510 509 517
4368 43 515 510 509 517
4369 43 516 510 509 517
4370 43 526 527 528 532
4371 43 526 527 528 533
4372 43 526 527 528 534
4373 43 523 519 518 526
4374 43 524 519 518 526
4375 43 525 519 518 526
4376 43 535 536 537 541
4377 43 535 536 537 542
4378 43 535 536 537 543
4379 43 532 528 527 535
4380 43 533 528 527 535
4381 43 534 528 527 535
4382 43 544 545 546 550
4383 43 544 545 546 551
4384 43 544 545 546 552
4385 43 541 537 536 544
4386 43 542 537 536 544
4387 43 543 537 536 544
4388 43 553 554 555 559
4389 43 553 554 555 560
4390 43 553 554 555 561
4391 43 550 546 545 553
4392 43 551 546 545 553
4393 43 552 546 545 553
4394 43 562 563 564 568
4395 43 562 563 564 569
4396 43 562 563 564 570
4397 43 559 555 554 562
4398 43 560 555 554 562
4399 43 561 555 554 562
4400 43 571 572 573 577
4401 43 571 572 573 578
4402 43 571 572 573 579
4403 43 568 564 563 571
4404 43 569 564 563 571
4405 43 570 564 563 571
4406 43 580 581 582 586
4407 43 580 581 582 587
4408 43 580 581 582 588
4409 43 577 573 572 580
4410 43 578 573 572 580
4411 43 579 573 572 580
4412 43 589 590 591 595
4413 43 589 590 591 596
4414 43 589 590 591 597
4415 43 586 582 581 589
4416 43 587 582 581 589
4417 43 588 582 581 589
4418 43 598 599 600 604
4419 43 598 599 600 605
4420 43 598 599 600 606
4421 43 595 591 590 598
4422 43 596 591 590 598
4423 43 597 591 590 598
4424 43 607 608 609 613
4425 43 607 608 609 614
4426 43 607 608 609 615
4427 43 604 600 599 607
4428 43 605 600 599 607
4429 43 606 600 599 607
4430 43 616 617 618 622
4431 43 616 617 618 623
4432 43 616 617 618 624
4433 43 613 609 608 616
4434 43 614 609 608 616
4435 43 615 609 608 616
4436 43 625 626 627 631
4437 43 625 626 627 632
4438 43 625 626 627 633
4439 43 622 618 617 625
4440 43 623 618 617 625
4441 43 624 618 617 625
4442 43 634 635 636 640
4443 43 634 635 636 641
4444 43 634 635 636 642
4445 43 631 627 626 634
4446 43 632 627 626 634
4447 43 633 627 626 634
4448 43 643 644 645 649
4449 43 643 644 645 650
4450 43 643 644 645 651
4451 43 640 636 635 643
4452 43 641 636 635 643
4453 43 642 636 635 643
4454 43 652 653 654 658
4455 43 652 653 654 659
4456 43 652 653 654 660
4457 43 649 645 644 652
4458 43 650 645 644 652
4459 43 651 645 644 652
4460 43 661 662 663 667
4461 43 661 662 663 668
4462 43 661 662 663 669
4463 43 658 654 653 661
4464 43 659 654 653 661
4465 43 660 654 653 661
4466 43 670 671 672 676
4467 43 670 671 672 677
4468 43 670 671 672 678
4469 43 667 663 662 670
4470 43 668 663 662 670
4471 43 669 663 662 670
4472 43 679 680 681 685
4473 43 679 680 681 686
4474 43 679 680 681 687
4475 43 676 672 671 679
4476 43 677 672 671 679
4477 43 678 672 671 679
4478 43 688 689 690 694
4479 43 688 689 690 695
4480 43 688 689 690 696
4481 43 685 681 680 688
4482 43 686 681 680 688
4483 43 687 681 680 688
4484 43 697 698 699 703
4485 43 697 698 699 704
4486 43 697 698 699 705
4487 43 694 690 689 697
4488 43 695 690 689 697
4489 43 696 690 689 697
4490 43 706 707 708 712
4491 43 706 707 708 713
4492 43 706 707 708 714
4493 43 703 699 698 706
4494 43 704 699 698 706
4495 43 705 699 698 706
4496 43 715 716 717 721
4497 43 715 716 717 722
4498 43 715 716 717 723
4499 43 712 708 707 715
4500 43 713 708 707 715
4501 43 714 708 707 715
4502 43 724 725 726 730
4503 43 724 725 726 731
4504 43 724 725 726 732
4505 43 721 717 716 724
4506 43 722 717 716 724
4507 43 723 717 716 724
4508 43 733 734 735 739
4509 43 733 734 735 740
4510 43 733 734 735 741
4511 43 730 726 725 733
4512 43 731 726 725 733
4513 43 732 726 725 733
4514 43 742 743 744 748
4515 43 742 743 744 749
4516 43 742 743 744 750
4517 43 739 735 734 742
4518 43 740 735 734 742
4519 43 741 735 734 742
4520 43 751 752 753 757
4521 43 751 752 753 758
4522 43 751 752 753 759
4523 43 748 744 743 751
4524 43 749 744 743 751
4525 43 750 744 743 751
4526 43 760 761 762 766
4527 43 760 761 762 767
4528 43 760 761 762 768
4529 43 757 753 752 760
4530 43 758 753 752 760
4531 43 759 753 752 760
4532 43 769 770 771 775
4533 43 769 770 771 776
4534 43 769 770 771 777
4535 43 766 762 761 769
4536 43 767 762 761 769
4537 43 768 762 761 769
4538 43 778 779 780 784
4539 43 778 779 780 785
4540 43 778 779 780 786
4541 43 775 771 770 778
4542 43 776 771 770 778
4543 43 777 771 770 778
4544 43 787 788 789 793
4545 43 787 788 789 794
4546 43 787 788 789 795
4547 43 784 780 779 787
4548 43 785 780 779 787
4549 43 786 780 779 787
4550 43 796 797 798 802
4551 43 796 797 798 803
4552 43 796 797 798 804
4553 43 793 789 788 796
4554 43 794 789 788 796
4555 43 795 789 788 796
4556 43 805 806 807 811
4557 43 805 806 807 812
4558 43 805 806 807 813
4559 43 802 798 797 805
4560 43 803 798 797 805
4561 43 804 798 797 805
4562 43 814 815 816 820
4563 43 814 815 816 821
4564 43 814 815 816 822
4565 43 811 807 806 814
4566 43 812 807 806 814
4567 43 813 807 806 814
4568 43 823 824 825 829
4569 43 823 824 825 830
4570 43 823 824 825 831
4571 43 820 816 815 823
4572 43 821 816 815 823
4573 43 822 816 815 823
4574 43 832 833 834 838
4575 43 832 833 834 839
4576 43 832 833 834 840
4577 43 829 825 824 832
4578 43 830 825 824 832
4579 43 831 825 824 832
4580 43 841 842 843 847
4581 43 841 842 843 848
4582 43 841 842 843 849
4583 43 838 834 833 841
4584 43 839 834 833 841
4585 43 840 834 833 841
4586 43 850 851 852 856
4587 43 850 851 852 857
4588 43 850 851 852 858
4589 43 847 843 842 850
4590 43 848 843 842 850
4591 43 849 843 842 850
4592 43 859 860 861 865
4593 43 859 860 861 866
4594 43 859 860 861 867
4595 43 856 852 851 859
4596 43 857 852 851 859
4597 43 858 852 851 859
4598 43 868 869 870 874
4599 43 868 869 870 875
4600 43 868 869 870 876
4601 43 865 861 860 868
4602 43 866 861 860 868
4603 43 867 861 860 868
4604 43 877 878 879 883
4605 43 877 878 879 884
4606 43 877 878 879 885
4607 43 874 870 869 877
4608 43 875 870 869 877
4609 43 876 870 869 877
4610 43 886 887 888 892
4611 43 886 887 888 893
4612 43 886 887 888 894
4613 43 883 879 878 886
4614 43 884 879 878 886
4615 43 885 879 878 886
4616 43 892 888 887 895
4617 43 893 888 887 895
4618 43 894 888 887 895
4619 43 915 916 917 921
4620 43 915 916 917 922
4621 43 915 916 917 923
4622 43 908 905 906 915
4623 43 909 905 906 915
4624 43 910 905 906 915
4625 43 912 907 906 915
4626 43 913 907 906 915
4627 43 914 907 906 915
4628 43 924 925 926 930
4629 43 924 925 926 931
4630 43 924 925 926 932
4631 43 921 917 916 924
4632 43 922 917 916 924
4633 43 923 917 916 924
4634 43 933 934 935 939
4635 43 933 934 935 940
4636 43 933 934 935 941
4637 43 930 926 925 933
4638 43 931 926 925 933
4639 43 932 926 925 933
4640 43 942 943 944 948
4641 43 942 943 944 949
4642 43 942 943 944 950
4643 43 939 935 934 942
4644 43 940 935 934 942
4645 43 941 935 934 942
4646 43 951 952 953 957
4647 43 951 952 953 958
4648 43 951 952 953 959
4649 43 948 944 943 951
4650 43 949 944 943 951
4651 43 950 944 943 951
4652 43 960 961 962 966
4653 43 960 961 962 967
4654 43 960 961 962 968
4655 43 957 953 952 960
4656 43 958 953 952 960
4657 43 959 953 952 960
4658 43 969 970 971 975
4659 43 969 970 971 976
4660 43 969 970 971 977
4661 43 966 962 961 969
4662 43 967 962 961 969
4663 43 968 962 961 969
4664 43 978 979 980 984
4665 43 978 979 980 985
4666 43 978 979 980 986
4667 43 975 971 970 978
4668 43 976 971 970 978
4669 43 977 971 970 978
4670 43 987 988 989 993
4671 43 987 988 989 994
4672 43 987 988 989 995
4673 43 984 980 979 987
4674 43 985 980 979 987
4675 43 986 980 979 987
4676 43 996 997 998 1002
4677 43 996 997 998 1003
4678 43 996 997 998 1004
4679 43 993 989 988 996
4680 43 994 989 988 996
4681 43 995 989 988 996
4682 43 1005 1006 1007 1011
4683 43 1005 1006 1007 1012
4684 43 1005 1006 1007 1013
4685 43 1002 998 997 1005
4686 43 1003 998 997 1005
4687 43 1004 998 997 1005
4688 43 1014 1015 1016 1020
4689 43 1014 1015 1016 1021
4690 43 1014 1015 1016 1022
4691 43 1011 1007 1006 1014
4692 43 1012 1007 1006 1014
4693 43 1013 1007 1006 1014
4694 43 1023 1024 1025 1029
4695 43 1023 1024 1025 1030
4696 43 1023 1024 1025 1031
4697 43 1020 1016 1015 1023
4698 43 1021 1016 1015 1023
4699 43 1022 1016 1015 1023
4700 43 1032 1033 1034 1038
4701 43 1032 1033 1034 1039
4702 43 1032 1033 1034 1040
4703 43 1029 1025 1024 1032
4704 43 1030 1025 1024 1032
4705 43 1031 1025 1024 1032
4706 43 1041 1042 1043 1047
4707 43 1041 1042 1043 1048
4708 43 1041 1042 1043 1049
4709 43 1038 1034 1033 1041
4710 43 1039 1034 1033 1041
4711 43 1040 1034 1033 1041
4712 43 1050 1051 1052 1056
4713 43 1050 1051 1052 1057
4714 43 1050 1051 1052 1058
4715 43 1047 1043 1042 1050
4716 43 1048 1043 1042 1050
4717 43 1049 1043 1042 1050
4718 43 1059 1060 1061 1065
4719 43 1059 1060 1061 1066
4720 43 1059 1060 1061 1067
4721 43 1056 1052 1051 1059
4722 43 1057 1052 1051 1059
4723 43 1058 1052 1051 1059
4724 43 1068 1069 1070 1074
4725 43 1068 1069 1070 1075
4726 43 1068 1069 1070 1076
4727 43 1065 1061 1060 1068
4728 43 1066 1061 1060 1068
4729 43 1067 1061 1060 1068
4730 43 1077 1078 1079 1083
4731 43 1077 1078 1079 1084
4732 43 1077 1078 1079 1085
4733 43 1074 1070 1069 1077
4734 43 1075 1070 1069 1077
4735 43 1076 1070 1069 1077
4736 43 1086 1087 1088 1092
4737 43 1086 1087 1088 1093
4738 43 1086 1087 1088 1094
4739 43 1083 1079 1078 1086
4740 43 1084 1079 1078 1086
4741 43 1085 1079 1078 1086
4742 43 1095 1096 1097 1101
4743 43 1095 1096 1097 1102
4744 43 1095 1096 1097 1103
4745 43 1092 1088 1087 1095
4746 43 1093 1088 1087 1095
4747 43 1094 1088 1087 1095
4748 43 1104 1105 1106 1110
4749 43 1104 1105 1106 1111
4750 43 1104 1105 1106 1112
4751 43 1101 1097 1096 1104
4752 43 1102 1097 1096 1104
4753 43 1103 1097 1096 1104
4754 43 1113 1114 1115 1119
4755 43 1113 1114 1115 1120
4756 43 1113 1114 1115 1121
4757 43 1110 1106 1105 1113
4758 43 1111 1106 1105 1113
4759 43 1112 1106 1105 1113
4760 43 1122 1123 1124 1128
4761 43 1122 1123 1124 1129
4762 43 1122 1123 1124 1130
4763 43 1119 1115 1114 1122
4764 43 1120 1115 1114 1122
4765 43 1121 1115 1114 1122
4766 43 1131 1132 1133 1137
4767 43 1131 1132 1133 1138
4768 43 1131 1132 1133 1139
4769 43 1128 1124 1123 1131
4770 43 1129 1124 1123 1131
4771 43 1130 1124 1123 1131
4772 43 1140 1141 1142 1146
4773 43 1140 1141 1142 1147
4774 43 1140 1141 1142 1148
4775 43 1137 1133 1132 1140
4776 43 1138 1133 1132 1140
4777 43 1139 1133 1132 1140
4778 43 1149 1150 1151 1155
4779 43 1149 1150 1151 1156
4780 43 1149 1150 1151 1157
4781 43 1146 1142 1141 1149
4782 43 1147 1142 1141 1149
4783 43 1148 1142 1141 1149
4784 43 1158 1159 1160 1164
4785 43 1158 1159 1160 1165
4786 43 1158 1159 1160 1166
4787 43 1155 1151 1150 1158
4788 43 1156 1151 1150 1158
4789 43 1157 1151 1150 1158
4790 43 1167 1168 1169 1173
4791 43 1167 1168 1169 1174
4792 43 1167 1168 1169 1175
4793 43 1164 1160 1159 1167
4794 43 1165 1160 1159 1167
4795 43 1166 1160 1159 1167
4796 43 1176 1177 1178 1182
4797 43 1176 1177 1178 1183
4798 43 1176 1177 1178 1184
4799 43 1173 1169 1168 1176
4800 43 1174 1169 1168 1176
4801 43 1175 1169 1168 1176
4802 43 1185 1186 1187 1191
4803 43 1185 1186 1187 1192
4804 43 1185 1186 1187 1193
4805 43 1182 1178 1177 1185
4806 43 1183 1178 1177 1185
4807 43 1184 1178 1177 1185
4808 43 1194 1195 1196 1200
4809 43 1194 1195 1196 1201
4810 43 1194 1195 1196 1202
4811 43 1191 1187 1186 1194
4812 43 1192 1187 1186 1194
4813 43 1193 1187 1186 1194
4814 43 1203 1204 1205 1209
4815 43 1203 1204 1205 1210
4816 43 1203 1204 1205 1211
4817 43 1200 1196 1195 1203
4818 43 1201 1196 1195 1203
4819 43 1202 1196 1195 1203
4820 43 1212 1213 1214 1218
4821 43 1212 1213 1214 1219
4822 43 1212 1213 1214 1220
4823 43 1209 1205 1204 1212
4824 43 1210 1205 1204 1212
4825 43 1211 1205 1204 1212
4826 43 1221 1222 1223 1227
4827 43 1221 1222 1223 1228
4828 43 1221 1222 1223 1229
4829 43 1218 1214 1213 1221
4830 43 1219 1214 1213 1221
4831 43 1220 1214 1213 1221
4832 43 1230 1231 1232 1236
4833 43 1230 1231 1232 1237
4834 43 1230 1231 1232 1238
4835 43 1227 1223 1222 1230
4836 43 1228 1223 1222 1230
4837 43 1229 1223 1222 1230
4838 43 1239 1240 1241 1245
4839 43 1239 1240 1241 1246
4840 43 1239 1240 1241 1247
4841 43 1236 1232 1231 1239
4842 43 1237 1232 1231 1239
4843 43 1238 1232 1231 1239
4844 43 1248 1249 1250 1254
4845 43 1248 1249 1250 1255
4846 43 1248 1249 1250 1256
4847 43 1245 1241 1240 1248
4848 43 1246 1241 1240 1248
4849 43 1247 1241 1240 1248
4850 43 1257 1258 1259 1263
4851 43 1257 1258 1259 1264
4852 43 1257 1258 1259 1265
4853 43 1254 1250 1249 1257
4854 43 1255 1250 1249 1257
4855 43 1256 1250 1249 1257
4856 43 1266 1267 1268 1272
4857 43 1266 1267 1268 1273
4858 43 1266 1267 1268 1274
4859 43 1263 1259 1258 1266
4860 43 1264 1259 1258 1266
4861 43 1265 1259 1258 1266
4862 43 1275 1276 1277 1281
4863 43 1275 1276 1277 1282
4864 43 1275 1276 1277 1283
4865 43 1272 1268 1267 1275
4866 43 1273 1268 1267 1275
4867 43 1274 1268 1267 1275
4868 43 1284 1285 1286 1290
4869 43 1284 1285 1286 1291
4870 43 1284 1285 1286 1292
4871 43 1281 1277 1276 1284
4872 43 1282 1277 1276 1284
4873 43 1283 1277 1276 1284
4874 43 1293 1294 1295 1299
4875 43 1293 1294 1295 1300
4876 43 1293 1294 1295 1301
4877 43 1290 1286 1285 1293
4878 43 1291 1286 1285 1293
4879 43 1292 1286 1285 1293
4880 43 1302 1303 1304 1308
4881 43 1302 1303 1304 1309
4882 43 1302 1303 1304 1310
4883 43 1299 1295 1294 1302
4884 43 1300 1295 1294 1302
4885 43 1301 1295 1294 1302
4886 43 1311 1312 1313 1317
4887 43 1311 1312 1313 1318
4888 43 1311 1312 1313 1319
4889 43 1308 1304 1303 1311
4890 43 1309 1304 1303 1311
4891 43 1310 1304 1303 1311
4892 43 1320 1321 1322 1326
4893 43 1320 1321 1322 1327
4894 43 1320 1321 1322 1328
4895 43 1317 1313 1312 1320
4896 43 1318 1313 1312 1320
4897 43 1319 1313 1312 1320
4898 43 1329 1330 1331 1335
4899 43 1329 1330 1331 1336
4900 43 1329 1330 1331 1337
4901 43 1326 1322 1321 1329
4902 43 1327 1322 1321 1329
4903 43 1328 1322 1321 1329
4904 43 1338 1339 1340 1344
4905 43 1338 1339 1340 1345
4906 43 1338 1339 1340 1346
4907 43 1335 1331 1330 1338
4908 43 1336 1331 1330 1338
4909 43 1337 1331 1330 1338
4910 43 1344 1340 1339 1347
4911 43 1345 1340 1339 1347
4912 43 1346 1340 1339 1347
4913 43 1367 1368 1369 1373
4914 43 1367 1368 1369 1374
4915 43 1367 1368 1369 1375
4916 43 1360 1357 1358 1367
4917 43 1361 1357 1358 1367
4918 43 1362 1357 1358 1367
4919 43 1364 1359 1358 1367
4920 43 1365 1359 1358 1367
4921 43 1366 1359 1358 1367
4922 43 1376 1377 1378 1382
4923 43 1376 1377 1378 1383
4924 43 1376 1377 1378 1384
4925 43 1373 1369 1368 1376
4926 43 1374 1369 1368 1376
4927 43 1375 1369 1368 1376
4928 43 1385 1386 1387 1391
4929 43 1385 1386 1387 1392
4930 43 1385 1386 1387 1393
4931 43 1382 1378 1377 1385
4932 43 1383 1378 1377 1385
4933 43 1384 1378 1377 1385
4934 43 1394 1395 1396 1400
4935 43 1394 1395 1396 1401
4936 43 1394 1395 1396 1402
4937 43 1391 1387 1386 1394
4938 43 1392 1387 1386 1394
4939 43 1393 1387 1386 1394
4940 43 1403 1404 1405 1409
4941 43 1403 1404 1405 1410
4942 43 1403 1404 1405 1411
4943 43 1400 1396 1395 1403
4944 43 1401 1396 1395 1403
4945 43 1402 1396 1395 1403
4946 43 1412 1413 1414 1418
4947 43 1412 1413 1414 1419
4948 43 1412 1413 1414 1420
4949 43 1409 1405 1404 1412
4950 43 1410 1405 1404 1412
4951 43 1411 1405 1404 1412
4952 43 1421 1422 1423 1427
4953 43 1421 1422 1423 1428
4954 43 1421 1422 1423 1429
4955 43 1418 1414 1413 1421
4956 43 1419 1414 1413 1421
4957 43 1420 1414 1413 1421
4958 43 1430 1431 1432 1436
4959 43 1430 1431 1432 1437
4960 43 1430 1431 1432 1438
4961 43 1427 1423 1422 1430
4962 43 1428 1423 1422 1430
4963 43 1429 1423 1422 1430
4964 43 1439 1440 1441 1445
4965 43 1439 1440 1441 1446
4966 43 1439 1440 1441 1447
4967 43 1436 1432 1431 1439
4968 43 1437 1432 1431 1439
4969 43 1438 1432 1431 1439
4970 43 1448 1449 1450 1454
4971 43 1448 1449 1450 1455
4972 43 1448 1449 1450 1456
4973 43 1445 1441 1440 1448
4974 43 1446 1441 1440 1448
4975 43 1447 1441 1440 1448
4976 43 1457 1458 1459 1463
4977 43 1457 1458 1459 1464
4978 43 1457 1458 1459 1465
4979 43 1454 1450 1449 1457
4980 43 1455 1450 1449 1457
4981 43 1456 1450 1449 1457
4982 43 1466 1467 1468 1472
4983 43 1466 1467 1468 1473
4984 43 1466 1467 1468 1474
4985 43 1463 1459 1458 1466
4986 43 1464 1459 1458 1466
4987 43 1465 1459 1458 1466
4988 43 1475 1476 1477 1481
4989 43 1475 1476 1477 1482
4990 43 1475 1476 1477 1483
4991 43 1472 1468 1467 1475
4992 43 1473 1468 1467 1475
4993 43 1474 1468 1467 1475
4994 43 1484 1485 1486 1490
4995 43 1484 1485 1486 1491
4996 43 1484 1485 1486 1492
4997 43 1481 1477 1476 1484
4998 43 1482 1477 1476 1484
4999 43 1483 1477 1476 1484
5000 43 1493 1494 1495 1499
5001 43 1493 1494 1495 1500
5002 43 1493 1494 1495 1501
5003 43 1490 1486 1485 1493
5004 43 1491 1486 1485 1493
5005 43 1492 1486 1485 1493
5006 43 1502 1503 1504 1508
5007 43 1502 1503 1504 1509
5008 43 1502 1503 1504 1510
5009 43 1499 1495 1494 1502
5010 43 1500 1495 1494 1502
5011 43 1501 1495 1494 1502
5012 43 1511 1512 1513 1517
5013 43 1511 1512 1513 1518
5014 43 1511 1512 1513 1519
5015 43 1508 1504 1503 1511
5016 43 1509 1504 1503 1511
5017 43 1510 1504 1503 1511
5018 43 1520 1521 1522 1526
5019 43 1520 1521 1522 1527
5020 43 1520 1521 1522 1528
5021 43 1517 1513 1512 1520
5022 43 1518 1513 1512 1520
5023 43 1519 1513 1512 1520
5024 43 1529 1530 1531 1535
5025 43 1529 1530 1531 1536
5026 43 1529 1530 1531 1537
5027 43 1526 1522 1521 1529
5028 43 1527 1522 1521 1529
5029 43 1528 1522 1521 1529
5030 43 1538 1539 1540 1544
5031 43 1538 1539 1540 1545
5032 43 1538 1539 1540 1546
5033 43 1535 1531 1530 1538
5034 43 1536 1531 1530 1538
5035 43 1537 1531 1530 1538
5036 43 1547 1548 1549 1553
5037 43 1547 1548 1549 1554
5038 43 1547 1548 1549 1555
5039 43 1544 1540 1539 1547
5040 43 1545 1540 1539 1547
5041 43 1546 1540 1539 1547
5042 43 1556 1557 1558 1562
5043 43 1556 1557 1558 1563
5044 43 1556 1557 1558 1564
5045 43 1553 1549 1548 1556
5046 43 1554 1549 1548 1556
5047 43 1555 1549 1548 1556
5048 43 1565 1566 1567 1571
5049 43 1565 1566 1567 1572
5050 43 1565 1566 1567 1573
5051 43 1562 1558 1557 1565
5052 43 1563 1558 1557 1565
5053 43 1564 1558 1557 1565
5054 43 1574 1575 1576 1580
5055 43 1574 1575 1576 1581
5056 43 1574 1575 1576 1582
5057 43 1571 1567 1566 1574
5058 43 1572 1567 1566 1574
5059 43 1573 1567 1566 1574
5060 43 1583 1584 1585 1589
5061 43 1583 1584 1585 1590
5062 43 1583 1584 1585 1591
5063 43 1580 1576 1575 1583
5064 43 1581 1576 1575 1583
5065 43 1582 1576 1575 1583
5066 43 1592 1593 1594 1598
5067 43 1592 1593 1594 1599
5068 43 1592 1593 1594 1600
5069 43 1589 1585 1584 1592
5070 43 1590 1585 1584 1592
5071 43 1591 1585 1584 1592
5072 43 1601 1602 1603 1607
5073 43 1601 1602 1603 1608
5074 43 1601 1602 1603 1609
5075 43 1598 1594 1593 1601
5076 43 1599 1594 1593 1601
5077 43 1600 1594 1593 1601
5078 43 1610 1611 1612 1616
5079 43 1610 1611 1612 1617
5080 43 1610 1611 1612 1618
5081 43 1607 1603 1602 1610
5082 43 1608 1603 1602 1610
5083 43 1609 1603 1602 1610
5084 43 1619 1620 1621 1625
5085 43 1619 1620 1621 1626
5086 43 1619 1620 1621 1627
5087 43 1616 1612 1611 1619
5088 43 1617 1612 1611 1619
5089 43 1618 1612 1611 1619
5090 43 1628 1629 1630 1634
5091 43 1628 1629 1630 1635
5092 43 1628 1629 1630 1636
5093 43 1625 1621 1620 1628
5094 43 1626 1621 1620 1628
5095 43 1627 1621 1620 1628
5096 43 1637 1638 1639 1643
5097 43 1637 1638 1639 1644
5098 43 1637 1638 1639 1645
5099 43 1634 1630 1629 1637
5100 43 1635 1630 1629 1637
5101 43 1636 1630 1629 1637
5102 43 1646 1647 1648 1652
5103 43 1646 1647 1648 1653
5104 43 1646 1647 1648 1654
5105 43 1643 1639 1638 1646
5106 43 1644 1639 1638 1646
5107 43 1645 1639 1638 1646
5108 43 1655 1656 1657 1661
5109 43 1655 1656 1657 1662
5110 43 1655 1656 1657 1663
5111 43 1652 1648 1647 1655
5112 43 1653 1648 1647 1655
5113 43 1654 1648 1647 1655
5114 43 1664 1665 1666 1670
5115 43 1664 1665 1666 1671
5116 43 1664 1665 1666 1672
5117 43 1661 1657 1656 1664
5118 43 1662 1657 1656 1664
5119 43 1663 1657 1656 1664
5120 43 1673 1674 1675 1679
5121 43 1673 1674 1675 1680
5122 43 1673 1674 1675 1681
5123 43 1670 1666 1665 1673
5124 43 1671 1666 1665 1673
5125 43 1672 1666 1665 1673
5126 43 1682 1683 1684 1688
5127 43 1682 1683 1684 1689
5128 43 1682 1683 1684 1690
5129 43 1679 1675 1674 1682
5130 43 1680 1675 1674 1682
5131 43 1681 1675 1674 1682
5132 43 1691 1692 1693 1697
5133 43 1691 1692 1693 1698
5134 43 1691 1692 1693 1699
5135 43 1688 1684 1683 1691
5136 43 1689 1684 1683 1691
5137 43 1690 1684 1683 1691
5138 43 1700 1701 1702 1706
5139 43 1700 1701 1702 1707
5140 43 1700 1701 1702 1708
5141 43 1697 1693 1692 1700
5142 43 1698 1693 1692 1700
5143 43 1699 1693 1692 1700
5144 43 1709 1710 1711 1715
5145 43 1709 1710 1711 1716
5146 43 1709 1710 1711 1717
5147 43 1706 1702 1701 1709
5148 43 1707 1702 1701 1709
5149 43 1708 1702 1701 1709
5150 43 1718 1719 1720 1724
5151 43 1718 1719 1720 1725
5152 43 1718 1719 1720 1726
5153 43 1715 1711 1710 1718
5154 43 1716 1711 1710 1718
5155 43 1717 1711 1710 1718
5156 43 1727 1728 1729 1733
5157 43 1727 1728 1729 1734
5158 43 1727 1728 1729 1735
5159 43 1724 1720 1719 1727
5160 43 1725 1720 1719 1727
5161 43 1726 1720 1719 1727
5162 43 1736 1737 1738 1742
5163 43 1736 1737 1738 1743
5164 43 1736 1737 1738 1744
5165 43 1733 1729 1728 1736
5166 43 1734 1729 1728 1736
5167 43 1735 1729 1728 1736
5168 43 1745 1746 1747 1751
5169 43 1745 1746 1747 1752
5170 43 1745 1746 1747 1753
5171 43 1742 1738 1737 1745
5172 43 1743 1738 1737 1745
5173 43 1744 1738 1737 1745
5174 43 1754 1755 1756 1760
5175 43 1754 1755 1756 1761
5176 43 1754 1755 1756 1762
5177 43 1751 1747 1746 1754
5178 43 1752 1747 1746 1754
5179 43 1753 1747 1746 1754
5180 43 1763 1764 1765 1769
5181 43 1763 1764 1765 1770
5182 43 1763 1764 1765 1771
5183 43 1760 1756 1755 1763
5184 43 1761 1756 1755 1763
5185 43 1762 1756 1755 1763
5186 43 1772 1773 1774 1778
5187 43 1772 1773 1774 1779
5188 43 1772 1773 1774 1780
5189 43 1769 1765 1764 1772
5190 43 1770 1765 1764 1772
5191 43 1771 1765 1764 1772
5192 43 1781 1782 1783 1787
5193 43 1781 1782 1783 1788
5194 43 1781 1782 1783 1789
5195 43 1778 1774 1773 1781
5196 43 1779 1774 1773 1781
5197 43 1780 1774 1773 1781
5198 43 1790 1791 1792 1796
5199 43 1790 1791 1792 1797
5200 43 1790 1791 1792 1798
5201 43 1787 1783 1782 1790
5202 43 1788 1783 1782 1790
5203 43 1789 1783 1782 1790
5204 43 1796 1792 1791 1799
5205 43 1797 1792 1791 1799
5206 43 1798 1792 1791 1799
5207 43 1819 1820 1821 1825
5208 43 1819 1820 1821 1826
5209 43 1819 1820 1821 1827
5210 43 1812 1809 1810 1819
5211 43 1813 1809 1810 1819
5212 43 1814 1809 1810 1819
5213 43 1816 1811 1810 1819
5214 43 1817 1811 1810 1819
5215 43 1818 1811 1810 1819
5216 43 1828 1829 1830 1834
5217 43 1828 1829 1830 1835
5218 43 1828 1829 1830 1836
5219 43 1825 1821 1820 1828
5220 43 1826 1821 1820 1828
5221 43 1827 1821 1820 1828
5222 43 1837 1838 1839 1843
5223 43 1837 1838 1839 1844
5224 43 1837 1838 1839 1845
5225 43 1834 1830 1829 1837
5226 43 1835 1830 1829 1837
5227 43 1836 1830 1829 1837
5228 43 1846 1847 1848 1852
5229 43 1846 1847 1848 1853
5230 43 1846 1847 1848 1854
5231 43 1843 1839 1838 1846
5232 43 1844 1839 1838 1846
5233 43 1845 1839 1838 1846
5234 43 1855 1856 1857 1861
5235 43 1855 1856 1857 1862
5236 43 1855 1856 1857 1863
5237 43 1852 1848 1847 1855
5238 43 1853 1848 1847 1855
5239 43 1854 1848 1847 1855
5240 43 1864 1865 1866 1870
5241 43 1864 1865 1866 1871
5242 43 1864 1865 1866 1872
5243 43 1861 1857 1856 1864
5244 43 1862 1857 1856 1864
5245 43 1863 1857 1856 1864
5246 43 1873 1874 1875 1879
5247 43 1873 1874 1875 1880
5248 43 1873 1874 1875 1881
5249 43 1870 1866 1865 1873
5250 43 1871 1866 1865 1873
5251 43 1872 1866 1865 1873
5252 43 1882 1883 1884 1888
5253 43 1882 1883 1884 1889
5254 43 1882 1883 1884 1890
5255 43 1879 1875 1874 1882
5256 43 1880 1875 1874 1882
5257 43 1881 1875 1874 1882
5258 43 1891 1892 1893 1897
5259 43 1891 1892 1893 1898
5260 43 1891 1892 1893 1899
5261 43 1888 1884 1883 1891
5262 43 1889 1884 1883 1891
5263 43 1890 1884 1883 1891
5264 43 1900 1901 1902 1906
5265 43 1900 1901 1902 1907
5266 43 1900 1901 1902 1908
5267 43 1897 1893 1892 1900
5268 43 1898 1893 1892 1900
5269 43 1899 1893 1892 1900
5270 43 1909 1910 1911 1915
5271 43 1909 1910 1911 1916
5272 43 1909 1910 1911 1917
5273 43 1906 1902 1901 1909
5274 43 1907 1902 1901 1909
5275 43 1908 1902 1901 1909
5276 43 1918 1919 1920 1924
5277 43 1918 1919 1920 1925
5278 43 1918 1919 1920 1926
5279 43 1915 1911 1910 1918
5280 43 1916 1911 1910 1918
5281 43 1917 1911 1910 1918
5282 43 1927 1928 1929 1933
5283 43 1927 1928 1929 1934
5284 43 1927 1928 1929 1935
5285 43 1924 1920 1919 1927
5286 43 1925 1920 1919 1927
5287 43 1926 1920 1919 1927
5288 43 1936 1937 1938 1942
5289 43 1936 1937 1938 1943
5290 43 1936 1937 1938 1944
5291 43 1933 1929 1928 1936
5292 43 1934 1929 1928 1936
5293 43 1935 1929 1928 1936
5294 43 1945 1946 1947 1951
5295 43 1945 1946 1947 1952
5296 43 1945 1946 1947 1953
5297 43 1942 1938 1937 1945
5298 43 1943 1938 1937 1945
5299 43 1944 1938 1937 1945
5300 43 1954 1955 1956 1960
5301 43 1954 1955 1956 1961
5302 43 1954 1955 1956 1962
5303 43 1951 1947 1946 1954
5304 43 1952 1947 1946 1954
5305 43 1953 1947 1946 1954
5306 43 1963 1964 1965 1969
5307 43 1963 1964 1965 1970
5308 43 1963 1964 1965 1971
5309 43 1960 1956 1955 1963
5310 43 1961 1956 1955 1963
5311 43 1962 1956 1955 1963
5312 43 1972 1973 1974 1978
5313 43 1972 1973 1974 1979
5314 43 1972 1973 1974 1980
5315 43 1969 1965 1964 1972
5316 43 1970 1965 1964 1972
5317 43 1971 1965 1964 1972
5318 43 1981 1982 1983 1987
5319 43 1981 1982 1983 1988
5320 43 1981 1982 1983 1989
5321 43 1978 1974 1973 1981
5322 43 1979 1974 1973 1981
5323 43 1980 1974 1973 1981
5324 43 1990 1991 1992 1996
5325 43 1990 1991 1992 1997
5326 43 1990 1991 1992 1998
5327 43 1987 1983 1982 1990
5328 43 1988 1983 1982 1990
5329 43 1989 1983 1982 1990
5330 43 1999 2000 2001 2005
5331 43 1999 2000 2001 2006
5332 43 1999 2000 2001 2007
5333 43 1996 1992 1991 1999
5334 43 1997 1992 1991 1999
5335 43 1998 1992 1991 1999
5336 43 2008 2009 2010 2014
5337 43 2008 2009 2010 2015
5338 43 2008 2009 2010 2016
5339 43 2005 2001 2000 2008
5340 43 2006 2001 2000 2008
5341 43 2007 2001 2000 2008
5342 43 2017 2018 2019 2023
5343 43 2017 2018 2019 2024
5344 43 2017 2018 2019 2025
5345 43 2014 2010 2009 2017
5346 43 2015 2010 2009 2017
5347 43 2016 2010 2009 2017
5348 43 2026 2027 2028 2032
5349 43 2026 2027 2028 2033
5350 43 2026 2027 2028 2034
5351 43 2023 2019 2018 2026
5352 43 2024 2019 2018 2026
5353 43 2025 2019 2018 2026
5354 43 2035 2036 2037 2041
5355 43 2035 2036 2037 2042
5356 43 2035 2036 2037 2043
5357 43 2032 2028 2027 2035
5358 43 2033 2028 2027 2035
5359 43 2034 2028 2027 2035
5360 43 2044 2045 2046 2050
5361 43 2044 2045 2046 2051
5362 43 2044 2045 2046 2052
5363 43 2041 2037 2036 2044
5364 43 2042 2037 2036 2044
5365 43 2043 2037 2036 2044
5366 43 2053 2054 2055 2059
5367 43 2053 2054 2055 2060
5368 43 2053 2054 2055 2061
5369 43 2050 2046 2045 2053
5370 43 2051 2046 2045 2053
5371 43 2052 2046 2045 2053
5372 43 2062 2063 2064 2068
5373 43 2062 2063 2064 2069
5374 43 2062 2063 2064 2070
5375 43 2059 2055 2054 2062
5376 43 2060 2055 2054 2062
5377 43 2061 2055 2054 2062
5378 43 2071 2072 2073 2077
5379 43 2071 2072 2073 2078
5380 43 2071 2072 2073 2079
5381 43 2068 2064 2063 2071
5382 43 2069 2064 2063 2071
5383 43 2070 2064 2063 2071
5384 43 2080 2081 2082 2086
5385 43 2080 2081 2082 2087
5386 43 2080 2081 2082 2088
5387 43 2077 2073 2072 2080
5388 43 2078 2073 2072 2080
5389 43 2079 2073 2072 2080
5390 43 2089 2090 2091 2095
5391 43 2089 2090 2091 2096
5392 43 2089 2090 2091 2097
5393 43 2086 2082 2081 2089
5394 43 2087 2082 2081 2089
5395 43 2088 2082 2081 2089
5396 43 2098 2099 2100 2104
5397 43 2098 2099 2100 2105
5398 43 2098 2099 2100 2106
5399 43 2095 2091 2090 2098
5400 43 2096 2091 2090 2098
5401 43 2097 2091 2090 2098
5402 43 2107 2108 2109 2113
5403 43 2107 2108 2109 2114
5404 43 2107 2108 2109 2115
5405 43 2104 2100 2099 2107
5406 43 2105 2100 2099 2107
5407 43 2106 2100 2099 2107
5408 43 2116 2117 2118 2122
5409 43 2116 2117 2118 2123
5410 43 2116 2117 2118 2124
5411 43 2113 2109 2108 2116
5412 43 2114 2109 2108 2116
5413 43 2115 2109 2108 2116
5414 43 2125 2126 2127 2131
5415 43 2125 2126 2127 2132
5416 43 2125 2126 2127 2133
5417 43 2122 2118 2117 2125
5418 43 2123 2118 2117 2125
5419 43 2124 2118 2117 2125
5420 43 2134 2135 2136 2140
5421 43 2134 2135 2136 2141
5422 43 2134 2135 2136 2142
5423 43 2131 2127 2126 2134
5424 43 2132 2127 2126 2134
5425 43 2133 2127 2126 2134
5426 43 2143 2144 2145 2149
5427 43 2143 2144 2145 2150
5428 43 2143 2144 2145 2151
5429 43 2140 2136 2135 2143
5430 43 2141 2136 2135 2143
5431 43 2142 2136 2135 2143
5432 43 2152 2153 2154 2158
5433 43 2152 2153 2154 2159
5434 43 2152 2153 2154 2160
5435 43 2149 2145 2144 2152
5436 43 2150 2145 2144 2152
5437 43 2151 2145 2144 2152
5438 43 2161 2162 2163 2167
5439 43 2161 2162 2163 2168
5440 43 2161 2162 2163 2169
5441 43 2158 2154 2153 2161
5442 43 2159 2154 2153 2161
5443 43 2160 2154 2153 2161
5444 43 2170 2171 2172 2176
5445 43 2170 2171 2172 2177
5446 43 2170 2171 2172 2178
5447 43 2167 2163 2162 2170
5448 43 2168 2163 2162 2170
5449 43 2169 2163 2162 2170
5450 43 2179 2180 2181 2185
5451 43 2179 2180 2181 2186
5452 43 2179 2180 2181 2187
5453 43 2176 2172 2171 2179
5454 43 2177 2172 2171 2179
5455 43 2178 2172 2171 2179
5456 43 2188 2189 2190 2194
5457 43 2188 2189 2190 2195
5458 43 2188 2189 2190 2196
5459 43 2185 2181 2180 2188
5460 43 2186 2181 2180 2188
5461 43 2187 2181 2180 2188
5462 43 2197 2198 2199 2203
5463 43 2197 2198 2199 2204
5464 43 2197 2198 2199 2205
5465 43 2194 2190 2189 2197
5466 43 2195 2190 2189 2197
5467 43 2196 2190 2189 2197
5468 43 2206 2207 2208 2212
5469 43 2206 2207 2208 2213
5470 43 2206 2207 2208 2214
5471 43 2203 2199 2198 2206
5472 43 2204 2199 2198 2206
5473 43 2205 2199 2198 2206
5474 43 2215 2216 2217 2221
5475 43 2215 2216 2217 2222
5476 43 2215 2216 2217 2223
5477 43 2212 2208 2207 2215
5478 43 2213 2208 2207 2215
5479 43 2214 2208 2207 2215
5480 43 2224 2225 2226 2230
5481 43 2224 2225 2226 2231
5482 43 2224 2225 2226 2232
5483 43 2221 2217 2216 2224
5484 43 2222 2217 2216 2224
5485 43 2223 2217 2216 2224
5486 43 2233 2234 2235 2239
5487 43 2233 2234 2235 2240
5488 43 2233 2234 2235 2241
5489 43 2230 2226 2225 2233
5490 43 2231 2226 2225 2233
5491 43 2232 2226 2225 2233
5492 43 2242 2243 2244 2248
5493 43 2242 2243 2244 2249
5494 43 2242 2243 2244 2250
5495 43 2239 2235 2234 2242
5496 43 2240 2235 2234 2242
5497 43 2241 2235 2234 2242
5498 43 2248 2244 2243 2251
5499 43 2249 2244 2243 2251
5500 43 2250 2244 2243 2251
5501 43 2271 2272 2273 2277
5502 43 2271 2272 2273 2278
5503 43 2271 2272 2273 2279
5504 43 2264 2261 2262 2271
5505 43 2265 2261 2262 2271
5506 43 2266 2261 2262 2271
5507 43 2268 2263 2262 2271
5508 43 2269 2263 2262 2271
5509 43 2270 2263 2262 2271
5510 43 2280 2281 2282 2286
5511 43 2280 2281 2282 2287
5512 43 2280 2281 2282 2288
5513 43 2277 2273 2272 2280
5514 43 2278 2273 2272 2280
5515 43 2279 2273 2272 2280
5516 43 2289 2290 2291 2295
5517 43 2289 2290 2291 2296
5518 43 2289 2290 2291 2297
5519 43 2286 2282 2281 2289
5520 43 2287 2282 2281 2289
5521 43 2288 2282 2281 2289
5522 43 2298 2299 2300 2304
5523 43 2298 2299 2300 2305
5524 43 2298 2299 2300 2306
5525 43 2295 2291 2290 2298
5526 43 2296 2291 2290 2298
5527 43 2297 2291 2290 2298
5528 43 2307 2308 2309 2313
5529 43 2307 2308 2309 2314
5530 43 2307 2308 2309 2315
5531 43 2304 2300 2299 2307
5532 43 2305 2300 2299 2307
5533 43 2306 2300 2299 2307
5534 43 2316 2317 2318 2322
5535 43 2316 2317 2318 2323
5536 43 2316 2317 2318 2324
5537 43 2313 2309 2308 2316
5538 43 2314 2309 2308 2316
5539 43 2315 2309 2308 2316
5540 43 2325 2326 2327 2331
5541 43 2325 2326 2327 2332
5542 43 2325 2326 2327 2333
5543 43 2322 2318 2317 2325
5544 43 2323 2318 2317 2325
5545 43 2324 2318 2317 2325
5546 43 2334 2335 2336 2340
5547 43 2334 2335 2336 2341
5548 43 2334 2335 2336 2342
5549 43 2331 2327 2326 2334
5550 43 2332 2327 2326 2334
5551 43 2333 2327 2326 2334
5552 43 2343 2344 2345 2349
5553 43 2343 2344 2345 2350
5554 43 2343 2344 2345 2351
5555 43 2340 2336 2335 2343
5556 43 2341 2336 2335 2343
5557 43 2342 2336 2335 2343
5558 43 2352 2353 2354 2358
5559 43 2352 2353 2354 2359
5560 43 2352 2353 2354 2360
5561 43 2349 2345 2344 2352
5562 43 2350 2345 2344 2352
5563 43 2351 2345 2344 2352
5564 43 2361 2362 2363 2367
5565 43 2361 2362 2363 2368
5566 43 2361 2362 2363 2369
5567 43 2358 2354 2353 2361
5568 43 2359 2354 2353 2361
5569 43 2360 2354 2353 2361
5570 43 2370 2371 2372 2376
5571 43 2370 2371 2372 2377
5572 43 2370 2371 2372 2378
5573 43 2367 2363 2362 2370
5574 43 2368 2363 2362 2370
5575 43 2369 2363 2362 2370
5576 43 2379 2380 2381 2385
5577 43 2379 2380 2381 2386
5578 43 2379 2380 2381 2387
5579 43 2376 2372 2371 2379
5580 43 2377 2372 2371 2379
5581 43 2378 2372 2371 2379
5582 43 2388 2389 2390 2394
5583 43 2388 2389 2390 2395
5584 43 2388 2389 2390 2396
5585 43 2385 2381 2380 2388
5586 43 2386 2381 2380 2388
5587 43 2387 2381 2380 2388
5588 43 2397 2398 2399 2403
5589 43 2397 2398 2399 2404
5590 43 2397 2398 2399 2405
5591 43 2394 2390 2389 2397
5592 43 2395 2390 2389 2397
5593 43 2396 2390 2389 2397
5594 43 2406 2407 2408 2412
5595 43 2406 2407 2408 2413
5596 43 2406 2407 2408 2414
5597 43 2403 2399 2398 2406
5598 43 2404 2399 2398 2406
5599 43 2405 2399 2398 2406
5600 43 2415 2416 2417 2421
5601 43 2415 2416 2417 2422
5602 43 2415 2416 2417 2423
5603 43 2412 2408 2407 2415
5604 43 2413 2408 2407 2415
5605 43 2414 2408 2407 2415
5606 43 2424 2425 2426 2430
5607 43 2424 2425 2426 2431
5608 43 2424 2425 2426 2432
5609 43 2421 2417 2416 2424
5610 43 2422 2417 2416 2424
5611 43 2423 2417 2416 2424
5612 43 2433 2434 2435 2439
5613 43 2433 2434 2435 2440
5614 43 2433 2434 2435 2441
5615 43 2430 2426 2425 2433
5616 43 2431 2426 2425 2433
5617 43 2432 2426 2425 2433
5618 43 2442 2443 2444 2448
5619 43 2442 2443 2444 2449
5620 43 2442 2443 2444 2450
5621 43 2439 2435 2434 2442
5622 43 2440 2435 2434 2442
5623 43 2441 2435 2434 2442
5624 43 2451 2452 2453 2457
5625 43 2451 2452 2453 2458
5626 43 2451 2452 2453 2459
5627 43 2448 2444 2443 2451
5628 43 2449 2444 2443 2451
5629 43 2450 2444 2443 2451
5630 43 2460 2461 2462 2466
5631 43 2460 2461 2462 2467
5632 43 2460 2461 2462 2468
5633 43 2457 2453 2452 2460
5634 43 2458 2453 2452 2460
5635 43 2459 2453 2452 2460
5636 43 2469 2470 2471 2475
5637 43 2469 2470 2471 2476
5638 43 2469 2470 2471 2477
5639 43 2466 2462 2461 2469
5640 43 2467 2462 2461 2469
5641 43 2468 2462 2461 2469
5642 43 2478 2479 2480 2484
5643 43 2478 2479 2480 2485
5644 43 2478 2479 2480 2486
5645 43 2475 2471 2470 2478
5646 43 2476 2471 2470 2478
5647 43 2477 2471 2470 2478
5648 43 2487 2488 2489 2493
5649 43 2487 2488 2489 2494
5650 43 2487 2488 2489 2495
5651 43 2484 2480 2479 2487
5652 43 2485 2480 2479 2487
5653 43 2486 2480 2479 2487
5654 43 2496 2497 2498 2502
5655 43 2496 2497 2498 2503
5656 43 2496 2497 2498 2504
5657 43 2493 2489 2488 2496
5658 43 2494 2489 2488 2496
5659 43 2495 2489 2488 2496
5660 43 2505 2506 2507 2511
5661 43 2505 2506 2507 2512
5662 43 2505 2506 2507 2513
5663 43 2502 2498 2497 2505
5664 43 2503 2498 2497 2505
5665 43 2504 2498 2497 2505
5666 43 2514 2515 2516 2520
5667 43 2514 2515 2516 2521
5668 43 2514 2515 2516 2522
5669 43 2511 2507 2506 2514
5670 43 2512 2507 2506 2514
5671 43 2513 2507 2506 2514
5672 43 2523 2524 2525 2529
5673 43 2523 2524 2525 2530
5674 43 2523 2524 2525 2531
5675 43 2520 2516 2515 2523
5676 43 2521 2516 2515 2523
5677 43 2522 2516 2515 2523
5678 43 2532 2533 2534 2538
5679 43 2532 2533 2534 2539
5680 43 2532 2533 2534 2540
5681 43 2529 2525 2524 2532
5682 43 2530 2525 2524 2532
5683 43 2531 2525 2524 2532
5684 43 2541 2542 2543 2547
5685 43 2541 2542 2543 2548
5686 43 2541 2542 2543 2549
5687 43 2538 2534 2533 2541
5688 43 2539 2534 2533 2541
5689 43 2540 2534 2533 2541
5690 43 2550 2551 2552 2556
5691 43 2550 2551 2552 2557
5692 43 2550 2551 2552 2558
5693 43 2547 2543 2542 2550
5694 43 2548 2543 2542 2550
5695 43 2549 2543 2542 2550
5696 43 2559 2560 2561 2565
5697 43 2559 2560 2561 2566
5698 43 2559 2560 2561 2567
5699 43 2556 2552 2551 2559
5700 43 2557 2552 2551 2559
5701 43 2558 2552 2551 2559
5702 43 2568 2569 2570 2574
5703 43 2568 2569 2570 2575
5704 43 2568 2569 2570 2576
5705 43 2565 2561 2560 2568
5706 43 2566 2561 2560 2568
5707 43 2567 2561 2560 2568
5708 43 2577 2578 2579 2583
5709 43 2577 2578 2579 2584
5710 43 2577 2578 2579 2585
5711 43 2574 2570 2569 2577
5712 43 2575 2570 2569 2577
5713 43 2576 2570 2569 2577
5714 43 2586 2587 2588 2592
5715 43 2586 2587 2588 2593
5716 43 2586 2587 2588 2594
5717 43 2583 2579 2578 2586
5718 43 2584 2579 2578 2586
5719 43 2585 2579 2578 2586
5720 43 2595 2596 2597 2601
5721 43 2595 2596 2597 2602
5722 43 2595 2596 2597 2603
5723 43 2592 2588 2587 2595
5724 43 2593 2588 2587 2595
5725 43 2594 2588 2587 2595
5726 43 2604 2605 2606 2610
5727 43 2604 2605 2606 2611
5728 43 2604 2605 2606 2612
5729 43 2601 2597 2596 2604
5730 43 2602 2597 2596 2604
5731 43 2603 2597 2596 2604
5732 43 2613 2614 2615 2619
5733 43 2613 2614 2615 2620
5734 43 2613 2614 2615 2621
5735 43 2610 2606 2605 2613
5736 43 2611 2606 2605 2613
5737 43 2612 2606 2605 2613
5738 43 2622 2623 2624 2628
5739 43 2622 2623 2624 2629
5740 43 2622 2623 2624 2630
5741 43 2619 2615 2614 2622
5742 43 2620 2615 2614 2622
5743 43 2621 2615 2614 2622
5744 43 2631 2632 2633 2637
5745 43 2631 2632 2633 2638
5746 43 2631 2632 2633 2639
5747 43 2628 2624 2623 2631
5748 43 2629 2624 2623 2631
5749 43 2630 2624 2623 2631
5750 43 2640 2641 2642 2646
5751 43 2640 2641 2642 2647
5752 43 2640 2641 2642 2648
5753 43 2637 2633 2632 2640
5754 43 2638 2633 2632 2640
5755 43 2639 2633 2632 2640
5756 43 2649 2650 2651 2655
5757 43 2649 2650 2651 2656
5758 43 2649 2650 2651 2657
5759 43 2646 2642 2641 2649
5760 43 2647 2642 2641 2649
5761 43 2648 2642 2641 2649
5762 43 2658 2659 2660 2664
5763 43 2658 2659 2660 2665
5764 43 2658 2659 2660 2666
5765 43 2655 2651 2650 2658
5766 43 2656 2651 2650 2658
5767 43 2657 2651 2650 2658
5768 43 2667 2668 2669 2673
5769 43 2667 2668 2669 2674
5770 43 2667 2668 2669 2675
5771 43 2664 2660 2659 2667
5772 43 2665 2660 2659 2667
5773 43 2666 2660 2659 2667
5774 43 2676 2677 2678 2682
5775 43 2676 2677 2678 2683
5776 43 2676 2677 2678 2684
5777 43 2673 2669 2668 2676
5778 43 2674 2669 2668 2676
5779 43 2675 2669 2668 2676
5780 43 2685 2686 2687 2691
5781 43 2685 2686 2687 2692
5782 43 2685 2686 2687 2693
5783 43 2682 2678 2677 2685
5784 43 2683 2678 2677 2685
5785 43 2684 2678 2677 2685
5786 43 2694 2695 2696 2700
5787 43 2694 2695 2696 2701
5788 43 2694 2695 2696 2702
5789 43 2691 2687 2686 2694
5790 43 2692 2687 2686 2694
5791 43 2693 2687 2686 2694
5792 43 2700 2696 2695 2703
5793 43 2701 2696 2695 2703
5794 43 2702 2696 2695 2703
5795 43 2723 2724 2725 2729
5796 43 2723 2724 2725 2730
5797 43 2723 2724 2725 2731
5798 43 2716 2713 2714 2723
5799 43 2717 2713 2714 2723
5800 43 2718 2713 2714 2723
5801 43 2720 2715 2714 2723
5802 43 2721 2715 2714 2723
5803 43 2722 2715 2714 2723
5804 43 2732 2733 2734 2738
5805 43 2732 2733 2734 2739
5806 43 2732 2733 2734 2740
5807 43 2729 2725 2724 2732
5808 43 2730 2725 2724 2732
5809 43 2731 2725 2724 2732
5810 43 2741 2742 2743 2747
5811 43 2741 2742 2743 2748
5812 43 2741 2742 2743 2749
5813 43 2738 2734 2733 2741
5814 43 2739 2734 2733 2741
5815 43 2740 2734 2733 2741
5816 43 2750 2751 2752 2756
5817 43 2750 2751 2752 2757
5818 43 2750 2751 2752 2758
5819 43 2747 2743 2742 2750
5820 43 2748 2743 2742 2750
5821 43 2749 2743 2742 2750
5822 43 2759 2760 2761 2765
5823 43 2759 2760 2761 2766
5824 43 2759 2760 2761 2767
5825 43 2756 2752 2751 2759
5826 43 2757 2752 2751 2759
5827 43 2758 2752 2751 2759
5828 43 2768 2769 2770 2774
5829 43 2768 2769 2770 2775
5830 43 2768 2769 2770 2776
5831 43 2765 2761 2760 2768
5832 43 2766 2761 2760 2768
5833 43 2767 2761 2760 2768
5834 43 2777 2778 2779 2783
5835 43 2777 2778 2779 2784
5836 43 2777 2778 2779 2785
5837 43 2774 2770 2769 2777
5838 43 2775 2770 2769 2777
5839 43 2776 2770 2769 2777
5840 43 2786 2787 2788 2792
5841 43 2786 2787 2788 2793
5842 43 2786 2787 2788 2794
5843 43 2783 2779 2778 2786
5844 43 2784 2779 2778 2786
5845 43 2785 2779 2778 2786
5846 43 2795 2796 2797 2801
5847 43 2795 2796 2797 2802
5848 43 2795 2796 2797 2803
5849 43 2792 2788 2787 2795
5850 43 2793 2788 2787 2795
5851 43 2794 2788 2787 2795
5852 43 2804 2805 2806 2810
5853 43 2804 2805 2806 2811
5854 43 2804 2805 2806 2812
5855 43 2801 2797 2796 2804
5856 43 2802 2797 2796 2804
5857 43 2803 2797 2796 2804
5858 43 2813 2814 2815 2819
5859 43 2813 2814 2815 2820
5860 43 2813 2814 2815 2821
5861 43 2810 2806 2805 2813
5862 43 2811 2806 2805 2813
5863 43 2812 2806 2805 2813
5864 43 2822 2823 2824 2828
5865 43 2822 2823 2824 2829
5866 43 2822 2823 2824 2830
5867 43 2819 2815 2814 2822
5868 43 2820 2815 2814 2822
5869 43 2821 2815 2814 2822
5870 43 2831 2832 2833 2837
5871 43 2831 2832 2833 2838
5872 43 2831 2832 2833 2839
5873 43 2828 2824 2823 2831
5874 43 2829 2824 2823 2831
5875 43 2830 2824 2823 2831
5876 43 2840 2841 2842 2846
5877 43 2840 2841 2842 2847
5878 43 2840 2841 2842 2848
5879 43 2837 2833 2832 2840
5880 43 2838 2833 2832 2840
5881 43 2839 2833 2832 2840
5882 43 2849 2850 2851 2855
5883 43 2849 2850 2851 2856
5884 43 2849 2850 2851 2857
5885 43 2846 2842 2841 2849
5886 43 2847 2842 2841 2849
5887 43 2848 2842 2841 2849
5888 43 2858 2859 2860 2864
5889 43 2858 2859 2860 2865
5890 43 2858 2859 2860 2866
5891 43 2855 2851 2850 2858
5892 43 2856 2851 2850 2858
5893 43 2857 2851 2850 2858
5894 43 2867 2868 2869 2873
5895 43 2867 2868 2869 2874
5896 43 2867 2868 2869 2875
5897 43 2864 2860 2859 2867
5898 43 2865 2860 2859 2867
5899 43 2866 2860 2859 2867
5900 43 2876 2877 2878 2882
5901 43 2876 2877 2878 2883
5902 43 2876 2877 2878 2884
5903 43 2873 2869 2868 2876
5904 43 2874 2869 2868 2876
5905 43 2875 2869 2868 2876
5906 43 2885 2886 2887 2891
5907 43 2885 2886 2887 2892
5908 43 2885 2886 2887 2893
5909 43 2882 2878 2877 2885
5910 43 2883 2878 2877 2885
5911 43 2884 2878 2877 2885
5912 43 2894 2895 2896 2900
5913 43 2894 2895 2896 2901
5914 43 2894 2895 2896 2902
5915 43 2891 2887 2886 2894
5916 43 2892 2887 2886 2894
5917 43 2893 2887 2886 2894
5918 43 2903 2904 2905 2909
5919 43 2903 2904 2905 2910
5920 43 2903 2904 2905 2911
5921 43 2900 2896 2895 2903
5922 43 2901 2896 2895 2903
5923 43 2902 2896 2895 2903
5924 43 2912 2913 2914 2918
5925 43 2912 2913 2914 2919
5926 43 2912 2913 2914 2920
5927 43 2909 2905 2904 2912
5928 43 2910 2905 2904 2912
5929 43 2911 2905 2904 2912
5930 43 2921 2922 2923 2927
5931 43 2921 2922 2923 2928
5932 43 2921 2922 2923 2929
5933 43 2918 2914 2913 2921
5934 43 2919 2914 2913 2921
5935 43 2920 2914 2913 2921
5936 43 2930 2931 2932 2936
5937 43 2930 2931 2932 2937
5938 43 2930 2931 2932 2938
5939 43 2927 2923 2922 2930
5940 43 2928 2923 2922 2930
5941 43 2929 2923 2922 2930
5942 43 2939 2940 2941 2945
5943 43 2939 2940 2941 2946
5944 43 2939 2940 2941 2947
5945 43 2936 2932 2931 2939
5946 43 2937 2932 2931 2939
5947 43 2938 2932 2931 2939
5948 43 2948 2949 2950 2954
5949 43 2948 2949 2950 2955
5950 43 2948 2949 2950 2956
5951 43 2945 2941 2940 2948
5952 43 2946 2941 2940 2948
5953 43 2947 2941 2940 2948
5954 43 2957 2958 2959 2963
5955 43 2957 2958 2959 2964
5956 43 2957 2958 2959 2965
5957 43 2954 2950 2949 2957
5958 43 2955 2950 2949 2957
5959 43 2956 2950 2949 2957
5960 43 2966 2967 2968 2972
5961 43 2966 2967 2968 2973
5962 43 2966 2967 2968 2974
5963 43 2963 2959 2958 2966
5964 43 2964 2959 2958 2966
5965 43 2965 2959 2958 2966
5966 43 2975 2976 2977 2981
5967 43 2975 2976 2977 2982
5968 43 2975 2976 2977 2983
5969 43 2972 2968 2967 2975
5970 43 2973 2968 2967 2975
5971 43 2974 2968 2967 2975
5972 43 2984 2985 2986 2990
5973 43 2984 2985 2986 2991
5974 43 2984 2985 2986 2992
5975 43 2981 2977 2976 2984
5976 43 2982 2977 2976 2984
5977 43 2983 2977 2976 2984
5978 43 2993 2994 2995 2999
5979 43 2993 2994 2995 3000
5980 43 2993 2994 2995 3001
5981 43 2990 2986 2985 2993
5982 43 2991 2986 2985 2993
5983 43 2992 2986 2985 2993
5984 43 3002 3003 3004 3008
5985 43 3002 3003 3004 3009
5986 43 3002 3003 3004 3010
5987 43 2999 2995 2994 3002
5988 43 3000 2995 2994 3002
5989 43 3001 2995 2994 3002
5990 43 3011 3012 3013 3017
5991 43 3011 3012 3013 3018
5992 43 3011 3012 3013 3019
5993 43 3008 3004 3003 3011
5994 43 3009 3004 3003 3011
5995 43 3010 3004 3003 3011
5996 43 3020 3021 3022 3026
5997 43 3020 3021 3022 3027
5998 43 3020 3021 3022 3028
5999 43 3017 3013 3012 3020
6000 43 3018 3013 3012 3020
6001 43 3019 3013 3012 3020
6002 43 3029 3030 3031 3035
6003 43 3029 3030 3031 3036
6004 43 3029 3030 3031 3037
6005 43 3026 3022 3021 3029
6006 43 3027 3022 3021 3029
6007 43 3028 3022 3021 3029
6008 43 3038 3039 3040 3044
6009 43 3038 3039 3040 3045
6010 43 3038 3039 3040 3046
6011 43 3035 3031 3030 3038
6012 43 3036 3031 3030 3038
6013 43 3037 3031 3030 3038
6014 43 3047 3048 3049 3053
6015 43 3047 3048 3049 3054
6016 43 3047 3048 3049 3055
6017 43 3044 3040 3039 3047
6018 43 3045 3040 3039 3047
6019 43 3046 3040 3039 3047
6020 43 3056 3057 3058 3062
6021 43 3056 3057 3058 3063
6022 43 3056 3057 3058 3064
6023 43 3053 3049 3048 3056
6024 43 3054 3049 3048 3056
6025 43 3055 3049 3048 3056
6026 43 3065 3066 3067 3071
6027 43 3065 3066 3067 3072
6028 43 3065 3066 3067 3073
6029 43 3062 3058 3057 3065
6030 43 3063 3058 3057 3065
6031 43 3064 3058 3057 3065
6032 43 3074 3075 3076 3080
6033 43 3074 3075 3076 3081
6034 43 3074 3075 3076 3082
6035 43 3071 3067 3066 3074
6036 43 3072 3067 3066 3074
6037 43 3073 3067 3066 3074
6038 43 3083 3084 3085 3089
6039 43 3083 3084 3085 3090
6040 43 3083 3084 3085 3091
6041 43 3080 3076 3075 3083
6042 43 3081 3076 3075 3083
6043 43 3082 3076 3075 3083
6044 43 3092 3093 3094 3098
6045 43 3092 3093 3094 3099
6046 43 3092 3093 3094 3100
6047 43 3089 3085 3084 3092
6048 43 3090 3085 3084 3092
6049 43 3091 3085 3084 3092
6050 43 3101 3102 3103 3107
6051 43 3101 3102 3103 3108
6052 43 3101 3102 3103 3109
6053 43 3098 3094 3093 3101
6054 43 3099 3094 3093 3101
6055 43 3100 3094 3093 3101
6056 43 3110 3111 3112 3116
6057 43 3110 3111 3112 3117
6058 43 3110 3111 3112 3118
6059 43 3107 3103 3102 3110
6060 43 3108 3103 3102 3110
6061 43 3109 3103 3102 3110
6062 43 3119 3120 3121 3125
6063 43 3119 3120 3121 3126
6064 43 3119 3120 3121 3127
6065 43 3116 3112 3111 3119
6066 43 3117 3112 3111 3119
6067 43 3118 3112 3111 3119
6068 43 3128 3129 3130 3134
6069 43 3128 3129 3130 3135
6070 43 3128 3129 3130 3136
6071 43 3125 3121 3120 3128
6072 43 3126 3121 3120 3128
6073 43 3127 3121 3120 3128
6074 43 3137 3138 3139 3143
6075 43 3137 3138 3139 3144
6076 43 3137 3138 3139 3145
6077 43 3134 3130 3129 3137
6078 43 3135 3130 3129 3137
6079 43 3136 3130 3129 3137
6080 43 3146 3147 3148 3152
6081 43 3146 3147 3148 3153
6082 43 3146 3147 3148 3154
6083 43 3143 3139 3138 3146
6084 43 3144 3139 3138 3146
6085 43 3145 3139 3138 3146
6086 43 3152 3148 3147 3155
6087 43 3153 3148 3147 3155
6088 43 3154 3148 3147 3155
6089 43 3175 3176 3177 3181
6090 43 3175 3176 3177 3182
6091 43 3175 3176 3177 3183
6092 43 3168 3165 3166 3175
6093 43 3169 3165 3166 3175
6094 43 3170 3165 3166 3175
6095 43 3172 3167 3166 3175
6096 43 3173 3167 3166 3175
6097 43 3174 3167 3166 3175
6098 43 3184 3185 3186 3190
6099 43 3184 3185 3186 3191
6100 43 3184 3185 3186 3192
6101 43 3181 3177 3176 3184
6102 43 3182 3177 3176 3184
6103 43 3183 3177 3176 3184
6104 43 3193 3194 3195 3199
6105 43 3193 3194 3195 3200
6106 43 3193 3194 3195 3201
6107 43 3190 3186 3185 3193
6108 43 3191 3186 3185 3193
6109 43 3192 3186 3185 3193
6110 43 3202 3203 3204 3208
6111 43 3202 3203 3204 3209
6112 43 3202 3203 3204 3210
6113 43 3199 3195 3194 3202
6114 43 3200 3195 3194 3202
6115 43 3201 3195 3194 3202
6116 43 3211 3212 3213 3217
6117 43 3211 3212 3213 3218
6118 43 3211 3212 3213 3219
6119 43 3208 3204 3203 3211
6120 43 3209 3204 3203 3211
6121 43 3210 3204 3203 3211
6122 43 3220 3221 3222 3226
6123 43 3220 3221 3222 3227
6124 43 3220 3221 3222 3228
6125 43 3217 3213 3212 3220
6126 43 3218 3213 3212 3220
6127 43 3219 3213 3212 3220
6128 43 3229 3230 3231 3235
6129 43 3229 3230 3231 3236
6130 43 3229 3230 3231 3237
6131 43 3226 3222 3221 3229
6132 43 3227 3222 3221 3229
6133 43 3228 3222 3221 3229
6134 43 3238 3239 3240 3244
6135 43 3238 3239 3240 3245
6136 43 3238 3239 3240 3246
6137 43 3235 3231 3230 3238
6138 43 3236 3231 3230 3238
6139 43 3237 3231 3230 3238
6140 43 3247 3248 3249 3253
6141 43 3247 3248 3249 3254
6142 43 3247 3248 3249 3255
6143 43 3244 3240 3239 3247
6144 43 3245 3240 3239 3247
6145 43 3246 3240 3239 3247
6146 43 3256 3257 3258 3262
6147 43 3256 3257 3258 3263
6148 43 3256 3257 3258 3264
6149 43 3253 3249 3248 3256
6150 43 3254 3249 3248 3256
6151 43 3255 3249 3248 3256
6152 43 3265 3266 3267 3271
6153 43 3265 3266 3267 3272
6154 43 3265 3266 3267 3273
6155 43 3262 3258 3257 3265
6156 43 3263 3258 3257 3265
6157 43 3264 3258 3257 3265
6158 43 3274 3275 3276 3280
6159 43 3274 3275 3276 3281
6160 43 3274 3275 3276 3282
6161 43 3271 3267 3266 3274
6162 43 3272 3267 3266 3274
6163 43 3273 3267 3266 3274
6164 43 3283 3284 3285 3289
6165 43 3283 3284 3285 3290
6166 43 3283 3284 3285 3291
6167 43 3280 3276 3275 3283
6168 43 3281 3276 3275 3283
6169 43 3282 3276 3275 3283
6170 43 3292 3293 3294 3298
6171 43 3292 3293 3294 3299
6172 43 3292 3293 3294 3300
6173 43 3289 3285 3284 3292
6174 43 3290 3285 3284 3292
6175 43 3291 3285 3284 3292
6176 43 3301 3302 3303 3307
6177 43 3301 3302 3303 3308
6178 43 3301 3302 3303 3309
6179 43 3298 3294 3293 3301
6180 43 3299 3294 3293 3301
6181 43 3300 3294 3293 3301
6182 43 3310 3311 3312 3316
6183 43 3310 3311 3312 3317
6184 43 3310 3311 3312 3318
6185 43 3307 3303 3302 3310
6186 43 3308 3303 3302 3310
6187 43 3309 3303 3302 3310
6188 43 3319 3320 3321 3325
6189 43 3319 3320 3321 3326
6190 43 3319 3320 3321 3327
6191 43 3316 3312 3311 3319
6192 43 3317 3312 3311 3319
6193 43 3318 3312 3311 3319
6194 43 3328 3329 3330 3334
6195 43 3328 3329 3330 3335
6196 43 3328 3329 3330 3336
6197 43 3325 3321 3320 3328
6198 43 3326 3321 3320 3328
6199 43 3327 3321 3320 3328
6200 43 3337 3338 3339 3343
6201 43 3337 3338 3339 3344
6202 43 3337 3338 3339 3345
6203 43 3334 3330 3329 3337
6204 43 3335 3330 3329 3337
6205 43 3336 3330 3329 3337
6206 43 3346 3347 3348 3352
6207 43 3346 3347 3348 3353
6208 43 3346 3347 3348 3354
6209 43 3343 3339 3338 3346
6210 43 3344 3339 3338 3346
6211 43 3345 3339 3338 3346
6212 43 3355 3356 3357 3361
6213 43 3355 3356 3357 3362
6214 43 3355 3356 3357 3363
6215 43 3352 3348 3347 3355
6216 43 3353 3348 3347 3355
6217 43 3354 3348 3347 3355
6218 43 3364 3365 3366 3370
6219 43 3364 3365 3366 3371
6220 43 3364 3365 3366 3372
6221 43 3361 3357 3356 3364
6222 43 3362 3357 3356 3364
6223 43 3363 3357 3356 3364
6224 43 3373 3374 3375 3379
6225 43 3373 3374 3375 3380
6226 43 3373 3374 3375 3381
6227 43 3370 3366 3365 3373
6228 43 3371 3366 3365 3373
6229 43 3372 3366 3365 3373
6230 43 3382 3383 3384 3388
6231 43 3382 3383 3384 3389
6232 43 3382 3383 3384 3390
6233 43 3379 3375 3374 3382
6234 43 3380 3375 3374 3382
6235 43 3381 3375 3374 3382
6236 43 3391 3392 3393 3397
6237 43 3391 3392 3393 3398
6238 43 3391 3392 3393 3399
6239 43 3388 3384 3383 3391
6240 43 3389 3384 3383 3391
6241 43 3390 3384 3383 3391
6242 43 3400 3401 3402 3406
6243 43 3400 3401 3402 3407
6244 43 3400 3401 3402 3408
6245 43 3397 3393 3392 3400
6246 43 3398 3393 3392 3400
6247 43 3399 3393 3392 3400
6248 43 3409 3410 3411 3415
6249 43 3409 3410 3411 3416
6250 43 3409 3410 3411 3417
6251 43 3406 3402 3401 3409
6252 43 3407 3402 3401 3409
6253 43 3408 3402 3401 3409
6254 43 3418 3419 3420 3424
6255 43 3418 3419 3420 3425
6256 43 3418 3419 3420 3426
6257 43 3415 3411 3410 3418
6258 43 3416 3411 3410 3418
6259 43 3417 3411 3410 3418
6260 43 3427 3428 3429 3433
6261 43 3427 3428 3429 3434
6262 43 3427 3428 3429 3435
6263 43 3424 3420 3419 3427
6264 43 3425 3420 3419 3427
6265 43 3426 3420 3419 3427
6266 43 3436 3437 3438 3442
6267 43 3436 3437 3438 3443
6268 43 3436 3437 3438 3444
6269 43 3433 3429 3428 3436
6270 43 3434 3429 3428 3436
6271 43 3435 3429 3428 3436
6272 43 3445 3446 3447 3451
6273 43 3445 3446 3447 3452
6274 43 3445 3446 3447 3453
6275 43 3442 3438 3437 3445
6276 43 3443 3438 3437 3445
6277 43 3444 3438 3437 3445
6278 43 3454 3455 3456 3460
6279 43 3454 3455 3456 3461
6280 43 3454 3455 3456 3462
6281 43 3451 3447 3446 3454
6282 43 3452 3447 3446 3454
6283 43 3453 3447 3446 3454
6284 43 3463 3464 3465 3469
6285 43 3463 3464 3465 3470
6286 43 3463 3464 3465 3471
6287 43 3460 3456 3455 3463
6288 43 3461 3456 3455 3463
6289 43 3462 3456 3455 3463
6290 43 3472 3473 3474 3478
6291 43 3472 3473 3474 3479
6292 43 3472 3473 3474 3480
6293 43 3469 3465 3464 3472
6294 43 3470 3465 3464 3472
6295 43 3471 3465 3464 3472
6296 43 3481 3482 3483 3487
6297 43 3481 3482 3483 3488
6298 43 3481 3482 3483 3489
6299 43 3478 3474 3473 3481
6300 43 3479 3474 3473 3481
6301 43 3480 3474 3473 3481
6302 43 3490 3491 3492 3496
6303 43 3490 3491 3492 3497
6304 43 3490 3491 3492 3498
6305 43 3487 3483 3482 3490
6306 43 3488 3483 3482 3490
6307 43 3489 3483 3482 3490
6308 43 3499 3500 3501 3505
6309 43 3499 3500 3501 3506
6310 43 3499 3500 3501 3507
6311 43 3496 3492 3491 3499
6312 43 3497 3492 3491 3499
6313 43 3498 3492 3491 3499
6314 43 3508 3509 3510 3514
6315 43 3508 3509 3510 3515
6316 43 3508 3509 3510 3516
6317 43 3505 3501 3500 3508
6318 43 3506 3501 3500 3508
6319 43 3507 3501 3500 3508
6320 43 3517 3518 3519 3523
6321 43 3517 3518 3519 3524
6322 43 3517 3518 3519 3525
6323 43 3514 3510 3509 3517
6324 43 3515 3510 3509 3517
6325 43 3516 3510 3509 3517
6326 43 3526 3527 3528 3532
6327 43 3526 3527 3528 3533
6328 43 3526 3527 3528 3534
6329 43 3523 3519 3518 3526
6330 43 3524 3519 3518 3526
6331 43 3525 3519 3518 3526
6332 43 3535 3536 3537 3541
6333 43 3535 3536 3537 3542
6334 43 3535 3536 3537 3543
6335 43 3532 3528 3527 3535
6336 43 3533 3528 3527 3535
6337 43 3534 3528 3527 3535
6338 43 3544 3545 3546 3550
6339 43 3544 3545 3546 3551
6340 43 3544 3545 3546 3552
6341 43 3541 3537 3536 3544
6342 43 3542 3537 3536 3544
6343 43 3543 3537 3536 3544
6344 43 3553 3554 3555 3559
6345 43 3553 3554 3555 3560
6346 43 3553 3554 3555 3561
6347 43 3550 3546 3545 3553
6348 43 3551 3546 3545 3553
6349 43 3552 3546 3545 3553
6350 43 3562 3563 3564 3568
6351 43 3562 3563 3564 3569
6352 43 3562 3563 3564 3570
6353 43 3559 3555 3554 3562
6354 43 3560 3555 3554 3562
6355 43 3561 3555 3554 3562
6356 43 3571 3572 3573 3577
6357 43 3571 3572 3573 3578
6358 43 3571 3572 3573 3579
6359 43 3568 3564 3563 3571
6360 43 3569 3564 3563 3571
6361 43 3570 3564 3563 3571
6362 43 3580 3581 3582 3586
6363 43 3580 3581 3582 3587
6364 43 3580 3581 3582 3588
6365 43 3577 3573 3572 3580
6366 43 3578 3573 3572 3580
6367 43 3579 3573 3572 3580
6368 43 3589 3590 3591 3595
6369 43 3589 3590 3591 3596
6370 43 3589 3590 3591 3597
6371 43 3586 3582 3581 3589
6372 43 3587 3582 3581 3589
6373 43 3588 3582 3581 3589
6374 43 3598 3599 3600 3604
6375 43 3598 3599 3600 3605
6376 43 3598 3599 3600 3606
6377 43 3595 3591 3590 3598
6378 43 3596 3591 3590 3598
6379 43 3597 3591 3590 3598
6380 43 3604 3600 3599 3607
6381 43 3605 3600 3599 3607
6382 43 3606 3600 3599 3607
6383 43 3627 3628 3629 3633
6384 43 3627 3628 3629 3634
6385 43 3627 3628 3629 3635
6386 43 3620 3617 3618 3627
6387 43 3621 3617 3618 3627
6388 43 3622 3617 3618 3627
6389 43 3624 3619 3618 3627
6390 43 3625 3619 3618 3627
6391 43 3626 3619 3618 3627
6392 43 3636 3637 3638 3642
6393 43 3636 3637 3638 3643
6394 43 3636 3637 3638 3644
6395 43 3633 3629 3628 3636
6396 43 3634 3629 3628 3636
6397 43 3635 3629 3628 3636
6398 43 3645 3646 3647 3651
6399 43 3645 3646 3647 3652
6400 43 3645 3646 3647 3653
6401 43 3642 3638 3637 3645
6402 43 3643 3638 3637 3645
6403 43 3644 3638 3637 3645
6404 43 3654 3655 3656 3660
6405 43 3654 3655 3656 3661
6406 43 3654 3655 3656 3662
6407 43 3651 3647 3646 3654
6408 43 3652 3647 3646 3654
6409 43 3653 3647 3646 3654
6410 43 3663 3664 3665 3669
6411 43 3663 3664 3665 3670
6412 43 3663 3664 3665 3671
6413 43 3660 3656 3655 3663
6414 43 3661 3656 3655 3663
6415 43 3662 3656 3655 3663
6416 43 3672 3673 3674 3678
6417 43 3672 3673 3674 3679
6418 43 3672 3673 3674 3680
6419 43 3669 3665 3664 3672
6420 43 3670 3665 3664 3672
6421 43 3671 3665 3664 3672
6422 43 3681 3682 3683 3687
6423 43 3681 3682 3683 3688
6424 43 3681 3682 3683 3689
6425 43 3678 3674 3673 3681
6426 43 3679 3674 3673 3681
6427 43 3680 3674 3673 3681
6428 43 3690 3691 3692 3696
6429 43 3690 3691 3692 3697
6430 43 3690 3691 3692 3698
6431 43 3687 3683 3682 3690
6432 43 3688 3683 3682 3690
6433 43 3689 3683 3682 3690
6434 43 3699 3700 3701 3705
6435 43 3699 3700 3701 3706
6436 43 3699 3700 3701 3707
6437 43 3696 3692 3691 3699
6438 43 3697 3692 3691 3699
6439 43 3698 3692 3691 3699
6440 43 3708 3709 3710 3714
6441 43 3708 3709 3710 3715
6442 43 3708 3709 3710 3716
6443 43 3705 3701 3700 3708
6444 43 3706 3701 3700 3708
6445 43 3707 3701 3700 3708
6446 43 3717 3718 3719 3723
6447 43 3717 3718 3719 3724
6448 43 3717 3718 3719 3725
6449 43 3714 3710 3709 3717
6450 43 3715 3710 3709 3717
6451 43 3716 3710 3709 3717
6452 43 3726 3727 3728 3732
6453 43 3726 3727 3728 3733
6454 43 3726 3727 3728 3734
6455 43 3723 3719 3718 3726
6456 43 3724 3719 3718 3726
6457 43 3725 3719 3718 3726
6458 43 3735 3736 3737 3741
6459 43 3735 3736 3737 3742
6460 43 3735 3736 3737 3743
6461 43 3732 3728 3727 3735
6462 43 3733 3728 3727 3735
6463 43 3734 3728 3727 3735
6464 43 3744 3745 3746 3750
6465 43 3744 3745 3746 3751
6466 43 3744 3745 3746 3752
6467 43 3741 3737 3736 3744
6468 43 3742 3737 3736 3744
6469 43 3743 3737 3736 3744
6470 43 3753 3754 3755 3759
6471 43 3753 3754 3755 3760
6472 43 3753 3754 3755 3761
6473 43 3750 3746 3745 3753
6474 43 3751 3746 3745 3753
6475 43 3752 3746 3745 3753
6476 43 3762 3763 3764 3768
6477 43 3762 3763 3764 3769
6478 43 3762 3763 3764 3770
6479 43 3759 3755 3754 3762
6480 43 3760 3755 3754 3762
6481 43 3761 3755 3754 3762
6482 43 3771 3772 3773 3777
6483 43 3771 3772 3773 3778
6484 43 3771 3772 3773 3779
6485 43 3768 3764 3763 3771
6486 43 3769 3764 3763 3771
6487 43 3770 3764 3763 3771
6488 43 3780 3781 3782 3786
6489 43 3780 3781 3782 3787
6490 43 3780 3781 3782 3788
6491 43 3777 3773 3772 3780
6492 43 3778 3773 3772 3780
6493 43 3779 3773 3772 3780
6494 43 3789 3790 3791 3795
6495 43 3789 3790 3791 3796
6496 43 3789 3790 3791 3797
6497 43 3786 3782 3781 3789
6498 43 3787 3782 3781 3789
6499 43 3788 3782 3781 3789
6500 43 3798 3799 3800 3804
6501 43 3798 3799 3800 3805
6502 43 3798 3799 3800 3806
6503 43 3795 3791 3790 3798
6504 43 3796 3791 3790 3798
6505 43 3797 3791 3790 3798
6506 43 3807 3808 3809 3813
6507 43 3807 3808 3809 3814
6508 43 3807 3808 3809 3815
6509 43 3804 3800 3799 3807
6510 43 3805 3800 3799 3807
6511 43 3806 3800 3799 3807
6512 43 3816 3817 3818 3822
6513 43 3816 3817 3818 3823
6514 43 3816 3817 3818 3824
6515 43 3813 3809 3808 3816
6516 43 3814 3809 3808 3816
6517 43 3815 3809 3808 3816
6518 43 3825 3826 3827 3831
6519 43 3825 3826 3827 3832
6520 43 3825 3826 3827 3833
6521 43 3822 3818 3817 3825
6522 43 3823 3818 3817 3825
6523 43 3824 3818 3817 3825
6524 43 3834 3835 3836 3840
6525 43 3834 3835 3836 3841
6526 43 3834 3835 3836 3842
6527 43 3831 3827 3826 3834
6528 43 3832 3827 3826 3834
6529 43 3833 3827 3826 3834
6530 43 3843 3844 3845 3849
6531 43 3843 3844 3845 3850
6532 43 3843 3844 3845 3851
6533 43 3840 3836 3835 3843
6534 43 3841 3836 3835 3843
6535 43 3842 3836 3835 3843
6536 43 3852 3853 3854 3858
6537 43 3852 3853 3854 3859
6538 43 3852 3853 3854 3860
6539 43 3849 3845 3844 3852
6540 43 3850 3845 3844 3852
6541 43 3851 3845 3844 3852
6542 43 3861 3862 3863 3867
6543 43 3861 3862 3863 3868
6544 43 3861 3862 3863 3869
6545 43 3858 3854 3853 3861
6546 43 3859 3854 3853 3861
6547 43 3860 3854 3853 3861
6548 43 3870 3871 3872 3876
6549 43 3870 3871 3872 3877
6550 43 3870 3871 3872 3878
6551 43 3867 3863 3862 3870
6552 43 3868 3863 3862 3870
6553 43 3869 3863 3862 3870
6554 43 3879 3880 3881 3885
6555 43 3879 3880 3881 3886
6556 43 3879 3880 3881 3887
6557 43 3876 3872 3871 3879
6558 43 3877 3872 3871 3879
6559 43 3878 3872 3871 3879
6560 43 3888 3889 3890 3894
6561 43 3888 3889 3890 3895
6562 43 3888 3889 3890 3896
6563 43 3885 3881 3880 3888
6564 43 3886 3881 3880 3888
6565 43 3887 3881 3880 3888
6566 43 3897 3898 3899 3903
6567 43 3897 3898 3899 3904
6568 43 3897 3898 3899 3905
6569 43 3894 3890 3889 3897
6570 43 3895 3890 3889 3897
6571 43 3896 3890 3889 3897
6572 43 3906 3907 3908 3912
6573 43 3906 3907 3908 3913
6574 43 3906 3907 3908 3914
6575 43 3903 3899 3898 3906
6576 43 3904 3899 3898 3906
6577 43 3905 3899 3898 3906
6578 43 3915 3916 3917 3921
6579 43 3915 3916 3917 3922
6580 43 3915 3916 3917 3923
6581 43 3912 3908 3907 3915
6582 43 3913 3908 3907 3915
6583 43 3914 3908 3907 3915
6584 43 3924 3925 3926 3930
6585 43 3924 3925 3926 3931
6586 43 3924 3925 3926 3932
6587 43 3921 3917 3916 3924
6588 43 3922 3917 3916 3924
6589 43 3923 3917 3916 3924
6590 43 3933 3934 3935 3939
6591 43 3933 3934 3935 3940
6592 43 3933 3934 3935 3941
6593 43 3930 3926 3925 3933
6594 43 3931 3926 3925 3933
6595 43 3932 3926 3925 3933
6596 43 3942 3943 3944 3948
6597 43 3942 3943 3944 3949
6598 43 3942 3943 3944 3950
6599 43 3939 3935 3934 3942
6600 43 3940 3935 3934 3942
6601 43 3941 3935 3934 3942
6602 43 3951 3952 3953 3957
6603 43 3951 3952 3953 3958
6604 43 3951 3952 3953 3959
6605 43 3948 3944 3943 3951
6606 43 3949 3944 3943 3951
6607 43 3950 3944 3943 3951
6608 43 3960 3961 3962 3966
6609 43 3960 3961 3962 3967
6610 43 3960 3961 3962 3968
6611 43 3957 3953 3952 3960
6612 43 3958 3953 3952 3960
6613 43 3959 3953 3952 3960
6614 43 3969 3970 3971 3975
6615 43 3969 3970 3971 3976
6616 43 3969 3970 3971 3977
6617 43 3966 3962 3961 3969
6618 43 3967 3962 3961 3969
6619 43 3968 3962 3961 3969
6620 43 3978 3979 3980 3984
6621 43 3978 3979 3980 3985
6622 43 3978 3979 3980 3986
6623 43 3975 3971 3970 3978
6624 43 3976 3971 3970 3978
6625 43 3977 3971 3970 3978
6626 43 3987 3988 3989 3993
6627 43 3987 3988 3989 3994
6628 43 3987 3988 3989 3995
6629 43 3984 3980 3979 3987
6630 43 3985 3980 3979 3987
6631 43 3986 3980 3979 3987
6632 43 3996 3997 3998 4002
6633 43 3996 3997 3998 4003
6634 43 3996 3997 3998 4004
6635 43 3993 3989 3988 3996
6636 43 3994 3989 3988 3996
6637 43 3995 3989 3988 3996
6638 43 4005 4006 4007 4011
6639 43 4005 4006 4007 4012
6640 43 4005 4006 4007 4013
6641 43 4002 3998 3997 4005
6642 43 4003 3998 3997 4005
6643 43 4004 3998 3997 4005
6644 43 4014 4015 4016 4020
6645 43 4014 4015 4016 4021
6646 43 4014 4015 4016 4022
6647 43 4011 4007 4006 4014
6648 43 4012 4007 4006 4014
6649 43 4013 4007 4006 4014
6650 43 4023 4024 4025 4029
6651 43 4023 4024 4025 4030
6652 43 4023 4024 4025 4031
6653 43 4020 4016 4015 4023
6654 43 4021 4016 4015 4023
6655 43 4022 4016 4015 4023
6656 43 4032 4033 4034 4038
6657 43 4032 4033 4034 4039
6658 43 4032 4033 4034 4040
6659 43 4029 4025 4024 4032
6660 43 4030 4025 4024 4032
6661 43 4031 4025 4024 4032
6662 43 4041 4042 4043 4047
6663 43 4041 4042 4043 4048
6664 43 4041 4042 4043 4049
6665 43 4038 4034 4033 4041
6666 43 4039 4034 4033 4041
6667 43 4040 4034 4033 4041
6668 43 4050 4051 4052 4056
6669 43 4050 4051 4052 4057
6670 43 4050 4051 4052 4058
6671 43 4047 4043 4042 4050
6672 43 4048 4043 4042 4050
6673 43 4049 4043 4042 4050
6674 43 4056 4052 4051 4059
6675 43 4057 4052 4051 4059
6676 43 4058 4052 4051 4059
6677 43 4079 4080 4081 4085
6678 43 4079 4080 4081 4086
6679 43 4079 4080 4081 4087
6680 43 4072 4069 4070 4079
6681 43 4073 4069 4070 4079
6682 43 4074 4069 4070 4079
6683 43 4076 4071 4070 4079
6684 43 4077 4071 4070 4079
6685 43 4078 4071 4070 4079
6686 43 4088 4089 4090 4094
6687 43 4088 4089 4090 4095
6688 43 4088 4089 4090 4096
6689 43 4085 4081 4080 4088
6690 43 4086 4081 4080 4088
6691 43 4087 4081 4080 4088
6692 43 4097 4098 4099 4103
6693 43 4097 4098 4099 4104
6694 43 4097 4098 4099 4105
6695 43 4094 4090 4089 4097
6696 43 4095 4090 4089 4097
6697 43 4096 4090 4089 4097
6698 43 4106 4107 4108 4112
6699 43 4106 4107 4108 4113
6700 43 4106 4107 4108 4114
6701 43 4103 4099 4098 4106
6702 43 4104 4099 4098 4106
6703 43 4105 4099 4098 4106
6704 43 4115 4116 4117 4121
6705 43 4115 4116 4117 4122
6706 43 4115 4116 4117 4123
6707 43 4112 4108 4107 4115
6708 43 4113 4108 4107 4115
6709 43 4114 4108 4107 4115
6710 43 4124 4125 4126 4130
6711 43 4124 4125 4126 4131
6712 43 4124 4125 4126 4132
6713 43 4121 4117 4116 4124
6714 43 4122 4117 4116 4124
6715 43 4123 4117 4116 4124
6716 43 4133 4134 4135 4139
6717 43 4133 4134 4135 4140
6718 43 4133 4134 4135 4141
6719 43 4130 4126 4125 4133
6720 43 4131 4126 4125 4133
6721 43 4132 4126 4125 4133
6722 43 4142 4143 4144 4148
6723 43 4142 4143 4144 4149
6724 43 4142 4143 4144 4150
6725 43 4139 4135 4134 4142
6726 43 4140 4135 4134 4142
6727 43 4141 4135 4134 4142
6728 43 4151 4152 4153 4157
6729 43 4151 4152 4153 4158
6730 43 4151 4152 4153 4159
6731 43 4148 4144 4143 4151
6732 43 4149 4144 4143 4151
6733 43 4150 4144 4143 4151
6734 43 4160 4161 4162 4166
6735 43 4160 4161 4162 4167
6736 43 4160 4161 4162 4168
6737 43 4157 4153 4152 4160
6738 43 4158 4153 4152 4160
6739 43 4159 4153 4152 4160
6740 43 4169 4170 4171 4175
6741 43 4169 4170 4171 4176
6742 43 4169 4170 4171 4177
6743 43 4166 4162 4161 4169
6744 43 4167 4162 4161 4169
6745 43 4168 4162 4161 4169
6746 43 4178 4179 4180 4184
6747 43 4178 4179 4180 4185
6748 43 4178 4179 4180 4186
6749 43 4175 4171 4170 4178
6750 43 4176 4171 4170 4178
6751 43 4177 4171 4170 4178
6752 43 4187 4188 4189 4193
6753 43 4187 4188 4189 4194
6754 43 4187 4188 4189 4195
6755 43 4184 4180 4179 4187
6756 43 4185 4180 4179 4187
6757 43 4186 4180 4179 4187
6758 43 4196 4197 4198 4202
6759 43 4196 4197 4198 4203
6760 43 4196 4197 4198 4204
6761 43 4193 4189 4188 4196
6762 43 4194 4189 4188 4196
6763 43 4195 4189 4188 4196
6764 43 4205 4206 4207 4211
6765 43 4205 4206 4207 4212
6766 43 4205 4206 4207 4213
6767 43 4202 4198 4197 4205
6768 43 4203 4198 4197 4205
6769 43 4204 4198 4197 4205
6770 43 4214 4215 4216 4220
6771 43 4214 4215 4216 4221
6772 43 4214 4215 4216 4222
6773 43 4211 4207 4206 4214
6774 43 4212 4207 4206 4214
6775 43 4213 4207 4206 4214
6776 43 4223 4224 4225 4229
6777 43 4223 4224 4225 4230
6778 43 4223 4224 4225 4231
6779 43 4220 4216 4215 4223
6780 43 4221 4216 4215 4223
6781 43 4222 4216 4215 4223
6782 43 4232 4233 4234 4238
6783 43 4232 4233 4234 4239
6784 43 4232 4233 4234 4240
6785 43 4229 4225 4224 4232
6786 43 4230 4225 4224 4232
6787 43 4231 4225 4224 4232
6788 43 4241 4242 4243 4247
6789 43 4241 4242 4243 4248
6790 43 4241 4242 4243 4249
6791 43 4238 4234 4233 4241
6792 43 4239 4234 4233 4241
6793 43 4240 4234 4233 4241
6794 43 4250 4251 4252 4256
6795 43 4250 4251 4252 4257
6796 43 4250 4251 4252 4258
6797 43 4247 4243 4242 4250
6798 43 4248 4243 4242 4250
6799 43 4249 4243 4242 4250
6800 43 4259 4260 4261 4265
6801 43 4259 4260 4261 4266
6802 43 4259 4260 4261 4267
6803 43 4256 4252 4251 4259
6804 43 4257 4252 4251 4259
6805 43 4258 4252 4251 4259
6806 43 4268 4269 4270 4274
6807 43 4268 4269 4270 4275
6808 43 4268 4269 4270 4276
6809 43 4265 4261 4260 4268
6810 43 4266 4261 4260 4268
6811 43 4267 4261 4260 4268
6812 43 4277 4278 4279 4283
6813 43 4277 4278 4279 4284
6814 43 4277 4278 4279 4285
6815 43 4274 4270 4269 4277
6816 43 4275 4270 4269 4277
6817 43 4276 4270 4269 4277
6818 43 4286 4287 4288 4292
6819 43 4286 4287 4288 4293
6820 43 4286 4287 4288 4294
6821 43 4283 4279 4278 4286
6822 43 4284 4279 4278 4286
6823 43 4285 4279 4278 4286
6824 43 4295 4296 4297 4301
6825 43 4295 4296 4297 4302
6826 43 4295 4296 4297 4303
6827 43 4292 4288 4287 4295
6828 43 4293 4288 4287 4295
6829 43 4294 4288 4287 4295
6830 43 4304 4305 4306 4310
6831 43 4304 4305 4306 4311
6832 43 4304 4305 4306 4312
6833 43 4301 4297 4296 4304
6834 43 4302 4297 4296 4304
6835 43 4303 4297 4296 4304
6836 43 4313 4314 4315 4319
6837 43 4313 4314 4315 4320
6838 43 4313 4314 4315 4321
6839 43 4310 4306 4305 4313
6840 43 4311 4306 4305 4313
6841 43 4312 4306 4305 4313
6842 43 4322 4323 4324 4328
6843 43 4322 4323 4324 4329
6844 43 4322 4323 4324 4330
6845 43 4319 4315 4314 4322
6846 43 4320 4315 4314 4322
6847 43 4321 4315 4314 4322
6848 43 4331 4332 4333 4337
6849 43 4331 4332 4333 4338
6850 43 4331 4332 4333 4339
6851 43 4328 4324 4323 4331
6852 43 4329 4324 4323 4331
6853 43 4330 4324 4323 4331
6854 43 4340 4341 4342 4346
6855 43 4340 4341 4342 4347
6856 43 4340 4341 4342 4348
6857 43 4337 4333 4332 4340
6858 43 4338 4333 4332 4340
6859 43 4339 4333 4332 4340
6860 43 4349 4350 4351 4355
6861 43 4349 4350 4351 4356
6862 43 4349 4350 4351 4357
6863 43 4346 4342 4341 4349
6864 43 4347 4342 4341 4349
6865 43 4348 4342 4341 4349
6866 43 4358 4359 4360 4364
6867 43 4358 4359 4360 4365
6868 43 4358 4359 4360 4366
6869 43 4355 4351 4350 4358
6870 43 4356 4351 4350 4358
6871 43 4357 4351 4350 4358
6872 43 4367 4368 4369 4373
6873 43 4367 4368 4369 4374
6874 43 4367 4368 4369 4375
6875 43 4364 4360 4359 4367
6876 43 4365 4360 4359 4367
6877 43 4366 4360 4359 4367
6878 43 4376 4377 4378 4382
6879 43 4376 4377 4378 4383
6880 43 4376 4377 4378 4384
6881 43 4373 4369 4368 4376
6882 43 4374 4369 4368 4376
6883 43 4375 4369 4368 4376
6884 43 4385 4386 4387 4391
6885 43 4385 4386 4387 4392
6886 43 4385 4386 4387 4393
6887 43 4382 4378 4377 4385
6888 43 4383 4378 4377 4385
6889 43 4384 4378 4377 4385
6890 43 4394 4395 4396 4400
6891 43 4394 4395 4396 4401
6892 43 4394 4395 4396 4402
6893 43 4391 4387 4386 4394
6894 43 4392 4387 4386 4394
6895 43 4393 4387 4386 4394
6896 43 4403 4404 4405 4409
6897 43 4403 4404 4405 4410
6898 43 4403 4404 4405 4411
6899 43 4400 4396 4395 4403
6900 43 4401 4396 4395 4403
6901 43 4402 4396 4395 4403
6902 43 4412 4413 4414 4418
6903 43 4412 4413 4414 4419
6904 43 4412 4413 4414 4420
6905 43 4409 4405 4404 4412
6906 43 4410 4405 4404 4412
6907 43 4411 4405 4404 4412
6908 43 4421 4422 4423 4427
6909 43 4421 4422 4423 4428
6910 43 4421 4422 4423 4429
6911 43 4418 4414 4413 4421
6912 43 4419 4414 4413 4421
6913 43 4420 4414 4413 4421
6914 43 4430 4431 4432 4436
6915 43 4430 4431 4432 4437
6916 43 4430 4431 4432 4438
6917 43 4427 4423 4422 4430
6918 43 4428 4423 4422 4430
6919 43 4429 4423 4422 4430
6920 43 4439 4440 4441 4445
6921 43 4439 4440 4441 4446
6922 43 4439 4440 4441 4447
6923 43 4436 4432 4431 4439
6924 43 4437 4432 4431 4439
6925 43 4438 4432 4431 4439
6926 43 4448 4449 4450 4454
6927 43 4448 4449 4450 4455
6928 43 4448 4449 4450 4456
6929 43 4445 4441 4440 4448
6930 43 4446 4441 4440 4448
6931 43 4447 4441 4440 4448
6932 43 4457 4458 4459 4463
6933 43 4457 4458 4459 4464
6934 43 4457 4458 4459 4465
6935 43 4454 4450 4449 4457
6936 43 4455 4450 4449 4457
6937 43 4456 4450 4449 4457
6938 43 4466 4467 4468 4472
6939 43 4466 4467 4468 4473
6940 43 4466 4467 4468 4474
6941 43 4463 4459 4458 4466
6942 43 4464 4459 4458 4466
6943 43 4465 4459 4458 4466
6944 43 4475 4476 4477 4481
6945 43 4475 4476 4477 4482
6946 43 4475 4476 4477 4483
6947 43 4472 4468 4467 4475
6948 43 4473 4468 4467 4475
6949 43 4474 4468 4467 4475
6950 43 4484 4485 4486 4490
6951 43 4484 4485 4486 4491
6952 43 4484 4485 4486 4492
6953 43 4481 4477 4476 4484
6954 43 4482 4477 4476 4484
6955 43 4483 4477 4476 4484
6956 43 4493 4494 4495 4499
6957 43 4493 4494 4495 4500
6958 43 4493 4494 4495 4501
6959 43 4490 4486 4485 4493
6960 43 4491 4486 4485 4493
6961 43 4492 4486 4485 4493
6962 43 4502 4503 4504 4508
6963 43 4502 4503 4504 4509
6964 43 4502 4503 4504 4510
6965 43 4499 4495 4494 4502
6966 43 4500 4495 4494 4502
6967 43 4501 4495 4494 4502
6968 43 4508 4504 4503 4511
6969 43 4509 4504 4503 4511
6970 43 4510 4504 4503 4511
6971 44 11 12 20 23
6972 44 11 12 20 24
6973 44 20 21 29 32
6974 44 20 21 29 33
6975 44 14 11 12 20
6976 44 15 11 12 20
6977 44 29 30 38 41
6978 44 29 30 38 42
6979 44 23 20 21 29
6980 44 24 20 21 29
6981 44 38 39 47 50
6982 44 38 39 47 51
6983 44 32 29 30 38
6984 44 33 29 30 38
6985 44 47 48 56 59
6986 44 47 48 56 60
6987 44 41 38 39 47
6988 44 42 38 39 47
6989 44 56 57 65 68
6990 44 56 57 65 69
6991 44 50 47 48 56
6992 44 51 47 48 56
6993 44 65 66 74 77
6994 44 65 66 74 78
6995 44 59 56 57 65
6996 44 60 56 57 65
6997 44 74 75 83 86
6998 44 74 75 83 87
6999 44 68 65 66 74
7000 44 69 65 66 74
7001 44 83 84 92 95
7002 44 83 84 92 96
7003 44 77 74 75 83
7004 44 78 74 75 83
7005 44 92 93 101 104
7006 44 92 93 101 105
7007 44 86 83 84 92
7008 44 87 83 84 92
7009 44 101 102 110 113
7010 44 101 102 110 114
7011 44 95 92 93 101
7012 44 96 92 93 101
7013 44 110 111 119 122
7014 44 110 111 119 123
7015 44 104 101 102 110
7016 44 105 101 102 110
7017 44 119 120 128 131
7018 44 119 120 128 132
7019 44 113 110 111 119
7020 44 114 110 111 119
7021 44 128 129 137 140
7022 44 128 129 137 141
7023 44 122 119 120 128
7024 44 123 119 120 128
7025 44 137 138 146 149
7026 44 137 138 146 150
7027 44 131 128 129 137
7028 44 132 128 129 137
7029 44 146 147 155 158
7030 44 146 147 155 159
7031 44 140 137 138 146
7032 44 141 137 138 146
7033 44 155 156 164 167
7034 44 155 156 164 168
7035 44 149 146 147 155
7036 44 150 146 147 155
7037 44 164 165 173 176
7038 44 164 165 173 177
7039 44 158 155 156 164
7040 44 159 155 156 164
7041 44 173 174 182 185
7042 44 173 174 182 186
7043 44 167 164 165 173
7044 44 168 164 165 173
7045 44 182 183 191 194
7046 44 182 183 191 195
7047 44 176 173 174 182
7048 44 177 173 174 182
7049 44 191 192 200 203
7050 44 191 192 200 204
7051 44 185 182 183 191
7052 44 186 182 183 191
7053 44 200 201 209 212
7054 44 200 201 209 213
7055 44 194 191 192 200
7056 44 195 191 192 200
7057 44 209 210 218 221
7058 44 209 210 218 222
7059 44 203 200 201 209
7060 44 204 200 201 209
7061 44 218 219 227 230
7062 44 218 219 227 231
7063 44 212 209 210 218
7064 44 213 209 210 218
7065 44 227 228 236 239
7066 44 227 228 236 240
7067 44 221 218 219 227
7068 44 222 218 219 227
7069 44 236 237 245 248
7070 44 236 237 245 249
7071 44 230 227 228 236
7072 44 231 227 228 236
7073 44 245 246 254 257
7074 44 245 246 254 258
7075 44 239 236 237 245
7076 44 240 236 237 245
7077 44 254 255 263 266
7078 44 254 255 263 267
7079 44 248 245 246 254
7080 44 249 245 246 254
7081 44 263 264 272 275
7082 44 263 264 272 276
7083 44 257 254 255 263
7084 44 258 254 255 263
7085 44 272 273 281 284
7086 44 272 273 281 285
7087 44 266 263 264 272
7088 44 267 263 264 272
7089 44 281 282 290 293
7090 44 281 282 290 294
7091 44 275 272 273 281
7092 44 276 272 273 281
7093 44 290 291 299 302
7094 44 290 291 299 303
7095 44 284 281 282 290
7096 44 285 281 282 290
7097 44 299 300 308 311
7098 44 299 300 308 312
7099 44 293 290 291 299
7100 44 294 290 291 299
7101 44 308 309 317 320
7102 44 308 309 317 321
7103 44 302 299 300 308
7104 44 303 299 300 308
7105 44 317 318 326 329
7106 44 317 318 326 330
7107 44 311 308 309 317
7108 44 312 308 309 317
7109 44 326 327 335 338
7110 44 326 327 335 339
7111 44 320 317 318 326
7112 44 321 317 318 326
7113 44 335 336 344 347
7114 44 335 336 344 348
7115 44 329 326 327 335
7116 44 330 326 327 335
7117 44 344 345 353 356
7118 44 344 345 353 357
7119 44 338 335 336 344
7120 44 339 335 336 344
7121 44 353 354 362 365
7122 44 353 354 362 366
7123 44 347 344 345 353
7124 44 348 344 345 353
7125 44 362 363 371 374
7126 44 362 363 371 375
7127 44 356 353 354 362
7128 44 357 353 354 362
7129 44 371 372 380 383
7130 44 371 372 380 384
7131 44 365 362 363 371
7132 44 366 362 363 371
7133 44 380 381 389 392
7134 44 380 381 389 393
7135 44 374 371 372 380
7136 44 375 371 372 380
7137 44 389 390 398 401
7138 44 389 390 398 402
7139 44 383 380 381 389
7140 44 384 380 381 389
7141 44 398 399 407 410
7142 44 398 399 407 411
7143 44 392 389 390 398
7144 44 393 389 390 398
7145 44 407 408 416 419
7146 44 407 408 416 420
7147 44 401 398 399 407
7148 44 402 398 399 407
7149 44 416 417 425 428
7150 44 416 417 425 429
7151 44 410 407 408 416
7152 44 411 407 408 416
7153 44 425 426 434 437
7154 44 425 426 434 438
7155 44 419 416 417 425
7156 44 420 416 417 425
7157 44 434 435 443 446
7158 44 434 435 443 447
7159 44 428 425 426 434
7160 44 429 425 426 434
7161 44 437 434 435 443
7162 44 438 434 435 443
7163 44 463 464 472 475
7164 44 463 464 472 476
7165 44 472 473 481 484
7166 44 472 473 481 485
7167 44 466 463 464 472
7168 44 467 463 464 472
7169 44 481 482 490 493
7170 44 481 482 490 494
7171 44 475 472 473 481
7172 44 476 472 473 481
7173 44 490 491 499 502
7174 44 490 491 499 503
7175 44 484 481 482 490
7176 44 485 481 482 490
7177 44 499 500 508 511
7178 44 499 500 508 512
7179 44 493 490 491 499
7180 44 494 490 491 499
7181 44 508 509 517 520
7182 44 508 509 517 521
7183 44 502 499 500 508
7184 44 503 499 500 508
7185 44 517 518 526 529
7186 44 517 518 526 530
7187 44 511 508 509 517
7188 44 512 508 509 517
7189 44 526 527 535 538
7190 44 526 527 535 539
7191 44 520 517 518 526
7192 44 521 517 518 526
7193 44 535 536 544 547
7194 44 535 536 544 548
7195 44 529 526 527 535
7196 44 530 526 527 535
7197 44 544 545 553 556
7198 44 544 545 553 557
7199 44 538 535 536 544
7200 44 539 535 536 544
7201 44 553 554 562 565
7202 44 553 554 562 566
7203 44 547 544 545 553
7204 44 548 544 545 553
7205 44 562 563 571 574
7206 44 562 563 571 575
7207 44 556 553 554 562
7208 44 557 553 554 562
7209 44 571 572 580 583
7210 44 571 572 580 584
7211 44 565 562 563 571
7212 44 566 562 563 571
7213 44 580 581 589 592
7214 44 580 581 589 593
7215 44 574 571 572 580
7216 44 575 571 572 580
7217 44 589 590 598 601
7218 44 589 590 598 602
7219 44 583 580 581 589
7220 44 584 580 581 589
7221 44 598 599 607 610
7222 44 598 599 607 611
7223 44 592 589 590 598
7224 44 593 589 590 598
7225 44 607 608 616 619
7226 44 607 608 616 620
7227 44 601 598 599 607
7228 44 602 598 599 607
7229 44 616 617 625 628
7230 44 616 617 625 629
7231 44 610 607 608 616
7232 44 611 607 608 616
7233 44 625 626 634 637
7234 44 625 626 634 638
7235 44 619 616 617 625
7236 44 620 616 617 625
7237 44 634 635 643 646
7238 44 634 635 643 647
7239 44 628 625 626 634
7240 44 629 625 626 634
7241 44 643 644 652 655
7242 44 643 644 652 656
7243 44 637 634 635 643
7244 44 638 634 635 643
7245 44 652 653 661 664
7246 44 652 653 661 665
7247 44 646 643 644 652
7248 44 647 643 644 652
7249 44 661 662 670 673
7250 44 661 662 670 674
7251 44 655 652 653 661
7252 44 656 652 653 661
7253 44 670 671 679 682
7254 44 670 671 679 683
7255 44 664 661 662 670
7256 44 665 661 662 670
7257 44 679 680 688 691
7258 44 679 680 688 692
7259 44 673 670 671 679
7260 44 674 670 671 679
7261 44 688 689 697 700
7262 44 688 689 697 701
7263 44 682 679 680 688
7264 44 683 679 680 688
7265 44 697 698 706 709
7266 44 697 698 706 710
7267 44 691 688 689 697
7268 44 692 688 689 697
7269 44 706 707 715 718
7270 44 706 707 715 719
7271 44 700 697 698 706
7272 44 701 697 698 706
7273 44 715 716 724 727
7274 44 715 716 724 728
7275 44 709 706 707 715
7276 44 710 706 707 715
7277 44 724 725 733 736
7278 44 724 725 733 737
7279 44 718 715 716 724
7280 44 719 715 716 724
7281 44 733 734 742 745
7282 44 733 734 742 746
7283 44 727 724 725 733
7284 44 728 724 725 733
7285 44 742 743 751 754
7286 44 742 743 751 755
7287 44 736 733 734 742
7288 44 737 733 734 742
7289 44 751 752 760 763
7290 44 751 752 760 764
7291 44 745 742 743 751
7292 44 746 742 743 751
7293 44 760 761 769 772
7294 44 760 761 769 773
7295 44 754 751 752 760
7296 44 755 751 752 760
7297 44 769 770 778 781
7298 44 769 770 778 782
7299 44 763 760 761 769
7300 44 764 760 761 769
7301 44 778 779 787 790
7302 44 778 779 787 791
7303 44 772 769 770 778
7304 44 773 769 770 778
7305 44 787 788 796 799
7306 44 787 788 796 800
7307 44 781 778 779 787
7308 44 782 778 779 787
7309 44 796 797 805 808
7310 44 796 797 805 809
7311 44 790 787 788 796
7312 44 791 787 788 796
7313 44 805 806 814 817
7314 44 805 806 814 818
7315 44 799 796 797 805
7316 44 800 796 797 805
7317 44 814 815 823 826
7318 44 814 815 823 827
7319 44 808 805 806 814
7320 44 809 805 806 814
7321 44 823 824 832 835
7322 44 823 824 832 836
7323 44 817 814 815 823
7324 44 818 814 815 823
7325 44 832 833 841 844
7326 44 832 833 841 845
7327 44 826 823 824 832
7328 44 827 823 824 832
7329 44 841 842 850 853
7330 44 841 842 850 854
7331 44 835 832 833 841
7332 44 836 832 833 841
7333 44 850 851 859 862
7334 44 850 851 859 863
7335 44 844 841 842 850
7336 44 845 841 842 850
7337 44 859 860 868 871
7338 44 859 860 868 872
7339 44 853 850 851 859
7340 44 854 850 851 859
7341 44 868 869 877 880
7342 44 868 869 877 881
7343 44 862 859 860 868
7344 44 863 859 860 868
7345 44 877 878 886 889
7346 44 877 878 886 890
7347 44 871 868 869 877
7348 44 872 868 869 877
7349 44 886 887 895 898
7350 44 886 887 895 899
7351 44 880 877 878 886
7352 44 881 877 878 886
7353 44 889 886 887 895
7354 44 890 886 887 895
7355 44 915 916 924 927
7356 44 915 916 924 928
7357 44 924 925 933 936
7358 44 924 925 933 937
7359 44 918 915 916 924
7360 44 919 915 916 924
7361 44 933 934 942 945
7362 44 933 934 942 946
7363 44 927 924 925 933
7364 44 928 924 925 933
7365 44 942 943 951 954
7366 44 942 943 951 955
7367 44 936 933 934 942
7368 44 937 933 934 942
7369 44 951 952 960 963
7370 44 951 952 960 964
7371 44 945 942 943 951
7372 44 946 942 943 951
7373 44 960 961 969 972
7374 44 960 961 969 973
7375 44 954 951 952 960
7376 44 955 951 952 960
7377 44 969 970 978 981
7378 44 969 970 978 982
7379 44 963 960 961 969
7380 44 964 960 961 969
7381 44 978 979 987 990
7382 44 978 979 987 991
7383 44 972 969 970 978
7384 44 973 969 970 978
7385 44 987 988 996 999
7386 44 987 988 996 1000
7387 44 981 978 979 987
7388 44 982 978 979 987
7389 44 996 997 1005 1008
7390 44 996 997 1005 1009
7391 44 990 987 988 996
7392 44 991 987 988 996
7393 44 1005 1006 1014 1017
7394 44 1005 1006 1014 1018
7395 44 999 996 997 1005
7396 44 1000 996 997 1005
7397 44 1014 1015 1023 1026
7398 44 1014 1015 1023 1027
7399 44 1008 1005 1006 1014
7400 44 1009 1005 1006 1014
7401 44 1023 1024 1032 1035
7402 44 1023 1024 1032 1036
7403 44 1017 1014 1015 1023
7404 44 1018 1014 1015 1023
7405 44 1032 1033 1041 1044
7406 44 1032 1033 1041 1045
7407 44 1026 1023 1024 1032
7408 44 1027 1023 1024 1032
7409 44 1041 1042 1050 1053
7410 44 1041 1042 1050 1054
7411 44 1035 1032 1033 1041
7412 44 1036 1032 1033 1041
7413 44 1050 1051 1059 1062
7414 44 1050 1051 1059 1063
7415 44 1044 1041 1042 1050
7416 44 1045 1041 1042 1050
7417 44 1059 1060 1068 1071
7418 44 1059 1060 1068 1072
7419 44 1053 1050 1051 1059
7420 44 1054 1050 1051 1059
7421 44 1068 1069 1077 1080
7422 44 1068 1069 1077 1081
7423 44 1062 1059 1060 1068
7424 44 1063 1059 1060 1068
7425 44 1077 1078 1086 1089
7426 44 1077 1078 1086 1090
7427 44 1071 1068 1069 1077
7428 44 1072 1068 1069 1077
7429 44 1086 1087 1095 1098
7430 44 1086 1087 1095 1099
7431 44 1080 1077 1078 1086
7432 44 1081 1077 1078 1086
7433 44 1095 1096 1104 1107
7434 44 1095 1096 1104 1108
7435 44 1089 1086 1087 1095
7436 44 1090 1086 1087 1095
7437 44 1104 1105 1113 1116
7438 44 1104 1105 1113 1117
7439 44 1098 1095 1096 1104
7440 44 1099 1095 1096 1104
7441 44 1113 1114 1122 1125
7442 44 1113 1114 1122 1126
7443 44 1107 1104 1105 1113
7444 44 1108 1104 1105 1113
7445 44 1122 1123 1131 1134
7446 44 1122 1123 1131 1135
7447 44 1116 1113 1114 1122
7448 44 1117 1113 1114 1122
7449 44 1131 1132 1140 1143
7450 44 1131 1132 1140 1144
7451 44 1125 1122 1123 1131
7452 44 1126 1122 1123 1131
7453 44 1140 1141 1149 1152
7454 44 1140 1141 1149 1153
7455 44 1134 1131 1132 1140
7456 44 1135 1131 1132 1140
7457 44 1149 1150 1158 1161
7458 44 1149 1150 1158 1162
7459 44 1143 1140 1141 1149
7460 44 1144 1140 1141 1149
7461 44 1158 1159 1167 1170
7462 44 1158 1159 1167 1171
7463 44 1152 1149 1150 1158
7464 44 1153 1149 1150 1158
7465 44 1167 1168 1176 1179
7466 44 1167 1168 1176 1180
7467 44 1161 1158 1159 1167
7468 44 1162 1158 1159 1167
7469 44 1176 1177 1185 1188
7470 44 1176 1177 1185 1189
7471 44 1170 1167 1168 1176
7472 44 1171 1167 1168 1176
7473 44 1185 1186 1194 1197
7474 44 1185 1186 1194 1198
7475 44 1179 1176 1177 1185
7476 44 1180 1176 1177 1185
7477 44 1194 1195 1203 1206
7478 44 1194 1195 1203 1207
7479 44 1188 1185 1186 1194
7480 44 1189 1185 1186 1194
7481 44 1203 1204 1212 1215
7482 44 1203 1204 1212 1216
7483 44 1197 1194 1195 1203
7484 44 1198 1194 1195 1203
7485 44 1212 1213 1221 1224
7486 44 1212 1213 1221 1225
7487 44 1206 1203 1204 1212
7488 44 1207 1203 1204 1212
7489 44 1221 1222 1230 1233
7490 44 1221 1222 1230 1234
7491 44 1215 1212 1213 1221
7492 44 1216 1212 1213 1221
7493 44 1230 1231 1239 1242
7494 44 1230 1231 1239 1243
7495 44 1224 1221 1222 1230
7496 44 1225 1221 1222 1230
7497 44 1239 1240 1248 1251
7498 44 1239 1240 1248 1252
7499 44 1233 1230 1231 1239
7500 44 1234 1230 1231 1239
7501 44 1248 1249 1257 1260
7502 44 1248 1249 1257 1261
7503 44 1242 1239 1240 1248
7504 44 1243 1239 1240 1248
7505 44 1257 1258 1266 1269
7506 44 1257 1258 1266 1270
7507 44 1251 1248 1249 1257
7508 44 1252 1248 1249 1257
7509 44 1266 1267 1275 1278
7510 44 1266 1267 1275 1279
7511 44 1260 1257 1258 1266
7512 44 1261 1257 1258 1266
7513 44 1275 1276 1284 1287
7514 44 1275 1276 1284 1288
7515 44 1269 1266 1267 1275
7516 44 1270 1266 1267 1275
7517 44 1284 1285 1293 1296
7518 44 1284 1285 1293 1297
7519 44 1278 1275 1276 1284
7520 44 1279 1275 1276 1284
7521 44 1293 1294 1302 1305
7522 44 1293 1294 1302 1306
7523 44 1287 1284 1285 1293
7524 44 1288 1284 1285 1293
7525 44 1302 1303 1311 1314
7526 44 1302 1303 1311 1315
7527 44 1296 1293 1294 1302
7528 44 1297 1293 1294 1302
7529 44 1311 1312 1320 1323
7530 44 1311 1312 1320 1324
7531 44 1305 1302 1303 1311
7532 44 1306 1302 1303 1311
7533 44 1320 1321 1329 1332
7534 44 1320 1321 1329 1333
7535 44 1314 1311 1312 1320
7536 44 1315 1311 1312 1320
7537 44 1329 1330 1338 1341
7538 44 1329 1330 1338 1342
7539 44 1323 1320 1321 1329
7540 44 1324 1320 1321 1329
7541 44 1338 1339 1347 1350
7542 44 1338 1339 1347 1351
7543 44 1332 1329 1330 1338
7544 44 1333 1329 1330 1338
7545 44 1341 1338 1339 1347
7546 44 1342 1338 1339 1347
7547 44 1367 1368 1376 1379
7548 44 1367 1368 1376 1380
7549 44 1376 1377 1385 1388
7550 44 1376 1377 1385 1389
7551 44 1370 1367 1368 1376
7552 44 1371 1367 1368 1376
7553 44 1385 1386 1394 1397
7554 44 1385 1386 1394 1398
7555 44 1379 1376 1377 1385
7556 44 1380 1376 1377 1385
7557 44 1394 1395 1403 1406
7558 44 1394 1395 1403 1407
7559 44 1388 1385 1386 1394
7560 44 1389 1385 1386 1394
7561 44 1403 1404 1412 1415
7562 44 1403 1404 1412 1416
7563 44 1397 1394 1395 1403
7564 44 1398 1394 1395 1403
7565 44 1412 1413 1421 1424
7566 44 1412 1413 1421 1425
7567 44 1406 1403 1404 1412
7568 44 1407 1403 1404 1412
7569 44 1421 1422 1430 1433
7570 44 1421 1422 1430 1434
7571 44 1415 1412 1413 1421
7572 44 1416 1412 1413 1421
7573 44 1430 1431 1439 1442
7574 44 1430 1431 1439 1443
7575 44 1424 1421 1422 1430
7576 44 1425 1421 1422 1430
7577 44 1439 1440 1448 1451
7578 44 1439 1440 1448 1452
7579 44 1433 1430 1431 1439
7580 44 1434 1430 1431 1439
7581 44 1448 1449 1457 1460
7582 44 1448 1449 1457 1461
7583 44 1442 1439 1440 1448
7584 44 1443 1439 1440 1448
7585 44 1457 1458 1466 1469
7586 44 1457 1458 1466 1470
7587 44 1451 1448 1449 1457
7588 44 1452 1448 1449 1457
7589 44 1466 1467 1475 1478
7590 44 1466 1467 1475 1479
7591 44 1460 1457 1458 1466
7592 44 1461 1457 1458 1466
7593 44 1475 1476 1484 1487
7594 44 1475 1476 1484 1488
7595 44 1469 1466 1467 1475
7596 44 1470 1466 1467 1475
7597 44 1484 1485 1493 1496
7598 44 1484 1485 1493 1497
7599 44 1478 1475 1476 1484
7600 44 1479 1475 1476 1484
7601 44 1493 1494 1502 1505
7602 44 1493 1494 1502 1506
7603 44 1487 1484 1485 1493
7604 44 1488 1484 1485 1493
7605 44 1502 1503 1511 1514
7606 44 1502 1503 1511 1515
7607 44 1496 1493 1494 1502
7608 44 1497 1493 1494 1502
7609 44 1511 1512 1520 1523
7610 44 1511 1512 1520 1524
7611 44 1505 1502 1503 1511
7612 44 1506 1502 1503 1511
7613 44 1520 1521 1529 1532
7614 44 1520 1521 1529 1533
7615 44 1514 1511 1512 1520
7616 44 1515 1511 1512 1520
7617 44 1529 1530 1538 1541
7618 44 1529 1530 1538 1542
7619 44 1523 1520 1521 1529
7620 44 1524 1520 1521 1529
7621 44 1538 1539 1547 1550
7622 44 1538 1539 1547 1551
7623 44 1532 1529 1530 1538
7624 44 1533 1529 1530 1538
7625 44 1547 1548 1556 1559
7626 44 1547 1548 1556 1560
7627 44 1541 1538 1539 1547
7628 44 1542 1538 1539 1547
7629 44 1556 1557 1565 1568
7630 44 1556 1557 1565 1569
7631 44 1550 1547 1548 1556
7632 44 1551 1547 1548 1556
7633 44 1565 1566 1574 1577
7634 44 1565 1566 1574 1578
7635 44 1559 1556 1557 1565
7636 44 1560 1556 1557 1565
7637 44 1574 1575 1583 1586
7638 44 1574 1575 1583 1587
7639 44 1568 1565 1566 1574
7640 44 1569 1565 1566 1574
7641 44 1583 1584 1592 1595
7642 44 1583 1584 1592 1596
7643 44 1577 1574 1575 1583
7644 44 1578 1574 1575 1583
7645 44 1592 1593 1601 1604
7646 44 1592 1593 1601 1605
7647 44 1586 1583 1584 1592
7648 44 1587 1583 1584 1592
7649 44 1601 1602 1610 1613
7650 44 1601 1602 1610 1614
7651 44 1595 1592 1593 1601
7652 44 1596 1592 1593 1601
7653 44 1610 1611 1619 1622
7654 44 1610 1611 1619 1623
7655 44 1604 1601 1602 1610
7656 44 1605 1601 1602 1610
7657 44 1619 1620 1628 1631
7658 44 1619 1620 1628 1632
7659 44 1613 1610 1611 1619
7660 44 1614 1610 1611 1619
7661 44 1628 1629 1637 1640
7662 44 1628 1629 1637 1641
7663 44 1622 1619 1620 1628
7664 44 1623 1619 1620 1628
7665 44 1637 1638 1646 1649
7666 44 1637 1638 1646 1650
7667 44 1631 1628 1629 1637
7668 44 1632 1628 1629 1637
7669 44 1646 1647 1655 1658
7670 44 1646 1647 1655 1659
7671 44 1640 1637 1638 1646
7672 44 1641 1637 1638 1646
7673 44 1655 1656 1664 1667
7674 44 1655 1656 1664 1668
7675 44 1649 1646 1647 1655
7676 44 1650 1646 1647 1655
7677 44 1664 1665 1673 1676
7678 44 1664 1665 1673 1677
7679 44 1658 1655 1656 1664
7680 44 1659 1655 1656 1664
7681 44 1673 1674 1682 1685
7682 44 1673 1674 1682 1686
7683 44 1667 1664 1665 1673
7684 44 1668 1664 1665 1673
7685 44 1682 1683 1691 1694
7686 44 1682 1683 1691 1695
7687 44 1676 1673 1674 1682
7688 44 1677 1673 1674 1682
7689 44 1691 1692 1700 1703
7690 44 1691 1692 1700 1704
7691 44 1685 1682 1683 1691
7692 44 1686 1682 1683 1691
7693 44 1700 1701 1709 1712
7694 44 1700 1701 1709 1713
7695 44 1694 1691 1692 1700
7696 44 1695 1691 1692 1700
7697 44 1709 1710 1718 1721
7698 44 1709 1710 1718 1722
7699 44 1703 1700 1701 1709
7700 44 1704 1700 1701 1709
7701 44 1718 1719 1727 1730
7702 44 1718 1719 1727 1731
7703 44 1712 1709 1710 1718
7704 44 1713 1709 1710 1718
7705 44 1727 1728 1736 1739
7706 44 1727 1728 1736 1740
7707 44 1721 1718 1719 1727
7708 44 1722 1718 1719 1727
7709 44 1736 1737 1745 1748
7710 44 1736 1737 1745 1749
7711 44 1730 1727 1728 1736
7712 44 1731 1727 1728 1736
7713 44 1745 1746 1754 1757
7714 44 1745 1746 1754 1758
7715 44 1739 1736 1737 1745
7716 44 1740 1736 1737 1745
7717 44 1754 1755 1763 1766
7718 44 1754 1755 1763 1767
7719 44 1748 1745 1746 1754
7720 44 1749 1745 1746 1754
7721 44 1763 1764 1772 1775
7722 44 1763 1764 1772 1776
7723 44 1757 1754 1755 1763
7724 44 1758 1754 1755 1763
7725 44 1772 1773 1781 1784
7726 44 1772 1773 1781 1785
7727 44 1766 1763 1764 1772
7728 44 1767 1763 1764 1772
7729 44 1781 1782 1790 1793
7730 44 1781 1782 1790 1794
7731 44 1775 1772 1773 1781
7732 44 1776 1772 1773 1781
7733 44 1790 1791 1799 1802
7734 44 1790 1791 1799 1803
7735 44 1784 1781 1782 1790
7736 44 1785 1781 1782 1790
7737 44 1793 1790 1791 1799
7738 44 1794 1790 1791 1799
7739 44 1819 1820 1828 1831
7740 44 1819 1820 1828 1832
7741 44 1828 1829 1837 1840
7742 44 1828 1829 1837 1841
7743 44 1822 1819 1820 1828
7744 44 1823 1819 1820 1828
7745 44 1837 1838 1846 1849
7746 44 1837 1838 1846 1850
7747 44 1831 1828 1829 1837
7748 44 1832 1828 1829 1837
7749 44 1846 1847 1855 1858
7750 44 1846 1847 1855 1859
7751 44 1840 1837 1838 1846
7752 44 1841 1837 1838 1846
7753 44 1855 1856 1864 1867
7754 44 1855 1856 1864 1868
7755 44 1849 1846 1847 1855
7756 44 1850 1846 1847 1855
7757 44 1864 1865 1873 1876
7758 44 1864 1865 1873 1877
7759 44 1858 1855 1856 1864
7760 44 1859 1855 1856 1864
7761 44 1873 1874 1882 1885
7762 44 1873 1874 1882 1886
7763 44 1867 1864 1865 1873
7764 44 1868 1864 1865 1873
7765 44 1882 1883 1891 1894
7766 44 1882 1883 1891 1895
7767 44 1876 1873 1874 1882
7768 44 1877 1873 1874 1882
7769 44 1891 1892 1900 1903
7770 44 1891 1892 1900 1904
7771 44 1885 1882 1883 1891
7772 44 1886 1882 1883 1891
7773 44 1900 1901 1909 1912
7774 44 1900 1901 1909 1913
7775 44 1894 1891 1892 1900
7776 44 1895 1891 1892 1900
7777 44 1909 1910 1918 1921
7778 44 1909 1910 1918 1922
7779 44 1903 1900 1901 1909
7780 44 1904 1900 1901 1909
7781 44 1918 1919 1927 1930
7782 44 1918 1919 1927 1931
7783 44 1912 1909 1910 1918
7784 44 1913 1909 1910 1918
7785 44 1927 1928 1936 1939
7786 44 1927 1928 1936 1940
7787 44 1921 1918 1919 1927
7788 44 1922 1918 1919 1927
7789 44 1936 1937 1945 1948
7790 44 1936 1937 1945 1949
7791 44 1930 1927 1928 1936
7792 44 1931 1927 1928 1936
7793 44 1945 1946 1954 1957
7794 44 1945 1946 1954 1958
7795 44 1939 1936 1937 1945
7796 44 1940 1936 1937 1945
7797 44 1954 1955 1963 1966
7798 44 1954 1955 1963 1967
7799 44 1948 1945 1946 1954
7800 44 1949 1945 1946 1954
7801 44 1963 1964 1972 1975
7802 44 1963 1964 1972 1976
7803 44 1957 1954 1955 1963
7804 44 1958 1954 1955 1963
7805 44 1972 1973 1981 1984
7806 44 1972 1973 1981 1985
7807 44 1966 1963 1964 1972
7808 44 1967 1963 1964 1972
7809 44 1981 1982 1990 1993
7810 44 1981 1982 1990 1994
7811 44 1975 1972 1973 1981
7812 44 1976 1972 1973 1981
7813 44 1990 1991 1999 2002
7814 44 1990 1991 1999 2003
7815 44 1984 1981 1982 1990
7816 44 1985 1981 1982 1990
7817 44 1999 2000 2008 2011
7818 44 1999 2000 2008 2012
7819 44 1993 1990 1991 1999
7820 44 1994 1990 1991 1999
7821 44 2008 2009 2017 2020
7822 44 2008 2009 2017 2021
7823 44 2002 1999 2000 2008
7824 44 2003 1999 2000 2008
7825 44 2017 2018 2026 2029
7826 44 2017 2018 2026 2030
7827 44 2011 2008 2009 2017
7828 44 2012 2008 2009 2017
7829 44 2026 2027 2035 2038
7830 44 2026 2027 2035 2039
7831 44 2020 2017 2018 2026
7832 44 2021 2017 2018 2026
7833 44 2035 2036 2044 2047
7834 44 2035 2036 2044 2048
7835 44 2029 2026 2027 2035
7836 44 2030 2026 2027 2035
7837 44 2044 2045 2053 2056
7838 44 2044 2045 2053 2057
7839 44 2038 2035 2036 2044
7840 44 2039 2035 2036 2044
7841 44 2053 2054 2062 2065
7842 44 2053 2054 2062 2066
7843 44 2047 2044 2045 2053
7844 44 2048 2044 2045 2053
7845 44 2062 2063 2071 2074
7846 44 2062 2063 2071 2075
7847 44 2056 2053 2054 2062
7848 44 2057 2053 2054 2062
7849 44 2071 2072 2080 2083
7850 44 2071 2072 2080 2084
7851 44 2065 2062 2063 2071
7852 44 2066 2062 2063 2071
7853 44 2080 2081 2089 2092
7854 44 2080 2081 2089 2093
7855 44 2074 2071 2072 2080
7856 44 2075 2071 2072 2080
7857 44 2089 2090 2098 2101
7858 44 2089 2090 2098 2102
7859 44 2083 2080 2081 2089
7860 44 2084 2080 2081 2089
7861 44 2098 2099 2107 2110
7862 44 2098 2099 2107 2111
7863 44 2092 2089 2090 2098
7864 44 2093 2089 2090 2098
7865 44 2107 2108 2116 2119
7866 44 2107 2108 2116 2120
7867 44 2101 2098 2099 2107
7868 44 2102 2098 2099 2107
7869 44 2116 2117 2125 2128
7870 44 2116 2117 2125 2129
7871 44 2110 2107 2108 2116
7872 44 2111 2107 2108 2116
7873 44 2125 2126 2134 2137
7874 44 2125 2126 2134 2138
7875 44 2119 2116 2117 2125
7876 44 2120 2116 2117 2125
7877 44 2134 2135 2143 2146
7878 44 2134 2135 2143 2147
7879 44 2128 2125 2126 2134
7880 44 2129 2125 2126 2134
7881 44 2143 2144 2152 2155
7882 44 2143 2144 2152 2156
7883 44 2137 2134 2135 2143
7884 44 2138 2134 2135 2143
7885 44 2152 2153 2161 2164
7886 44 2152 2153 2161 2165
7887 44 2146 2143 2144 2152
7888 44 2147 2143 2144 2152
7889 44 2161 2162 2170 2173
7890 44 2161 2162 2170 2174
7891 44 2155 2152 2153 2161
7892 44 2156 2152 2153 2161
7893 44 2170 2171 2179 2182
7894 44 2170 2171 2179 2183
7895 44 2164 2161 2162 2170
7896 44 2165 2161 2162 2170
7897 44 2179 2180 2188 2191
7898 44 2179 2180 2188 2192
7899 44 2173 2170 2171 2179
7900 44 2174 2170 2171 2179
7901 44 2188 2189 2197 2200
7902 44 2188 2189 2197 2201
7903 44 2182 2179 2180 2188
7904 44 2183 2179 2180 2188
7905 44 2197 2198 2206 2209
7906 44 2197 2198 2206 2210
7907 44 2191 2188 2189 2197
7908 44 2192 2188 2189 2197
7909 44 2206 2207 2215 2218
7910 44 2206 2207 2215 2219
7911 44 2200 2197 2198 2206
7912 44 2201 2197 2198 2206
7913 44 2215 2216 2224 2227
7914 44 2215 2216 2224 2228
7915 44 2209 2206 2207 2215
7916 44 2210 2206 2207 2215
7917 44 2224 2225 2233 2236
7918 44 2224 2225 2233 2237
7919 44 2218 2215 2216 2224
7920 44 2219 2215 2216 2224
7921 44 2233 2234 2242 2245
7922 44 2233 2234 2242 2246
7923 44 2227 2224 2225 2233
7924 44 2228 2224 2225 2233
7925 44 2242 2243 2251 2254
7926 44 2242 2243 2251 2255
7927 44 2236 2233 2234 2242
7928 44 2237 2233 2234 2242
7929 44 2245 2242 2243 2251
7930 44 2246 2242 2243 2251
7931 44 2271 2272 2280 2283
7932 44 2271 2272 2280 2284
7933 44 2280 2281 2289 2292
7934 44 2280 2281 2289 2293
7935 44 2274 2271 2272 2280
7936 44 2275 2271 2272 2280
7937 44 2289 2290 2298 2301
7938 44 2289 2290 2298 2302
7939 44 2283 2280 2281 2289
7940 44 2284 2280 2281 2289
7941 44 2298 2299 2307 2310
7942 44 2298 2299 2307 2311
7943 44 2292 2289 2290 2298
7944 44 2293 2289 2290 2298
7945 44 2307 2308 2316 2319
7946 44 2307 2308 2316 2320
7947 44 2301 2298 2299 2307
7948 44 2302 2298 2299 2307
7949 44 2316 2317 2325 2328
7950 44 2316 2317 2325 2329
7951 44 2310 2307 2308 2316
7952 44 2311 2307 2308 2316
7953 44 2325 2326 2334 2337
7954 44 2325 2326 2334 2338
7955 44 2319 2316 2317 2325
7956 44 2320 2316 2317 2325
7957 44 2334 2335 2343 2346
7958 44 2334 2335 2343 2347
7959 44 2328 2325 2326 2334
7960 44 2329 2325 2326 2334
7961 44 2343 2344 2352 2355
7962 44 2343 2344 2352 2356
7963 44 2337 2334 2335 2343
7964 44 2338 2334 2335 2343
7965 44 2352 2353 2361 2364
7966 44 2352 2353 2361 2365
7967 44 2346 2343 2344 2352
7968 44 2347 2343 2344 2352
7969 44 2361 2362 2370 2373
7970 44 2361 2362 2370 2374
7971 44 2355 2352 2353 2361
7972 44 2356 2352 2353 2361
7973 44 2370 2371 2379 2382
7974 44 2370 2371 2379 2383
7975 44 2364 2361 2362 2370
7976 44 2365 2361 2362 2370
7977 44 2379 2380 2388 2391
7978 44 2379 2380 2388 2392
7979 44 2373 2370 2371 2379
7980 44 2374 2370 2371 2379
7981 44 2388 2389 2397 2400
7982 44 2388 2389 2397 2401
7983 44 2382 2379 2380 2388
7984 44 2383 2379 2380 2388
7985 44 2397 2398 2406 2409
7986 44 2397 2398 2406 2410
7987 44 2391 2388 2389 2397
7988 44 2392 2388 2389 2397
7989 44 2406 2407 2415 2418
7990 44 2406 2407 2415 2419
7991 44 2400 2397 2398 2406
7992 44 2401 2397 2398 2406
7993 44 2415 2416 2424 2427
7994 44 2415 2416 2424 2428
7995 44 2409 2406 2407 2415
7996 44 2410 2406 2407 2415
7997 44 2424 2425 2433 2436
7998 44 2424 2425 2433 2437
7999 44 2418 2415 2416 2424
8000 44 2419 2415 2416 2424
8001 44 2433 2434 2442 2445
8002 44 2433 2434 2442 2446
8003 44 2427 2424 2425 2433
8004 44 2428 2424 2425 2433
8005 44 2442 2443 2451 2454
8006 44 2442 2443 2451 2455
8007 44 2436 2433 2434 2442
8008 44 2437 2433 2434 2442
8009 44 2451 2452 2460 2463
8010 44 2451 2452 2460 2464
8011 44 2445 2442 2443 2451
8012 44 2446 2442 2443 2451
8013 44 2460 2461 2469 2472
8014 44 2460 2461 2469 2473
8015 44 2454 2451 2452 2460
8016 44 2455 2451 2452 2460
8017 44 2469 2470 2478 2481
8018 44 2469 2470 2478 2482
8019 44 2463 2460 2461 2469
8020 44 2464 2460 2461 2469
8021 44 2478 2479 2487 2490
8022 44 2478 2479 2487 2491
8023 44 2472 2469 2470 2478
8024 44 2473 2469 2470 2478
8025 44 2487 2488 2496 2499
8026 44 2487 2488 2496 2500
8027 44 2481 2478 2479 2487
8028 44 2482 2478 2479 2487
8029 44 2496 2497 2505 2508
8030 44 2496 2497 2505 2509
8031 44 2490 2487 2488 2496
8032 44 2491 2487 2488 2496
8033 44 2505 2506 2514 2517
8034 44 2505 2506 2514 2518
8035 44 2499 2496 2497 2505
8036 44 2500 2496 2497 2505
8037 44 2514 2515 2523 2526
8038 44 2514 2515 2523 2527
8039 44 2508 2505 2506 2514
8040 44 2509 2505 2506 2514
8041 44 2523 2524 2532 2535
8042 44 2523 2524 2532 2536
8043 44 2517 2514 2515 2523
8044 44 2518 2514 2515 2523
8045 44 2532 2533 2541 2544
8046 44 2532 2533 2541 2545
8047 44 2526 2523 2524 2532
8048 44 2527 2523 2524 2532
8049 44 2541 2542 2550 2553
8050 44 2541 2542 2550 2554
8051 44 2535 2532 2533 2541
8052 44 2536 2532 2533 2541
8053 44 2550 2551 2559 2562
8054 44 2550 2551 2559 2563
8055 44 2544 2541 2542 2550
8056 44 2545 2541 2542 2550
8057 44 2559 2560 2568 2571
8058 44 2559 2560 2568 2572
8059 44 2553 2550 2551 2559
8060 44 2554 2550 2551 2559
8061 44 2568 2569 2577 2580
8062 44 2568 2569 2577 2581
8063 44 2562 2559 2560 2568
8064 44 2563 2559 2560 2568
8065 44 2577 2578 2586 2589
8066 44 2577 2578 2586 2590
8067 44 2571 2568 2569 2577
8068 44 2572 2568 2569 2577
8069 44 2586 2587 2595 2598
8070 44 2586 2587 2595 2599
8071 44 2580 2577 2578 2586
8072 44 2581 2577 2578 2586
8073 44 2595 2596 2604 2607
8074 44 2595 2596 2604 2608
8075 44 2589 2586 2587 2595
8076 44 2590 2586 2587 2595
8077 44 2604 2605 2613 2616
8078 44 2604 2605 2613 2617
8079 44 2598 2595 2596 2604
8080 44 2599 2595 2596 2604
8081 44 2613 2614 2622 2625
8082 44 2613 2614 2622 2626
8083 44 2607 2604 2605 2613
8084 44 2608 2604 2605 2613
8085 44 2622 2623 2631 2634
8086 44 2622 2623 2631 2635
8087 44 2616 2613 2614 2622
8088 44 2617 2613 2614 2622
8089 44 2631 2632 2640 2643
8090 44 2631 2632 2640 2644
8091 44 2625 2622 2623 2631
8092 44 2626 2622 2623 2631
8093 44 2640 2641 2649 2652
8094 44 2640 2641 2649 2653
8095 44 2634 2631 2632 2640
8096 44 2635 2631 2632 2640
8097 44 2649 2650 2658 2661
8098 44 2649 2650 2658 2662
8099 44 2643 2640 2641 2649
8100 44 2644 2640 2641 2649
8101 44 2658 2659 2667 2670
8102 44 2658 2659 2667 2671
8103 44 2652 2649 2650 2658
8104 44 2653 2649 2650 2658
8105 44 2667 2668 2676 2679
8106 44 2667 2668 2676 2680
8107 44 2661 2658 2659 2667
8108 44 2662 2658 2659 2667
8109 44 2676 2677 2685 2688
8110 44 2676 2677 2685 2689
8111 44 2670 2667 2668 2676
8112 44 2671 2667 2668 2676
8113 44 2685 2686 2694 2697
8114 44 2685 2686 2694 2698
8115 44 2679 2676 2677 2685
8116 44 2680 2676 2677 2685
8117 44 2694 2695 2703 2706
8118 44 2694 2695 2703 2707
8119 44 2688 2685 2686 2694
8120 44 2689 2685 2686 2694
8121 44 2697 2694 2695 2703
8122 44 2698 2694 2695 2703
8123 44 2723 2724 2732 2735
8124 44 2723 2724 2732 2736
8125 44 2732 2733 2741 2744
8126 44 2732 2733 2741 2745
8127 44 2726 2723 2724 2732
8128 44 2727 2723 2724 2732
8129 44 2741 2742 2750 2753
8130 44 2741 2742 2750 2754
8131 44 2735 2732 2733 2741
8132 44 2736 2732 2733 2741
8133 44 2750 2751 2759 2762
8134 44 2750 2751 2759 2763
8135 44 2744 2741 2742 2750
8136 44 2745 2741 2742 2750
8137 44 2759 2760 2768 2771
8138 44 2759 2760 2768 2772
8139 44 2753 2750 2751 2759
8140 44 2754 2750 2751 2759
8141 44 2768 2769 2777 2780
8142 44 2768 2769 2777 2781
8143 44 2762 2759 2760 2768
8144 44 2763 2759 2760 2768
8145 44 2777 2778 2786 2789
8146 44 2777 2778 2786 2790
8147 44 2771 2768 2769 2777
8148 44 2772 2768 2769 2777
8149 44 2786 2787 2795 2798
8150 44 2786 2787 2795 2799
8151 44 2780 2777 2778 2786
8152 44 2781 2777 2778 2786
8153 44 2795 2796 2804 2807
8154 44 2795 2796 2804 2808
8155 44 2789 2786 2787 2795
8156 44 2790 2786 2787 2795
8157 44 2804 2805 2813 2816
8158 44 2804 2805 2813 2817
8159 44 2798 2795 2796 2804
8160 44 2799 2795 2796 2804
8161 44 2813 2814 2822 2825
8162 44 2813 2814 2822 2826
8163 44 2807 2804 2805 2813
8164 44 2808 2804 2805 2813
8165 44 2822 2823 2831 2834
8166 44 2822 2823 2831 2835
8167 44 2816 2813 2814 2822
8168 44 2817 2813 2814 2822
8169 44 2831 2832 2840 2843
8170 44 2831 2832 2840 2844
8171 44 2825 2822 2823 2831
8172 44 2826 2822 2823 2831
8173 44 2840 2841 2849 2852
8174 44 2840 2841 2849 2853
8175 44 2834 2831 2832 2840
8176 44 2835 2831 2832 2840
8177 44 2849 2850 2858 2861
8178 44 2849 2850 2858 2862
8179 44 2843 2840 2841 2849
8180 44 2844 2840 2841 2849
8181 44 2858 2859 2867 2870
8182 44 2858 2859 2867 2871
8183 44 2852 2849 2850 2858
8184 44 2853 2849 2850 2858
8185 44 2867 2868 2876 2879
8186 44 2867 2868 2876 2880
8187 44 2861 2858 2859 2867
8188 44 2862 2858 2859 2867
8189 44 2876 2877 2885 2888
8190 44 2876 2877 2885 2889
8191 44 2870 2867 2868 2876
8192 44 2871 2867 2868 2876
8193 44 2885 2886 2894 2897
8194 44 2885 2886 2894 2898
8195 44 2879 2876 2877 2885
8196 44 2880 2876 2877 2885
8197 44 2894 2895 2903 2906
8198 44 2894 2895 2903 2907
8199 44 2888 2885 2886 2894
8200 44 2889 2885 2886 2894
8201 44 2903 2904 2912 2915
8202 44 2903 2904 2912 2916
8203 44 2897 2894 2895 2903
8204 44 2898 2894 2895 2903
8205 44 2912 2913 2921 2924
8206 44 2912 2913 2921 2925
8207 44 2906 2903 2904 2912
8208 44 2907 2903 2904 2912
8209 44 2921 2922 2930 2933
8210 44 2921 2922 2930 2934
8211 44 2915 2912 2913 2921
8212 44 2916 2912 2913 2921
8213 44 2930 2931 2939 2942
8214 44 2930 2931 2939 2943
8215 44 2924 2921 2922 2930
8216 44 2925 2921 2922 2930
8217 44 2939 2940 2948 2951
8218 44 2939 2940 2948 2952
8219 44 2933 2930 2931 2939
8220 44 2934 2930 2931 2939
8221 44 2948 2949 2957 2960
8222 44 2948 2949 2957 2961
8223 44 2942 2939 2940 2948
8224 44 2943 2939 2940 2948
8225 44 2957 2958 2966 2969
8226 44 2957 2958 2966 2970
8227 44 2951 2948 2949 2957
8228 44 2952 2948 2949 2957
8229 44 2966 2967 2975 2978
8230 44 2966 2967 2975 2979
8231 44 2960 2957 2958 2966
8232 44 2961 2957 2958 2966
8233 44 2975 2976 2984 2987
8234 44 2975 2976 2984 2988
8235 44 2969 2966 2967 2975
8236 44 2970 2966 2967 2975
8237 44 2984 2985 2993 2996
8238 44 2984 2985 2993 2997
8239 44 2978 2975 2976 2984
8240 44 2979 2975 2976 2984
8241 44 2993 2994 3002 3005
8242 44 2993 2994 3002 3006
8243 44 2987 2984 2985 2993
8244 44 2988 2984 2985 2993
8245 44 3002 3003 3011 3014
8246 44 3002 3003 3011 3015
8247 44 2996 2993 2994 3002
8248 44 2997 2993 2994 3002
8249 44 3011 3012 3020 3023
8250 44 3011 3012 3020 3024
8251 44 3005 3002 3003 3011
8252 44 3006 3002 3003 3011
8253 44 3020 3021 3029 3032
8254 44 3020 3021 3029 3033
8255 44 3014 3011 3012 3020
8256 44 3015 3011 3012 3020
8257 44 3029 3030 3038 3041
8258 44 3029 3030 3038 3042
8259 44 3023 3020 3021 3029
8260 44 3024 3020 3021 3029
8261 44 3038 3039 3047 3050
8262 44 3038 3039 3047 3051
8263 44 3032 3029 3030 3038
8264 44 3033 3029 3030 3038
8265 44 3047 3048 3056 3059
8266 44 3047 3048 3056 3060
8267 44 3041 3038 3039 3047
8268 44 3042 3038 3039 3047
8269 44 3056 3057 3065 3068
8270 44 3056 3057 3065 3069
8271 44 3050 3047 3048 3056
8272 44 3051 3047 3048 3056
8273 44 3065 3066 3074 3077
8274 44 3065 3066 3074 3078
8275 44 3059 3056 3057 3065
8276 44 3060 3056 3057 3065
8277 44 3074 3075 3083 3086
8278 44 3074 3075 3083 3087
8279 44 3068 3065 3066 3074
8280 44 3069 3065 3066 3074
8281 44 3083 3084 3092 3095
8282 44 3083 3084 3092 3096
8283 44 3077 3074 3075 3083
8284 44 3078 3074 3075 3083
8285 44 3092 3093 3101 3104
8286 44 3092 3093 3101 3105
8287 44 3086 3083 3084 3092
8288 44 3087 3083 3084 3092
8289 44 3101 3102 3110 3113
8290 44 3101 3102 3110 3114
8291 44 3095 3092 3093 3101
8292 44 3096 3092 3093 3101
8293 44 3110 3111 3119 3122
8294 44 3110 3111 3119 3123
8295 44 3104 3101 3102 3110
8296 44 3105 3101 3102 3110
8297 44 3119 3120 3128 3131
8298 44 3119 3120 3128 3132
8299 44 3113 3110 3111 3119
8300 44 3114 3110 3111 3119
8301 44 3128 3129 3137 3140
8302 44 3128 3129 3137 3141
8303 44 3122 3119 3120 3128
8304 44 3123 3119 3120 3128
8305 44 3137 3138 3146 3149
8306 44 3137 3138 3146 3150
8307 44 3131 3128 3129 3137
8308 44 3132 3128 3129 3137
8309 44 3146 3147 3155 3158
8310 44 3146 3147 3155 3159
8311 44 3140 3137 3138 3146
8312 44 3141 3137 3138 3146
8313 44 3149 3146 3147 3155
8314 44 3150 3146 3147 3155
8315 44 3175 3176 3184 3187
8316 44 3175 3176 3184 3188
8317 44 3184 3185 3193 3196
8318 44 3184 3185 3193 3197
8319 44 3178 3175 3176 3184
8320 44 3179 3175 3176 3184
8321 44 3193 3194 3202 3205
8322 44 3193 3194 3202 3206
8323 44 3187 3184 3185 3193
8324 44 3188 3184 3185 3193
8325 44 3202 3203 3211 3214
8326 44 3202 3203 3211 3215
8327 44 3196 3193 3194 3202
8328 44 3197 3193 3194 3202
8329 44 3211 3212 3220 3223
8330 44 3211 3212 3220 3224
8331 44 3205 3202 3203 3211
8332 44 3206 3202 3203 3211
8333 44 3220 3221 3229 3232
8334 44 3220 3221 3229 3233
8335 44 3214 3211 3212 3220
8336 44 3215 3211 3212 3220
8337 44 3229 3230 3238 3241
8338 44 3229 3230 3238 3242
8339 44 3223 3220 3221 3229
8340 44 3224 3220 3221 3229
8341 44 3238 3239 3247 3250
8342 44 3238 3239 3247 3251
8343 44 3232 3229 3230 3238
8344 44 3233 3229 3230 3238
8345 44 3247 3248 3256 3259
8346 44 3247 3248 3256 3260
8347 44 3241 3238 3239 3247
8348 44 3242 3238 3239 3247
8349 44 3256 3257 3265 3268
8350 44 3256 3257 3265 3269
8351 44 3250 3247 3248 3256
8352 44 3251 3247 3248 3256
8353 44 3265 3266 3274 3277
8354 44 3265 3266 3274 3278
8355 44 3259 3256 3257 3265
8356 44 3260 3256 3257 3265
8357 44 3274 3275 3283 3286
8358 44 3274 3275 3283 3287
8359 44 3268 3265 3266 3274
8360 44 3269 3265 3266 3274
8361 44 3283 3284 3292 3295
8362 44 3283 3284 3292 3296
8363 44 3277 3274 3275 3283
8364 44 3278 3274 3275 3283
8365 44 3292 3293 3301 3304
8366 44 3292 3293 3301 3305
8367 44 3286 3283 3284 3292
8368 44 3287 3283 3284 3292
8369 44 3301 3302 3310 3313
8370 44 3301 3302 3310 3314
8371 44 3295 3292 3293 3301
8372 44 3296 3292 3293 3301
8373 44 3310 3311 3319 3322
8374 44 3310 3311 3319 3323
8375 44 3304 3301 3302 3310
8376 44 3305 3301 3302 3310
8377 44 3319 3320 3328 3331
8378 44 3319 3320 3328 3332
8379 44 3313 3310 3311 3319
8380 44 3314 3310 3311 3319
8381 44 3328 3329 3337 3340
8382 44 3328 3329 3337 3341
8383 44 3322 3319 3320 3328
8384 44 3323 3319 3320 3328
8385 44 3337 3338 3346 3349
8386 44 3337 3338 3346 3350
8387 44 3331 3328 3329 3337
8388 44 3332 3328 3329 3337
8389 44 3346 3347 3355 3358
8390 44 3346 3347 3355 3359
8391 44 3340 3337 3338 3346
8392 44 3341 3337 3338 3346
8393 44 3355 3356 3364 3367
8394 44 3355 3356 3364 3368
8395 44 3349 3346 3347 3355
8396 44 3350 3346 3347 3355
8397 44 3364 3365 3373 3376
8398 44 3364 3365 3373 3377
8399 44 3358 3355 3356 3364
8400 44 3359 3355 3356 3364
8401 44 3373 3374 3382 3385
8402 44 3373 3374 3382 3386
8403 44 3367 3364 3365 3373
8404 44 3368 3364 3365 3373
8405 44 3382 3383 3391 3394
8406 44 3382 3383 3391 3395
8407 44 3376 3373 3374 3382
8408 44 3377 3373 3374 3382
8409 44 3391 3392 3400 3403
8410 44 3391 3392 3400 3404
8411 44 3385 3382 3383 3391
8412 44 3386 3382 3383 3391
8413 44 3400 3401 3409 3412
8414 44 3400 3401 3409 3413
8415 44 3394 3391 3392 3400
8416 44 3395 3391 3392 3400
8417 44 3409 3410 3418 3421
8418 44 3409 3410 3418 3422
8419 44 3403 3400 3401 3409
8420 44 3404 3400 3401 3409
8421 44 3418 3419 3427 3430
8422 44 3418 3419 3427 3431
8423 44 3412 3409 3410 3418
8424 44 3413 3409 3410 3418
8425 44 3427 3428 3436 3439
8426 44 3427 3428 3436 3440
8427 44 3421 3418 3419 3427
8428 44 3422 3418 3419 3427
8429 44 3436 3437 3445 3448
8430 44 3436 3437 3445 3449
8431 44 3430 3427 3428 3436
8432 44 3431 3427 3428 3436
8433 44 3445 3446 3454 3457
8434 44 3445 3446 3454 3458
8435 44 3439 3436 3437 3445
8436 44 3440 3436 3437 3445
8437 44 3454 3455 3463 3466
8438 44 3454 3455 3463 3467
8439 44 3448 3445 3446 3454
8440 44 3449 3445 3446 3454
8441 44 3463 3464 3472 3475
8442 44 3463 3464 3472 3476
8443 44 3457 3454 3455 3463
8444 44 3458 3454 3455 3463
8445 44 3472 3473 3481 3484
8446 44 3472 3473 3481 3485
8447 44 3466 3463 3464 3472
8448 44 3467 3463 3464 3472
8449 44 3481 3482 3490 3493
8450 44 3481 3482 3490 3494
8451 44 3475 3472 3473 3481
8452 44 3476 3472 3473 3481
8453 44 3490 3491 3499 3502
8454 44 3490 3491 3499 3503
8455 44 3484 3481 3482 3490
8456 44 3485 3481 3482 3490
8457 44 3499 3500 3508 3511
8458 44 3499 3500 3508 3512
8459 44 3493 3490 3491 3499
8460 44 3494 3490 3491 3499
8461 44 3508 3509 3517 3520
8462 44 3508 3509 3517 3521
8463 44 3502 3499 3500 3508
8464 44 3503 3499 3500 3508
8465 44 3517 3518 3526 3529
8466 44 3517 3518 3526 3530
8467 44 3511 3508 3509 3517
8468 44 3512 3508 3509 3517
8469 44 3526 3527 3535 3538
8470 44 3526 3527 3535 3539
8471 44 3520 3517 3518 3526
8472 44 3521 3517 3518 3526
8473 44 3535 3536 3544 3547
8474 44 3535 3536 3544 3548
8475 44 3529 3526 3527 3535
8476 44 3530 3526 3527 3535
8477 44 3544 3545 3553 3556
8478 44 3544 3545 3553 3557
8479 44 3538 3535 3536 3544
8480 44 3539 3535 3536 3544
8481 44 3553 3554 3562 3565
8482 44 3553 3554 3562 3566
8483 44 3547 3544 3545 3553
8484 44 3548 3544 3545 3553
8485 44 3562 3563 3571 3574
8486 44 3562 3563 3571 3575
8487 44 3556 3553 3554 3562
8488 44 3557 3553 3554 3562
8489 44 3571 3572 3580 3583
8490 44 3571 3572 3580 3584
8491 44 3565 3562 3563 3571
8492 44 3566 3562 3563 3571
8493 44 3580 3581 3589 3592
8494 44 3580 3581 3589 3593
8495 44 3574 3571 3572 3580
8496 44 3575 3571 3572 3580
8497 44 3589 3590 3598 3601
8498 44 3589 3590 3598 3602
8499 44 3583 3580 3581 3589
8500 44 3584 3580 3581 3589
8501 44 3598 3599 3607 3610
8502 44 3598 3599 3607 3611
8503 44 3592 3589 3590 3598
8504 44 3593 3589 3590 3598
8505 44 3601 3598 3599 3607
8506 44 3602 3598 3599 3607
8507 44 3627 3628 3636 3639
8508 44 3627 3628 3636 3640
8509 44 3636 3637 3645 3648
8510 44 3636 3637 3645 3649
8511 44 3630 3627 3628 3636
8512 44 3631 3627 3628 3636
8513 44 3645 3646 3654 3657
8514 44 3645 3646 3654 3658
8515 44 3639 3636 3637 3645
8516 44 3640 3636 3637 3645
8517 44 3654 3655 3663 3666
8518 44 3654 3655 3663 3667
8519 44 3648 3645 3646 3654
8520 44 3649 3645 3646 3654
8521 44 3663 3664 3672 3675
8522 44 3663 3664 3672 3676
8523 44 3657 3654 3655 3663
8524 44 3658 3654 3655 3663
8525 44 3672 3673 3681 3684
8526 44 3672 3673 3681 3685
8527 44 3666 3663 3664 3672
8528 44 3667 3663 3664 3672
8529 44 3681 3682 3690 3693
8530 44 3681 3682 3690 3694
8531 44 3675 3672 3673 3681
8532 44 3676 3672 3673 3681
8533 44 3690 3691 3699 3702
8534 44 3690 3691 3699 3703
8535 44 3684 3681 3682 3690
8536 44 3685 3681 3682 3690
8537 44 3699 3700 3708 3711
8538 44 3699 3700 3708 3712
8539 44 3693 3690 3691 3699
8540 44 3694 3690 3691 3699
8541 44 3708 3709 3717 3720
8542 44 3708 3709 3717 3721
8543 44 3702 3699 3700 3708
8544 44 3703 3699 3700 3708
8545 44 3717 3718 3726 3729
8546 44 3717 3718 3726 3730
8547 44 3711 3708 3709 3717
8548 44 3712 3708 3709 3717
8549 44 3726 3727 3735 3738
8550 44 3726 3727 3735 3739
8551 44 3720 3717 3718 3726
8552 44 3721 3717 3718 3726
8553 44 3735 3736 3744 3747
8554 44 3735 3736 3744 3748
8555 44 3729 3726 3727 3735
8556 44 3730 3726 3727 3735
8557 44 3744 3745 3753 3756
8558 44 3744 3745 3753 3757
8559 44 3738 3735 3736 3744
8560 44 3739 3735 3736 3744
8561 44 3753 3754 3762 3765
8562 44 3753 3754 3762 3766
8563 44 3747 3744 3745 3753
8564 44 3748 3744 3745 3753
8565 44 3762 3763 3771 3774
8566 44 3762 3763 3771 3775
8567 44 3756 3753 3754 3762
8568 44 3757 3753 3754 3762
8569 44 3771 3772 3780 3783
8570 44 3771 3772 3780 3784
8571 44 3765 3762 3763 3771
8572 44 3766 3762 3763 3771
8573 44 3780 3781 3789 3792
8574 44 3780 3781 3789 3793
8575 44 3774 3771 3772 3780
8576 44 3775 3771 3772 3780
8577 44 3789 3790 3798 3801
8578 44 3789 3790 3798 3802
8579 44 3783 3780 3781 3789
8580 44 3784 3780 3781 3789
8581 44 3798 3799 3807 3810
8582 44 3798 3799 3807 3811
8583 44 3792 3789 3790 3798
8584 44 3793 3789 3790 3798
8585 44 3807 3808 3816 3819
8586 44 3807 3808 3816 3820
8587 44 3801 3798 3799 3807
8588 44 3802 3798 3799 3807
8589 44 3816 3817 3825 3828
8590 44 3816 3817 3825 3829
8591 44 3810 3807 3808 3816
8592 44 3811 3807 3808 3816
8593 44 3825 3826 3834 3837
8594 44 3825 3826 3834 3838
8595 44 3819 3816 3817 3825
8596 44 3820 3816 3817 3825
8597 44 3834 3835 3843 3846
8598 44 3834 3835 3843 3847
8599 44 3828 3825 3826 3834
8600 44 3829 3825 3826 3834
8601 44 3843 3844 3852 3855
8602 44 3843 3844 3852 3856
8603 44 3837 3834 3835 3843
8604 44 3838 3834 3835 3843
8605 44 3852 3853 3861 3864
8606 44 3852 3853 3861 3865
8607 44 3846 3843 3844 3852
8608 44 3847 3843 3844 3852
8609 44 3861 3862 3870 3873
8610 44 3861 3862 3870 3874
8611 44 3855 3852 3853 3861
8612 44 3856 3852 3853 3861
8613 44 3870 3871 3879 3882
8614 44 3870 3871 3879 3883
8615 44 3864 3861 3862 3870
8616 44 3865 3861 3862 3870
8617 44 3879 3880 3888 3891
8618 44 3879 3880 3888 3892
8619 44 3873 3870 3871 3879
8620 44 3874 3870 3871 3879
8621 44 3888 3889 3897 3900
8622 44 3888 3889 3897 3901
8623 44 3882 3879 3880 3888
8624 44 3883 3879 3880 3888
8625 44 3897 3898 3906 3909
8626 44 3897 3898 3906 3910
8627 44 3891 3888 3889 3897
8628 44 3892 3888 3889 3897
8629 44 3906 3907 3915 3918
8630 44 3906 3907 3915 3919
8631 44 3900 3897 3898 3906
8632 44 3901 3897 3898 3906
8633 44 3915 3916 3924 3927
8634 44 3915 3916 3924 3928
8635 44 3909 3906 3907 3915
8636 44 3910 3906 3907 3915
8637 44 3924 3925 3933 3936
8638 44 3924 3925 3933 3937
8639 44 3918 3915 3916 3924
8640 44 3919 3915 3916 3924
8641 44 3933 3934 3942 3945
8642 44 3933 3934 3942 3946
8643 44 3927 3924 3925 3933
8644 44 3928 3924 3925 3933
8645 44 3942 3943 3951 3954
8646 44 3942 3943 3951 3955
8647 44 3936 3933 3934 3942
8648 44 3937 3933 3934 3942
8649 44 3951 3952 3960 3963
8650 44 3951 3952 3960 3964
8651 44 3945 3942 3943 3951
8652 44 3946 3942 3943 3951
8653 44 3960 3961 3969 3972
8654 44 3960 3961 3969 3973
8655 44 3954 3951 3952 3960
8656 44 3955 3951 3952 3960
8657 44 3969 3970 3978 3981
8658 44 3969 3970 3978 3982
8659 44 3963 3960 3961 3969
8660 44 3964 3960 3961 3969
8661 44 3978 3979 3987 3990
8662 44 3978 3979 3987 3991
8663 44 3972 3969 3970 3978
8664 44 3973 3969 3970 3978
8665 44 3987 3988 3996 3999
8666 44 3987 3988 3996 4000
8667 44 3981 3978 3979 3987
8668 44 3982 3978 3979 3987
8669 44 3996 3997 4005 4008
8670 44 3996 3997 4005 4009
8671 44 3990 3987 3988 3996
8672 44 3991 3987 3988 3996
8673 44 4005 4006 4014 4017
8674 44 4005 4006 4014 4018
8675 44 3999 3996 3997 4005
8676 44 4000 3996 3997 4005
8677 44 4014 4015 4023 4026
8678 44 4014 4015 4023 4027
8679 44 4008 4005 4006 4014
8680 44 4009 4005 4006 4014
8681 44 4023 4024 4032 4035
8682 44 4023 4024 4032 4036
8683 44 4017 4014 4015 4023
8684 44 4018 4014 4015 4023
8685 44 4032 4033 4041 4044
8686 44 4032 4033 4041 4045
8687 44 4026 4023 4024 4032
8688 44 4027 4023 4024 4032
8689 44 4041 4042 4050 4053
8690 44 4041 4042 4050 4054
8691 44 4035 4032 4033 4041
8692 44 4036 4032 4033 4041
8693 44 4050 4051 4059 4062
8694 44 4050 4051 4059 4063
8695 44 4044 4041 4042 4050
8696 44 4045 4041 4042 4050
8697 44 4053 4050 4051 4059
8698 44 4054 4050 4051 4059
8699 44 4079 4080 4088 4091
8700 44 4079 4080 4088 4092
8701 44 4088 4089 4097 4100
8702 44 4088 4089 4097 4101
8703 44 4082 4079 4080 4088
8704 44 4083 4079 4080 4088
8705 44 4097 4098 4106 4109
8706 44 4097 4098 4106 4110
8707 44 4091 4088 4089 4097
8708 44 4092 4088 4089 4097
8709 44 4106 4107 4115 4118
8710 44 4106 4107 4115 4119
8711 44 4100 4097 4098 4106
8712 44 4101 4097 4098 4106
8713 44 4115 4116 4124 4127
8714 44 4115 4116 4124 4128
8715 44 4109 4106 4107 4115
8716 44 4110 4106 4107 4115
8717 44 4124 4125 4133 4136
8718 44 4124 4125 4133 4137
8719 44 4118 4115 4116 4124
8720 44 4119 4115 4116 4124
8721 44 4133 4134 4142 4145
8722 44 4133 4134 4142 4146
8723 44 4127 4124 4125 4133
8724 44 4128 4124 4125 4133
8725 44 4142 4143 4151 4154
8726 44 4142 4143 4151 4155
8727 44 4136 4133 4134 4142
8728 44 4137 4133 4134 4142
8729 44 4151 4152 4160 4163
8730 44 4151 4152 4160 4164
8731 44 4145 4142 4143 4151
8732 44 4146 4142 4143 4151
8733 44 4160 4161 4169 4172
8734 44 4160 4161 4169 4173
8735 44 4154 4151 4152 4160
8736 44 4155 4151 4152 4160
8737 44 4169 4170 4178 4181
8738 44 4169 4170 4178 4182
8739 44 4163 4160 4161 4169
8740 44 4164 4160 4161 4169
8741 44 4178 4179 4187 4190
8742 44 4178 4179 4187 4191
8743 44 4172 4169 4170 4178
8744 44 4173 4169 4170 4178
8745 44 4187 4188 4196 4199
8746 44 4187 4188 4196 4200
8747 44 4181 4178 4179 4187
8748 44 4182 4178 4179 4187
8749 44 4196 4197 4205 4208
8750 44 4196 4197 4205 4209
8751 44 4190 4187 4188 4196
8752 44 4191 4187 4188 4196
8753 44 4205 4206 4214 4217
8754 44 4205 4206 4214 4218
8755 44 4199 4196 4197 4205
8756 44 4200 4196 4197 4205
8757 44 4214 4215 4223 4226
8758 44 4214 4215 4223 4227
8759 44 4208 4205 4206 4214
8760 44 4209 4205 4206 4214
8761 44 4223 4224 4232 4235
8762 44 4223 4224 4232 4236
8763 44 4217 4214 4215 4223
8764 44 4218 4214 4215 4223
8765 44 4232 4233 4241 4244
8766 44 4232 4233 4241 4245
8767 44 4226 4223 4224 4232
8768 44 4227 4223 4224 4232
8769 44 4241 4242 4250 4253
8770 44 4241 4242 4250 4254
8771 44 4235 4232 4233 4241
8772 44 4236 4232 4233 4241
8773 44 4250 4251 4259 4262
8774 44 4250 4251 4259 4263
8775 44 4244 4241 4242 4250
8776 44 4245 4241 4242 4250
8777 44 4259 4260 4268 4271
8778 44 4259 4260 4268 4272
8779 44 4253 4250 4251 4259
8780 44 4254 4250 4251 4259
8781 44 4268 4269 4277 4280
8782 44 4268 4269 4277 4281
8783 44 4262 4259 4260 4268
8784 44 4263 4259 4260 4268
8785 44 4277 4278 4286 4289
8786 44 4277 4278 4286 4290
8787 44 4271 4268 4269 4277
8788 44 4272 4268 4269 4277
8789 44 4286 4287 4295 4298
8790 44 4286 4287 4295 4299
8791 44 4280 4277 4278 4286
8792 44 4281 4277 4278 4286
8793 44 4295 4296 4304 4307
8794 44 4295 4296 4304 4308
8795 44 4289 4286 4287 4295
8796 44 4290 4286 4287 4295
8797 44 4304 4305 4313 4316
8798 44 4304 4305 4313 4317
8799 44 4298 4295 4296 4304
8800 44 4299 4295 4296 4304
8801 44 4313 4314 4322 4325
8802 44 4313 4314 4322 4326
8803 44 4307 4304 4305 4313
8804 44 4308 4304 4305 4313
8805 44 4322 4323 4331 4334
8806 44 4322 4323 4331 4335
8807 44 4316 4313 4314 4322
8808 44 4317 4313 4314 4322
8809 44 4331 4332 4340 4343
8810 44 4331 4332 4340 4344
8811 44 4325 4322 4323 4331
8812 44 4326 4322 4323 4331
8813 44 4340 4341 4349 4352
8814 44 4340 4341 4349 4353
8815 44 4334 4331 4332 4340
8816 44 4335 4331 4332 4340
8817 44 4349 4350 4358 4361
8818 44 4349 4350 4358 4362
8819 44 4343 4340 4341 4349
8820 44 4344 4340 4341 4349
8821 44 4358 4359 4367 4370
8822 44 4358 4359 4367 4371
8823 44 4352 4349 4350 4358
8824 44 4353 4349 4350 4358
8825 44 4367 4368 4376 4379
8826 44 4367 4368 4376 4380
8827 44 4361 4358 4359 4367
8828 44 4362 4358 4359 4367
8829 44 4376 4377 4385 4388
8830 44 4376 4377 4385 4389
8831 44 4370 4367 4368 4376
8832 44 4371 4367 4368 4376
8833 44 4385 4386 4394 4397
8834 44 4385 4386 4394 4398
8835 44 4379 4376 4377 4385
8836 44 4380 4376 4377 4385
8837 44 4394 4395 4403 4406
8838 44 4394 4395 4403 4407
8839 44 4388 4385 4386 4394
8840 44 4389 4385 4386 4394
8841 44 4403 4404 4412 4415
8842 44 4403 4404 4412 4416
8843 44 4397 4394 4395 4403
8844 44 4398 4394 4395 4403
8845 44 4412 4413 4421 4424
8846 44 4412 4413 4421 4425
8847 44 4406 4403 4404 4412
8848 44 4407 4403 4404 4412
8849 44 4421 4422 4430 4433
8850 44 4421 4422 4430 4434
8851 44 4415 4412 4413 4421
8852 44 4416 4412 4413 4421
8853 44 4430 4431 4439 4442
8854 44 4430 4431 4439 4443
8855 44 4424 4421 4422 4430
8856 44 4425 4421 4422 4430
8857 44 4439 4440 4448 4451
8858 44 4439 4440 4448 4452
8859 44 4433 4430 4431 4439
8860 44 4434 4430 4431 4439
8861 44 4448 4449 4457 4460
8862 44 4448 4449 4457 4461
8863 44 4442 4439 4440 4448
8864 44 4443 4439 4440 4448
8865 44 4457 4458 4466 4469
8866 44 4457 4458 4466 4470
8867 44 4451 4448 4449 4457
8868 44 4452 4448 4449 4457
8869 44 4466 4467 4475 4478
8870 44 4466 4467 4475 4479
8871 44 4460 4457 4458 4466
8872 44 4461 4457 4458 4466
8873 44 4475 4476 4484 4487
8874 44 4475 4476 4484 4488
8875 44 4469 4466 4467 4475
8876 44 4470 4466 4467 4475
8877 44 4484 4485 4493 4496
8878 44 4484 4485 4493 4497
8879 44 4478 4475 4476 4484
8880 44 4479 4475 4476 4484
8881 44 4493 4494 4502 4505
8882 44 4493 4494 4502 4506
8883 44 4487 4484 4485 4493
8884 44 4488 4484 4485 4493
8885 44 4502 4503 4511 4514
8886 44 4502 4503 4511 4515
8887 44 4496 4493 4494 4502
8888 44 4497 4493 4494 4502
8889 44 4505 4502 4503 4511
8890 44 4506 4502 4503 4511
8891 50 435 443 444 448
8892 50 435 443 444 449
8893 50 887 895 896 900
8894 50 887 895 896 901
8895 50 1339 1347 1348 1352
8896 50 1339 1347 1348 1353
8897 50 1791 1799 1800 1804
8898 50 1791 1799 1800 1805
8899 50 2243 2251 2252 2256
8900 50 2243 2251 2252 2257
8901 50 2695 2703 2704 2708
8902 50 2695 2703 2704 2709
8903 50 3147 3155 3156 3160
8904 50 3147 3155 3156 3161
8905 50 3599 3607 3608 3612
8906 50 3599 3607 3608 3613
8907 50 4051 4059 4060 4064
8908 50 4051 4059 4060 4065
8909 50 4503 4511 4512 4516
8910 50 4503 4511 4512 4517
8911 51 2 11 12 16
8912 51 7 2 11 12
8913 51 12 20 21 25
8914 51 16 12 20 21
8915 51 21 29 30 34
8916 51 25 21 29 30
8917 51 30 38 39 43
8918 51 34 30 38 39
8919 51 39 47 48 52
8920 51 43 39 47 48
8921 51 48 56 57 61
8922 51 52 48 56 57
8923 51 57 65 66 70
8924 51 61 57 65 66
8925 51 66 74 75 79
8926 51 70 66 74 75
8927 51 75 83 84 88
8928 51 79 75 83 84
8929 51 84 92 93 97
8930 51 88 84 92 93
8931 51 93 101 102 106
8932 51 97 93 101 102
8933 51 102 110 111 115
8934 51 106 102 110 111
8935 51 111 119 120 124
8936 51 115 111 119 120
8937 51 120 128 129 133
8938 51 124 120 128 129
8939 51 129 137 138 142
8940 51 133 129 137 138
8941 51 138 146 147 151
8942 51 142 138 146 147
8943 51 147 155 156 160
8944 51 151 147 155 156
8945 51 156 164 165 169
8946 51 160 156 164 165
8947 51 165 173 174 178
8948 51 169 165 173 174
8949 51 174 182 183 187
8950 51 178 174 182 183
8951 51 183 191 192 196
8952 51 187 183 191 192
8953 51 192 200 201 205
8954 51 196 192 200 201
8955 51 201 209 210 214
8956 51 205 201 209 210
8957 51 210 218 219 223
8958 51 214 210 218 219
8959 51 219 227 228 232
8960 51 223 219 227 228
8961 51 228 236 237 241
8962 51 232 228 236 237
8963 51 237 245 246 250
8964 51 241 237 245 246
8965 51 246 254 255 259
8966 51 250 246 254 255
8967 51 255 263 264 268
8968 51 259 255 263 264
8969 51 264 272 273 277
8970 51 268 264 272 273
8971 51 273 281 282 286
8972 51 277 273 281 282
8973 51 282 290 291 295
8974 51 286 282 290 291
8975 51 291 299 300 304
8976 51 295 291 299 300
8977 51 300 308 309 313
8978 51 304 300 308 309
8979 51 309 317 318 322
8980 51 313 309 317 318
8981 51 318 326 327 331
8982 51 322 318 326 327
8983 51 327 335 336 340
8984 51 331 327 335 336
8985 51 336 344 345 349
8986 51 340 336 344 345
8987 51 345 353 354 358
8988 51 349 345 353 354
8989 51 354 362 363 367
8990 51 358 354 362 363
8991 51 363 371 372 376
8992 51 367 363 371 372
8993 51 372 380 381 385
8994 51 376 372 380 381
8995 51 381 389 390 394
8996 51 385 381 389 390
8997 51 390 398 399 403
8998 51 394 390 398 399
8999 51 399 407 408 412
9000 51 403 399 407 408
9001 51 408 416 417 421
9002 51 412 408 416 417
9003 51 417 425 426 430
9004 51 421 417 425 426
9005 51 426 434 435 439
9006 51 430 426 434 435
9007 51 454 463 464 468
9008 51 459 454 463 464
9009 51 464 472 473 477
9010 51 468 464 472 473
9011 51 473 481 482 486
9012 51 477 473 481 482
9013 51 482 490 491 495
9014 51 486 482 490 491
9015 51 491 499 500 504
9016 51 495 491 499 500
9017 51 500 508 509 513
9018 51 504 500 508 509
9019 51 509 517 518 522
9020 51 513 509 517 518
9021 51 518 526 527 531
9022 51 522 518 526 527
9023 51 527 535 536 540
9024 51 531 527 535 536
9025 51 536 544 545 549
9026 51 540 536 544 545
9027 51 545 553 554 558
9028 51 549 545 553 554
9029 51 554 562 563 567
9030 51 558 554 562 563
9031 51 563 571 572 576
9032 51 567 563 571 572
9033 51 572 580 581 585
9034 51 576 572 580 581
9035 51 581 589 590 594
9036 51 585 581 589 590
9037 51 590 598 599 603
9038 51 594 590 598 599
9039 51 599 607 608 612
9040 51 603 599 607 608
9041 51 608 616 617 621
9042 51 612 608 616 617
9043 51 617 625 626 630
9044 51 621 617 625 626
9045 51 626 634 635 639
9046 51 630 626 634 635
9047 51 635 643 644 648
9048 51 639 635 643 644
9049 51 644 652 653 657
9050 51 648 644 652 653
9051 51 653 661 662 666
9052 51 657 653 661 662
9053 51 662 670 671 675
9054 51 666 662 670 671
9055 51 671 679 680 684
9056 51 675 671 679 680
9057 51 680 688 689 693
9058 51 684 680 688 689
9059 51 689 697 698 702
9060 51 693 689 697 698
9061 51 698 706 707 711
9062 51 702 698 706 707
9063 51 707 715 716 720
9064 51 711 707 715 716
9065 51 716 724 725 729
9066 51 720 716 724 725
9067 51 725 733 734 738
9068 51 729 725 733 734
9069 51 734 742 743 747
9070 51 738 734 742 743
9071 51 743 751 752 756
9072 51 747 743 751 752
9073 51 752 760 761 765
9074 51 756 752 760 761
9075 51 761 769 770 774
9076 51 765 761 769 770
9077 51 770 778 779 783
9078 51 774 770 778 779
9079 51 779 787 788 792
9080 51 783 779 787 788
9081 51 788 796 797 801
9082 51 792 788 796 797
9083 51 797 805 806 810
9084 51 801 797 805 806
9085 51 806 814 815 819
9086 51 810 806 814 815
9087 51 815 823 824 828
9088 51 819 815 823 824
9089 51 824 832 833 837
9090 51 828 824 832 833
9091 51 833 841 842 846
9092 51 837 833 841 842
9093 51 842 850 851 855
9094 51 846 842 850 851
9095 51 851 859 860 864
9096 51 855 851 859 860
9097 51 860 868 869 873
9098 51 864 860 868 869
9099 51 869 877 878 882
9100 51 873 869 877 878
9101 51 878 886 887 891
9102 51 882 878 886 887
9103 51 906 915 916 920
9104 51 911 906 915 916
9105 51 916 924 925 929
9106 51 920 916 924 925
9107 51 925 933 934 938
9108 51 929 925 933 934
9109 51 934 942 943 947
9110 51 938 934 942 943
9111 51 943 951 952 956
9112 51 947 943 951 952
9113 51 952 960 961 965
9114 51 956 952 960 961
9115 51 961 969 970 974
9116 51 965 961 969 970
9117 51 970 978 979 983
9118 51 974 970 978 979
9119 51 979 987 988 992
9120 51 983 979 987 988
9121 51 988 996 997 1001
9122 51 992 988 996 997
9123 51 997 1005 1006 1010
9124 51 1001 997 1005 1006
9125 51 1006 1014 1015 1019
9126 51 1010 1006 1014 1015
9127 51 1015 1023 1024 1028
9128 51 1019 1015 1023 1024
9129 51 1024 1032 1033 1037
9130 51 1028 1024 1032 1033
9131 51 1033 1041 1042 1046
9132 51 1037 1033 1041 1042
9133 51 1042 1050 1051 1055
9134 51 1046 1042 1050 1051
9135 51 1051 1059 1060 1064
9136 51 1055 1051 1059 1060
9137 51 1060 1068 1069 1073
9138 51 1064 1060 1068 1069
9139 51 1069 1077 1078 1082
9140 51 1073 1069 1077 1078
9141 51 1078 1086 1087 1091
9142 51 1082 1078 1086 1087
9143 51 1087 1095 1096 1100
9144 51 1091 1087 1095 1096
9145 51 1096 1104 1105 1109
9146 51 1100 1096 1104 1105
9147 51 1105 1113 1114 1118
9148 51 1109 1105 1113 1114
9149 51 1114 1122 1123 1127
9150 51 1118 1114 1122 1123
9151 51 1123 1131 1132 1136
9152 51 1127 1123 1131 1132
9153 51 1132 1140 1141 1145
9154 51 1136 1132 1140 1141
9155 51 1141 1149 1150 1154
9156 51 1145 1141 1149 1150
9157 51 1150 1158 1159 1163
9158 51 1154 1150 1158 1159
9159 51 1159 1167 1168 1172
9160 51 1163 1159 1167 1168
9161 51 1168 1176 1177 1181
9162 51 1172 1168 1176 1177
9163 51 1177 1185 1186 1190
9164 51 1181 1177 1185 1186
9165 51 1186 1194 1195 1199
9166 51 1190 1186 1194 1195
9167 51 1195 1203 1204 1208
9168 51 1199 1195 1203 1204
9169 51 1204 1212 1213 1217
9170 51 1208 1204 1212 1213
9171 51 1213 1221 1222 1226
9172 51 1217 1213 1221 1222
9173 51 1222 1230 1231 1235
9174 51 1226 1222 1230 1231
9175 51 1231 1239 1240 1244
9176 51 1235 1231 1239 1240
9177 51 1240 1248 1249 1253
9178 51 1244 1240 1248 1249
9179 51 1249 1257 1258 1262
9180 51 1253 1249 1257 1258
9181 51 1258 1266 1267 1271
9182 51 1262 1258 1266 1267
9183 51 1267 1275 1276 1280
9184 51 1271 1267 1275 1276
9185 51 1276 1284 1285 1289
9186 51 1280 1276 1284 1285
9187 51 1285 1293 1294 1298
9188 51 1289 1285 1293 1294
9189 51 1294 1302 1303 1307
9190 51 1298 1294 1302 1303
9191 51 1303 1311 1312 1316
9192 51 1307 1303 1311 1312
9193 51 1312 1320 1321 1325
9194 51 1316 1312 1320 1321
9195 51 1321 1329 1330 1334
9196 51 1325 1321 1329 1330
9197 51 1330 1338 1339 1343
9198 51 1334 1330 1338 1339
9199 51 1358 1367 1368 1372
9200 51 1363 1358 1367 1368
9201 51 1368 1376 1377 1381
9202 51 1372 1368 1376 1377
9203 51 1377 1385 1386 1390
9204 51 1381 1377 1385 1386
9205 51 1386 1394 1395 1399
9206 51 1390 1386 1394 1395
9207 51 1395 1403 1404 1408
9208 51 1399 1395 1403 1404
9209 51 1404 1412 1413 1417
9210 51 1408 1404 1412 1413
9211 51 1413 1421 1422 1426
9212 51 1417 1413 1421 1422
9213 51 1422 1430 1431 1435
9214 51 1426 1422 1430 1431
9215 51 1431 1439 1440 1444
9216 51 1435 1431 1439 1440
9217 51 1440 1448 1449 1453
9218 51 1444 1440 1448 1449
9219 51 1449 1457 1458 1462
9220 51 1453 1449 1457 1458
9221 51 1458 1466 1467 1471
9222 51 1462 1458 1466 1467
9223 51 1467 1475 1476 1480
9224 51 1471 1467 1475 1476
9225 51 1476 1484 1485 1489
9226 51 1480 1476 1484 1485
9227 51 1485 1493 1494 1498
9228 51 1489 1485 1493 1494
9229 51 1494 1502 1503 1507
9230 51 1498 1494 1502 1503
9231 51 1503 1511 1512 1516
9232 51 1507 1503 1511 1512
9233 51 1512 1520 1521 1525
9234 51 1516 1512 1520 1521
9235 51 1521 1529 1530 1534
9236 51 1525 1521 1529 1530
9237 51 1530 1538 1539 1543
9238 51 1534 1530 1538 1539
9239 51 1539 1547 1548 1552
9240 51 1543 1539 1547 1548
9241 51 1548 1556 1557 1561
9242 51 1552 1548 1556 1557
9243 51 1557 1565 1566 1570
9244 51 1561 1557 1565 1566
9245 51 1566 1574 1575 1579
9246 51 1570 1566 1574 1575
9247 51 1575 1583 1584 1588
9248 51 1579 1575 1583 1584
9249 51 1584 1592 1593 1597
9250 51 1588 1584 1592 1593
9251 51 1593 1601 1602 1606
9252 51 1597 1593 1601 1602
9253 51 1602 1610 1611 1615
9254 51 1606 1602 1610 1611
9255 51 1611 1619 1620 1624
9256 51 1615 1611 1619 1620
9257 51 1620 1628 1629 1633
9258 51 1624 1620 1628 1629
9259 51 1629 1637 1638 1642
9260 51 1633 1629 1637 1638
9261 51 1638 1646 1647 1651
9262 51 1642 1638 1646 1647
9263 51 1647 1655 1656 1660
9264 51 1651 1647 1655 1656
9265 51 1656 1664 1665 1669
9266 51 1660 1656 1664 1665
9267 51 1665 1673 1674 1678
9268 51 1669 1665 1673 1674
9269 51 1674 1682 1683 1687
9270 51 1678 1674 1682 1683
9271 51 1683 1691 1692 1696
9272 51 1687 1683 1691 1692
9273 51 1692 1700 1701 1705
9274 51 1696 1692 1700 1701
9275 51 1701 1709 1710 1714
9276 51 1705 1701 1709 1710
9277 51 1710 1718 1719 1723
9278 51 1714 1710 1718 1719
9279 51 1719 1727 1728 1732
9280 51 1723 1719 1727 1728
9281 51 1728 1736 1737 1741
9282 51 1732 1728 1736 1737
9283 51 1737 1745 1746 1750
9284 51 1741 1737 1745 1746
9285 51 1746 1754 1755 1759
9286 51 1750 1746 1754 1755
9287 51 1755 1763 1764 1768
9288 51 1759 1755 1763 1764
9289 51 1764 1772 1773 1777
9290 51 1768 1764 1772 1773
9291 51 1773 1781 1782 1786
9292 51 1777 1773 1781 1782
9293 51 1782 1790 1791 1795
9294 51 1786 1782 1790 1791
9295 51 1810 1819 1820 1824
9296 51 1815 1810 1819 1820
9297 51 1820 1828 1829 1833
9298 51 1824 1820 1828 1829
9299 51 1829 1837 1838 1842
9300 51 1833 1829 1837 1838
9301 51 1838 1846 1847 1851
9302 51 1842 1838 1846 1847
9303 51 1847 1855 1856 1860
9304 51 1851 1847 1855 1856
9305 51 1856 1864 1865 1869
9306 51 1860 1856 1864 1865
9307 51 1865 1873 1874 1878
9308 51 1869 1865 1873 1874
9309 51 1874 1882 1883 1887
9310 51 1878 1874 1882 1883
9311 51 1883 1891 1892 1896
9312 51 1887 1883 1891 1892
9313 51 1892 1900 1901 1905
9314 51 1896 1892 1900 1901
9315 51 1901 1909 1910 1914
9316 51 1905 1901 1909 1910
9317 51 1910 1918 1919 1923
9318 51 1914 1910 1918 1919
9319 51 1919 1927 1928 1932
9320 51 1923 1919 1927 1928
9321 51 1928 1936 1937 1941
9322 51 1932 1928 1936 1937
9323 51 1937 1945 1946 1950
9324 51 1941 1937 1945 1946
9325 51 1946 1954 1955 1959
9326 51 1950 1946 1954 1955
9327 51 1955 1963 1964 1968
9328 51 1959 1955 1963 1964
9329 51 1964 1972 1973 1977
9330 51 1968 1964 1972 1973
9331 51 1973 1981 1982 1986
9332 51 1977 1973 1981 1982
9333 51 1982 1990 1991 1995
9334 51 1986 1982 1990 1991
9335 51 1991 1999 2000 2004
9336 51 1995 1991 1999 2000
9337 51 2000 2008 2009 2013
9338 51 2004 2000 2008 2009
9339 51 2009 2017 2018 2022
9340 51 2013 2009 2017 2018
9341 51 2018 2026 2027 2031
9342 51 2022 2018 2026 2027
9343 51 2027 2035 2036 2040
9344 51 2031 2027 2035 2036
9345 51 2036 2044 2045 2049
9346 51 2040 2036 2044 2045
9347 51 2045 2053 2054 2058
9348 51 2049 2045 2053 2054
9349 51 2054 2062 2063 2067
9350 51 2058 2054 2062 2063
9351 51 2063 2071 2072 2076
9352 51 2067 2063 2071 2072
9353 51 2072 2080 2081 2085
9354 51 2076 2072 2080 2081
9355 51 2081 2089 2090 2094
9356 51 2085 2081 2089 2090
9357 51 2090 2098 2099 2103
9358 51 2094 2090 2098 2099
9359 51 2099 2107 2108 2112
9360 51 2103 2099 2107 2108
9361 51 2108 2116 2117 2121
9362 51 2112 2108 2116 2117
9363 51 2117 2125 2126 2130
9364 51 2121 2117 2125 2126
9365 51 2126 2134 2135 2139
9366 51 2130 2126 2134 2135
9367 51 2135 2143 2144 2148
9368 51 2139 2135 2143 2144
9369 51 2144 2152 2153 2157
9370 51 2148 2144 2152 2153
9371 51 2153 2161 2162 2166
9372 51 2157 2153 2161 2162
9373 51 2162 2170 2171 2175
9374 51 2166 2162 2170 2171
9375 51 2171 2179 2180 2184
9376 51 2175 2171 2179 2180
9377 51 2180 2188 2189 2193
9378 51 2184 2180 2188 2189
9379 51 2189 2197 2198 2202
9380 51 2193 2189 2197 2198
9381 51 2198 2206 2207 2211
9382 51 2202 2198 2206 2207
9383 51 2207 2215 2216 2220
9384 51 2211 2207 2215 2216
9385 51 2216 2224 2225 2229
9386 51 2220 2216 2224 2225
9387 51 2225 2233 2234 2238
9388 51 2229 2225 2233 2234
9389 51 2234 2242 2243 2247
9390 51 2238 2234 2242 2243
9391 51 2262 2271 2272 2276
9392 51 2267 2262 2271 2272
9393 51 2272 2280 2281 2285
9394 51 2276 2272 2280 2281
9395 51 2281 2289 2290 2294
9396 51 2285 2281 2289 2290
9397 51 2290 2298 2299 2303
9398 51 2294 2290 2298 2299
9399 51 2299 2307 2308 2312
9400 51 2303 2299 2307 2308
9401 51 2308 2316 2317 2321
9402 51 2312 2308 2316 2317
9403 51 2317 2325 2326 2330
9404 51 2321 2317 2325 2326
9405 51 2326 2334 2335 2339
9406 51 2330 2326 2334 2335
9407 51 2335 2343 2344 2348
9408 51 2339 2335 2343 2344
9409 51 2344 2352 2353 2357
9410 51 2348 2344 2352 2353
9411 51 2353 2361 2362 2366
9412 51 2357 2353 2361 2362
9413 51 2362 2370 2371 2375
9414 51 2366 2362 2370 2371
9415 51 2371 2379 2380 2384
9416 51 2375 2371 2379 2380
9417 51 2380 2388 2389 2393
9418 51 2384 2380 2388 2389
9419 51 2389 2397 2398 2402
9420 51 2393 2389 2397 2398
9421 51 2398 2406 2407 2411
9422 51 2402 2398 2406 2407
9423 51 2407 2415 2416 2420
9424 51 2411 2407 2415 2416
9425 51 2416 2424 2425 2429
9426 51 2420 2416 2424 2425
9427 51 2425 2433 2434 2438
9428 51 2429 2425 2433 2434
9429 51 2434 2442 2443 2447
9430 51 2438 2434 2442 2443
9431 51 2443 2451 2452 2456
9432 51 2447 2443 2451 2452
9433 51 2452 2460 2461 2465
9434 51 2456 2452 2460 2461
9435 51 2461 2469 2470 2474
9436 51 2465 2461 2469 2470
9437 51 2470 2478 2479 2483
9438 51 2474 2470 2478 2479
9439 51 2479 2487 2488 2492
9440 51 2483 2479 2487 2488
9441 51 2488 2496 2497 2501
9442 51 2492 2488 2496 2497
9443 51 2497 2505 2506 2510
9444 51 2501 2497 2505 2506
9445 51 2506 2514 2515 2519
9446 51 2510 2506 2514 2515
9447 51 2515 2523 2524 2528
9448 51 2519 2515 2523 2524
9449 51 2524 2532 2533 2537
9450 51 2528 2524 2532 2533
9451 51 2533 2541 2542 2546
9452 51 2537 2533 2541 2542
9453 51 2542 2550 2551 2555
9454 51 2546 2542 2550 2551
9455 51 2551 2559 2560 2564
9456 51 2555 2551 2559 2560
9457 51 2560 2568 2569 2573
9458 51 2564 2560 2568 2569
9459 51 2569 2577 2578 2582
9460 51 2573 2569 2577 2578
9461 51 2578 2586 2587 2591
9462 51 2582 2578 2586 2587
9463 51 2587 2595 2596 2600
9464 51 2591 2587 2595 2596
9465 51 2596 2604 2605 2609
9466 51 2600 2596 2604 2605
9467 51 2605 2613 2614 2618
9468 51 2609 2605 2613 2614
9469 51 2614 2622 2623 2627
9470 51 2618 2614 2622 2623
9471 51 2623 2631 2632 2636
9472 51 2627 2623 2631 2632
9473 51 2632 2640 2641 2645
9474 51 2636 2632 2640 2641
9475 51 2641 2649 2650 2654
9476 51 2645 2641 2649 2650
9477 51 2650 2658 2659 2663
9478 51 2654 2650 2658 2659
9479 51 2659 2667 2668 2672
9480 51 2663 2659 2667 2668
9481 51 2668 2676 2677 2681
9482 51 2672 2668 2676 2677
9483 51 2677 2685 2686 2690
9484 51 2681 2677 2685 2686
9485 51 2686 2694 2695 2699
9486 51 2690 2686 2694 2695
9487 51 2714 2723 2724 2728
9488 51 2719 2714 2723 2724
9489 51 2724 2732 2733 2737
9490 51 2728 2724 2732 2733
9491 51 2733 2741 2742 2746
9492 51 2737 2733 2741 2742
9493 51 2742 2750 2751 2755
9494 51 2746 2742 2750 2751
9495 51 2751 2759 2760 2764
9496 51 2755 2751 2759 2760
9497 51 2760 2768 2769 2773
9498 51 2764 2760 2768 2769
9499 51 2769 2777 2778 2782
9500 51 2773 2769 2777 2778
9501 51 2778 2786 2787 2791
9502 51 2782 2778 2786 2787
9503 51 2787 2795 2796 2800
9504 51 2791 2787 2795 2796
9505 51 2796 2804 2805 2809
9506 51 2800 2796 2804 2805
9507 51 2805 2813 2814 2818
9508 51 2809 2805 2813 2814
9509 51 2814 2822 2823 2827
9510 51 2818 2814 2822 2823
9511 51 2823 2831 2832 2836
9512 51 2827 2823 2831 2832
9513 51 2832 2840 2841 2845
9514 51 2836 2832 2840 2841
9515 51 2841 2849 2850 2854
9516 51 2845 2841 2849 2850
9517 51 2850 2858 2859 2863
9518 51 2854 2850 2858 2859
9519 51 2859 2867 2868 2872
9520 51 2863 2859 2867 2868
9521 51 2868 2876 2877 2881
9522 51 2872 2868 2876 2877
9523 51 2877 2885 2886 2890
9524 51 2881 2877 2885 2886
9525 51 2886 2894 2895 2899
9526 51 2890 2886 2894 2895
9527 51 2895 2903 2904 2908
9528 51 2899 2895 2903 2904
9529 51 2904 2912 2913 2917
9530 51 2908 2904 2912 2913
9531 51 2913 2921 2922 2926
9532 51 2917 2913 2921 2922
9533 51 2922 2930 2931 2935
9534 51 2926 2922 2930 2931
9535 51 2931 2939 2940 2944
9536 51 2935 2931 2939 2940
9537 51 2940 2948 2949 2953
9538 51 2944 2940 2948 2949
9539 51 2949 2957 2958 2962
9540 51 2953 2949 2957 2958
9541 51 2958 2966 2967 2971
9542 51 2962 2958 2966 2967
9543 51 2967 2975 2976 2980
9544 51 2971 2967 2975 2976
9545 51 2976 2984 2985 2989
9546 51 2980 2976 2984 2985
9547 51 2985 2993 2994 2998
9548 51 2989 2985 2993 2994
9549 51 2994 3002 3003 3007
9550 51 2998 2994 3002 3003
9551 51 3003 3011 3012 3016
9552 51 3007 3003 3011 3012
9553 51 3012 3020 3021 3025
9554 51 3016 3012 3020 3021
9555 51 3021 3029 3030 3034
9556 51 3025 3021 3029 3030
9557 51 3030 3038 3039 3043
9558 51 3034 3030 3038 3039
9559 51 3039 3047 3048 3052
9560 51 3043 3039 3047 3048
9561 51 3048 3056 3057 3061
9562 51 3052 3048 3056 3057
9563 51 3057 3065 3066 3070
9564 51 3061 3057 3065 3066
9565 51 3066 3074 3075 3079
9566 51 3070 3066 3074 3075
9567 51 3075 3083 3084 3088
9568 51 3079 3075 3083 3084
9569 51 3084 3092 3093 3097
9570 51 3088 3084 3092 3093
9571 51 3093 3101 3102 3106
9572 51 3097 3093 3101 3102
9573 51 3102 3110 3111 3115
9574 51 3106 3102 3110 3111
9575 51 3111 3119 3120 3124
9576 51 3115 3111 3119 3120
9577 51 3120 3128 3129 3133
9578 51 3124 3120 3128 3129
9579 51 3129 3137 3138 3142
9580 51 3133 3129 3137 3138
9581 51 3138 3146 3147 3151
9582 51 3142 3138 3146 3147
9583 51 3166 3175 3176 3180
9584 51 3171 3166 3175 3176
9585 51 3176 3184 3185 3189
9586 51 3180 3176 3184 3185
9587 51 3185 3193 3194 3198
9588 51 3189 3185 3193 3194
9589 51 3194 3202 3203 3207
9590 51 3198 3194 3202 3203
9591 51 3203 3211 3212 3216
9592 51 3207 3203 3211 3212
9593 51 3212 3220 3221 3225
9594 51 3216 3212 3220 3221
9595 51 3221 3229 3230 3234
9596 51 3225 3221 3229 3230
9597 51 3230 3238 3239 3243
9598 51 3234 3230 3238 3239
9599 51 3239 3247 3248 3252
9600 51 3243 3239 3247 3248
9601 51 3248 3256 3257 3261
9602 51 3252 3248 3256 3257
9603 51 3257 3265 3266 3270
9604 51 3261 3257 3265 3266
9605 51 3266 3274 3275 3279
9606 51 3270 3266 3274 3275
9607 51 3275 3283 3284 3288
9608 51 3279 3275 3283 3284
9609 51 3284 3292 3293 3297
9610 51 3288 3284 3292 3293
9611 51 3293 3301 3302 3306
9612 51 3297 3293 3301 3302
9613 51 3302 3310 3311 3315
9614 51 3306 3302 3310 3311
9615 51 3311 3319 3320 3324
9616 51 3315 3311 3319 3320
9617 51 3320 3328 3329 3333
9618 51 3324 3320 3328 3329
9619 51 3329 3337 3338 3342
9620 51 3333 3329 3337 3338
9621 51 3338 3346 3347 3351
9622 51 3342 3338 3346 3347
9623 51 3347 3355 3356 3360
9624 51 3351 3347 3355 3356
9625 51 3356 3364 3365 3369
9626 51 3360 3356 3364 3365
9627 51 3365 3373 3374 3378
9628 51 3369 3365 3373 3374
9629 51 3374 3382 3383 3387
9630 51 3378 3374 3382 3383
9631 51 3383 3391 3392 3396
9632 51 3387 3383 3391 3392
9633 51 3392 3400 3401 3405
9634 51 3396 3392 3400 3401
9635 51 3401 3409 3410 3414
9636 51 3405 3401 3409 3410
9637 51 3410 3418 3419 3423
9638 51 3414 3410 3418 3419
9639 51 3419 3427 3428 3432
9640 51 3423 3419 3427 3428
9641 51 3428 3436 3437 3441
9642 51 3432 3428 3436 3437
9643 51 3437 3445 3446 3450
9644 51 3441 3437 3445 3446
9645 51 3446 3454 3455 3459
9646 51 3450 3446 3454 3455
9647 51 3455 3463 3464 3468
9648 51 3459 3455 3463 3464
9649 51 3464 3472 3473 3477
9650 51 3468 3464 3472 3473
9651 51 3473 3481 3482 3486
9652 51 3477 3473 3481 3482
9653 51 3482 3490 3491 3495
9654 51 3486 3482 3490 3491
9655 51 3491 3499 3500 3504
9656 51 3495 3491 3499 3500
9657 51 3500 3508 3509 3513
9658 51 3504 3500 3508 3509
9659 51 3509 3517 3518 3522
9660 51 3513 3509 3517 3518
9661 51 3518 3526 3527 3531
9662 51 3522 3518 3526 3527
9663 51 3527 3535 3536 3540
9664 51 3531 3527 3535 3536
9665 51 3536 3544 3545 3549
9666 51 3540 3536 3544 3545
9667 51 3545 3553 3554 3558
9668 51 3549 3545 3553 3554
9669 51 3554 3562 3563 3567
9670 51 3558 3554 3562 3563
9671 51 3563 3571 3572 3576
9672 51 3567 3563 3571 3572
9673 51 3572 3580 3581 3585
9674 51 3576 3572 3580 3581
9675 51 3581 3589 3590 3594
9676 51 3585 3581 3589 3590
9677 51 3590 3598 3599 3603
9678 51 3594 3590 3598 3599
9679 51 3618 3627 3628 3632
9680 51 3623 3618 3627 3628
9681 51 3628 3636 3637 3641
9682 51 3632 3628 3636 3637
9683 51 3637 3645 3646 3650
9684 51 3641 3637 3645 3646
9685 51 3646 3654 3655 3659
9686 51 3650 3646 3654 3655
9687 51 3655 3663 3664 3668
9688 51 3659 3655 3663 3664
9689 51 3664 3672 3673 3677
9690 51 3668 3664 3672 3673
9691 51 3673 3681 3682 3686
9692 51 3677 3673 3681 3682
9693 51 3682 3690 3691 3695
9694 51 3686 3682 3690 3691
9695 51 3691 3699 3700 3704
9696 51 3695 3691 3699 3700
9697 51 3700 3708 3709 3713
9698 51 3704 3700 3708 3709
9699 51 3709 3717 3718 3722
9700 51 3713 3709 3717 3718
9701 51 3718 3726 3727 3731
9702 51 3722 3718 3726 3727
9703 51 3727 3735 3736 3740
9704 51 3731 3727 3735 3736
9705 51 3736 3744 3745 3749
9706 51 3740 3736 3744 3745
9707 51 3745 3753 3754 3758
9708 51 3749 3745 3753 3754
9709 51 3754 3762 3763 3767
9710 51 3758 3754 3762 3763
9711 51 3763 3771 3772 3776
9712 51 3767 3763 3771 3772
9713 51 3772 3780 3781 3785
9714 51 3776 3772 3780 3781
9715 51 3781 3789 3790 3794
9716 51 3785 3781 3789 3790
9717 51 3790 3798 3799 3803
9718 51 3794 3790 3798 3799
9719 51 3799 3807 3808 3812
9720 51 3803 3799 3807 3808
9721 51 3808 3816 3817 3821
9722 51 3812 3808 3816 3817
9723 51 3817 3825 3826 3830
9724 51 3821 3817 3825 3826
9725 51 3826 3834 3835 3839
9726 51 3830 3826 3834 3835
9727 51 3835 3843 3844 3848
9728 51 3839 3835 3843 3844
9729 51 3844 3852 3853 3857
9730 51 3848 3844 3852 3853
9731 51 3853 3861 3862 3866
9732 51 3857 3853 3861 3862
9733 51 3862 3870 3871 3875
9734 51 3866 3862 3870 3871
9735 51 3871 3879 3880 3884
9736 51 3875 3871 3879 3880
9737 51 3880 3888 3889 3893
9738 51 3884 3880 3888 3889
9739 51 3889 3897 3898 3902
9740 51 3893 3889 3897 3898
9741 51 3898 3906 3907 3911
9742 51 3902 3898 3906 3907
9743 51 3907 3915 3916 3920
9744 51 3911 3907 3915 3916
9745 51 3916 3924 3925 3929
9746 51 3920 3916 3924 3925
9747 51 3925 3933 3934 3938
9748 51 3929 3925 3933 3934
9749 51 3934 3942 3943 3947
9750 51 3938 3934 3942 3943
9751 51 3943 3951 3952 3956
9752 51 3947 3943 3951 3952
9753 51 3952 3960 3961 3965
9754 51 3956 3952 3960 3961
9755 51 3961 3969 3970 3974
9756 51 3965 3961 3969 3970
9757 51 3970 3978 3979 3983
9758 51 3974 3970 3978 3979
9759 51 3979 3987 3988 3992
9760 51 3983 3979 3987 3988
9761 51 3988 3996 3997 4001
9762 51 3992 3988 3996 3997
9763 51 3997 4005 4006 4010
9764 51 4001 3997 4005 4006
9765 51 4006 4014 4015 4019
9766 51 4010 4006 4014 4015
9767 51 4015 4023 4024 4028
9768 51 4019 4015 4023 4024
9769 51 4024 4032 4033 4037
9770 51 4028 4024 4032 4033
9771 51 4033 4041 4042 4046
9772 51 4037 4033 4041 4042
9773 51 4042 4050 4051 4055
9774 51 4046 4042 4050 4051
9775 51 4070 4079 4080 4084
9776 51 4075 4070 4079 4080
9777 51 4080 4088 4089 4093
9778 51 4084 4080 4088 4089
9779 51 4089 4097 4098 4102
9780 51 4093 4089 4097 4098
9781 51 4098 4106 4107 4111
9782 51 4102 4098 4106 4107
9783 51 4107 4115 4116 4120
9784 51 4111 4107 4115 4116
9785 51 4116 4124 4125 4129
9786 51 4120 4116 4124 4125
9787 51 4125 4133 4134 4138
9788 51 4129 4125 4133 4134
9789 51 4134 4142 4143 4147
9790 51 4138 4134 4142 4143
9791 51 4143 4151 4152 4156
9792 51 4147 4143 4151 4152
9793 51 4152 4160 4161 4165
9794 51 4156 4152 4160 4161
9795 51 4161 4169 4170 4174
9796 51 4165 4161 4169 4170
9797 51 4170 4178 4179 4183
9798 51 4174 4170 4178 4179
9799 51 4179 4187 4188 4192
9800 51 4183 4179 4187 4188
9801 51 4188 4196 4197 4201
9802 51 4192 4188 4196 4197
9803 51 4197 4205 4206 4210
9804 51 4201 4197 4205 4206
9805 51 4206 4214 4215 4219
9806 51 4210 4206 4214 4215
9807 51 4215 4223 4224 4228
9808 51 4219 4215 4223 4224
9809 51 4224 4232 4233 4237
9810 51 4228 4224 4232 4233
9811 51 4233 4241 4242 4246
9812 51 4237 4233 4241 4242
9813 51 4242 4250 4251 4255
9814 51 4246 4242 4250 4251
9815 51 4251 4259 4260 4264
9816 51 4255 4251 4259 4260
9817 51 4260 4268 4269 4273
9818 51 4264 4260 4268 4269
9819 51 4269 4277 4278 4282
9820 51 4273 4269 4277 4278
9821 51 4278 4286 4287 4291
9822 51 4282 4278 4286 4287
9823 51 4287 4295 4296 4300
9824 51 4291 4287 4295 4296
9825 51 4296 4304 4305 4309
9826 51 4300 4296 4304 4305
9827 51 4305 4313 4314 4318
9828 51 4309 4305 4313 4314
9829 51 4314 4322 4323 4327
9830 51 4318 4314 4322 4323
9831 51 4323 4331 4332 4336
9832 51 4327 4323 4331 4332
9833 51 4332 4340 4341 4345
9834 51 4336 4332 4340 4341
9835 51 4341 4349 4350 4354
9836 51 4345 4341 4349 4350
9837 51 4350 4358 4359 4363
9838 51 4354 4350 4358 4359
9839 51 4359 4367 4368 4372
9840 51 4363 4359 4367 4368
9841 51 4368 4376 4377 4381
9842 51 4372 4368 4376 4377
9843 51 4377 4385 4386 4390
9844 51 4381 4377 4385 4386
9845 51 4386 4394 4395 4399
9846 51 4390 4386 4394 4395
9847 51 4395 4403 4404 4408
9848 51 4399 4395 4403 4404
9849 51 4404 4412 4413 4417
9850 51 4408 4404 4412 4413
9851 51 4413 4421 4422 4426
9852 51 4417 4413 4421 4422
9853 51 4422 4430 4431 4435
9854 51 4426 4422 4430 4431
9855 51 4431 4439 4440 4444
9856 51 4435 4431 4439 4440
9857 51 4440 4448 4449 4453
9858 51 4444 4440 4448 4449
9859 51 4449 4457 4458 4462
9860 51 4453 4449 4457 4458
9861 51 4458 4466 4467 4471
9862 51 4462 4458 4466 4467
9863 51 4467 4475 4476 4480
9864 51 4471 4467 4475 4476
9865 51 4476 4484 4485 4489
9866 51 4480 4476 4484 4485
9867 51 4485 4493 4494 4498
9868 51 4489 4485 4493 4494
9869 51 4494 4502 4503 4507
9870 51 4498 4494 4502 4503
9871 58 448 444 445 450
9872 58 448 444 445 451
9873 58 448 444 445 452
9874 58 449 444 445 450
9875 58 449 444 445 451
9876 58 449 444 445 452
9877 58 900 896 897 902
9878 58 900 896 897 903
9879 58 900 896 897 904
9880 58 901 896 897 902
9881 58 901 896 897 903
9882 58 901 896 897 904
9883 58 1352 1348 1349 1354
9884 58 1352 1348 1349 1355
9885 58 1352 1348 1349 1356
9886 58 1353 1348 1349 1354
9887 58 1353 1348 1349 1355
9888 58 1353 1348 1349 1356
9889 58 1804 1800 1801 1806
9890 58 1804 1800 1801 1807
9891 58 1804 1800 1801 1808
9892 58 1805 1800 1801 1806
9893 58 1805 1800 1801 1807
9894 58 1805 1800 1801 1808
9895 58 2256 2252 2253 2258
9896 58 2256 2252 2253 2259
9897 58 2256 2252 2253 2260
9898 58 2257 2252 2253 2258
9899 58 2257 2252 2253 2259
9900 58 2257 2252 2253 2260
9901 58 2708 2704 2705 2710
9902 58 2708 2704 2705 2711
9903 58 2708 2704 2705 2712
9904 58 2709 2704 2705 2710
9905 58 2709 2704 2705 2711
9906 58 2709 2704 2705 2712
9907 58 3160 3156 3157 3162
9908 58 3160 3156 3157 3163
9909 58 3160 3156 3157 3164
9910 58 3161 3156 3157 3162
9911 58 3161 3156 3157 3163
9912 58 3161 3156 3157 3164
9913 58 3612 3608 3609 3614
9914 58 3612 3608 3609 3615
9915 58 3612 3608 3609 3616
9916 58 3613 3608 3609 3614
9917 58 3613 3608 3609 3615
9918 58 3613 3608 3609 3616
9919 58 4064 4060 4061 4066
9920 58 4064 4060 4061 4067
9921 58 4064 4060 4061 4068
9922 58 4065 4060 4061 4066
9923 58 4065 4060 4061 4067
9924 58 4065 4060 4061 4068
9925 58 4516 4512 4513 4518
9926 58 4516 4512 4513 4519
9927 58 4516 4512 4513 4520
9928 58 4517 4512 4513 4518
9929 58 4517 4512 4513 4519
9930 58 4517 4512 4513 4520
9931 59 446 443 444 448
9932 59 446 443 444 449
9933 59 447 443 444 448
9934 59 447 443 444 449
9935 59 898 895 896 900
9936 59 898 895 896 901
9937 59 899 895 896 900
9938 59 899 895 896 901
9939 59 1350 1347 1348 1352
9940 59 1350 1347 1348 1353
9941 59 1351 1347 1348 1352
9942 59 1351 1347 1348 1353
9943 59 1802 1799 1800 1804
9944 59 1802 1799 1800 1805
9945 59 1803 1799 1800 1804
9946 59 1803 1799 1800 1805
9947 59 2254 2251 2252 2256
9948 59 2254 2251 2252 2257
9949 59 2255 2251 2252 2256
9950 59 2255 2251 2252 2257
9951 59 2706 2703 2704 2708
9952 59 2706 2703 2704 2709
9953 59 2707 2703 2704 2708
9954 59 2707 2703 2704 2709
9955 59 3158 3155 3156 3160
9956 59 3158 3155 3156 3161
9957 59 3159 3155 3156 3160
9958 59 3159 3155 3156 3161
9959 59 3610 3607 3608 3612
9960 59 3610 3607 3608 3613
9961 59 3611 3607 3608 3612
9962 59 3611 3607 3608 3613
9963 59 4062 4059 4060 4064
9964 59 4062 4059 4060 4065
9965 59 4063 4059 4060 4064
9966 59 4063 4059 4060 4065
9967 59 4514 4511 4512 4516
9968 59 4514 4511 4512 4517
9969 59 4515 4511 4512 4516
9970 59 4515 4511 4512 4517
9971 61 4 1 2 7
9972 61 5 1 2 7
9973 61 6 1 2 7
9974 61 7 2 3 8
9975 61 7 2 3 9
9976 61 7 2 3 10
9977 61 16 12 13 17
9978 61 16 12 13 18
9979 61 16 12 13 19
9980 61 25 21 22 26
9981 61 25 21 22 27
9982 61 25 21 22 28
9983 61 34 30 31 35
9984 61 34 30 31 36
9985 61 34 30 31 37
9986 61 43 39 40 44
9987 61 43 39 40 45
9988 61 43 39 40 46
9989 61 52 48 49 53
9990 61 52 48 49 54
9991 61 52 48 49 55
9992 61 61 57 58 62
9993 61 61 57 58 63
9994 61 61 57 58 64
9995 61 70 66 67 71
9996 61 70 66 67 72
9997 61 70 66 67 73
9998 61 79 75 76 80
9999 61 79 75 76 81
10000 61 79 75 76 82
10001 61 88 84 85 89
10002 61 88 84 85 90
10003 61 88 84 85 91
10004 61 97 93 94 98
10005 61 97 93 94 99
10006 61 97 93 94 100
10007 61 106 102 103 107
10008 61 106 102 103 108
10009 61 106 102 103 109
10010 61 115 111 112 116
10011 61 115 111 112 117
10012 61 115 111 112 118
10013 61 124 120 121 125
10014 61 124 120 121 126
10015 61 124 120 121 127
10016 61 133 129 130 134
10017 61 133 129 130 135
10018 61 133 129 130 136
10019 61 142 138 139 143
10020 61 142 138 139 144
10021 61 142 138 139 145
10022 61 151 147 148 152
10023 61 151 147 148 153
10024 61 151 147 148 154
10025 61 160 156 157 161
10026 61 160 156 157 162
10027 61 160 156 157 163
10028 61 169 165 166 170
10029 61 169 165 166 171
10030 61 169 165 166 172
10031 61 178 174 175 179
10032 61 178 174 175 180
10033 61 178 174 175 181
10034 61 187 183 184 188
10035 61 187 183 184 189
10036 61 187 183 184 190
10037 61 196 192 193 197
10038 61 196 192 193 198
10039 61 196 192 193 199
10040 61 205 201 202 206
10041 61 205 201 202 207
10042 61 205 201 202 208
10043 61 214 210 211 215
10044 61 214 210 211 216
10045 61 214 210 211 217
10046 61 223 219 220 224
10047 61 223 219 220 225
10048 61 223 219 220 226
10049 61 232 228 229 233
10050 61 232 228 229 234
10051 61 232 228 229 235
10052 61 241 237 238 242
10053 61 241 237 238 243
10054 61 241 237 238 244
10055 61 250 246 247 251
10056 61 250 246 247 252
10057 61 250 246 247 253
10058 61 259 255 256 260
10059 61 259 255 256 261
10060 61 259 255 256 262
10061 61 268 264 265 269
10062 61 268 264 265 270
10063 61 268 264 265 271
10064 61 277 273 274 278
10065 61 277 273 274 279
10066 61 277 273 274 280
10067 61 286 282 283 287
10068 61 286 282 283 288
10069 61 286 282 283 289
10070 61 295 291 292 296
10071 61 295 291 292 297
10072 61 295 291 292 298
10073 61 304 300 301 305
10074 61 304 300 301 306
10075 61 304 300 301 307
10076 61 313 309 310 314
10077 61 313 309 310 315
10078 61 313 309 310 316
10079 61 322 318 319 323
10080 61 322 318 319 324
10081 61 322 318 319 325
10082 61 331 327 328 332
10083 61 331 327 328 333
10084 61 331 327 328 334
10085 61 340 336 337 341
10086 61 340 336 337 342
10087 61 340 336 337 343
10088 61 349 345 346 350
10089 61 349 345 346 351
10090 61 349 345 346 352
10091 61 358 354 355 359
10092 61 358 354 355 360
10093 61 358 354 355 361
10094 61 367 363 364 368
10095 61 367 363 364 369
10096 61 367 363 364 370
10097 61 376 372 373 377
10098 61 376 372 373 378
10099 61 376 372 373 379
10100 61 385 381 382 386
10101 61 385 381 382 387
10102 61 385 381 382 388
10103 61 394 390 391 395
10104 61 394 390 391 396
10105 61 394 390 391 397
10106 61 403 399 400 404
10107 61 403 399 400 405
10108 61 403 399 400 406
10109 61 412 408 409 413
10110 61 412 408 409 414
10111 61 412 408 409 415
10112 61 421 417 418 422
10113 61 421 417 418 423
10114 61 421 417 418 424
10115 61 430 426 427 431
10116 61 430 426 427 432
10117 61 430 426 427 433
10118 61 439 435 436 440
10119 61 439 435 436 441
10120 61 439 435 436 442
10121 61 456 453 454 459
10122 61 457 453 454 459
10123 61 458 453 454 459
10124 61 459 454 455 460
10125 61 459 454 455 461
10126 61 459 454 455 462
10127 61 468 464 465 469
10128 61 468 464 465 470
10129 61 468 464 465 471
10130 61 477 473 474 478
10131 61 477 473 474 479
10132 61 477 473 474 480
10133 61 486 482 483 487
10134 61 486 482 483 488
10135 61 486 482 483 489
10136 61 495 491 492 496
10137 61 495 491 492 497
10138 61 495 491 492 498
10139 61 504 500 501 505
10140 61 504 500 501 506
10141 61 504 500 501 507
10142 61 513 509 510 514
10143 61 513 509 510 515
10144 61 513 509 510 516
10145 61 522 518 519 523
10146 61 522 518 519 524
10147 61 522 518 519 525
10148 61 531 527 528 532
10149 61 531 527 528 533
10150 61 531 527 528 534
10151 61 540 536 537 541
10152 61 540 536 537 542
10153 61 540 536 537 543
10154 61 549 545 546 550
10155 61 549 545 546 551
10156 61 549 545 546 552
10157 61 558 554 555 559
10158 61 558 554 555 560
10159 61 558 554 555 561
10160 61 567 563 564 568
10161 61 567 563 564 569
10162 61 567 563 564 570
10163 61 576 572 573 577
10164 61 576 572 573 578
10165 61 576 572 573 579
10166 61 585 581 582 586
10167 61 585 581 582 587
10168 61 585 581 582 588
10169 61 594 590 591 595
10170 61 594 590 591 596
10171 61 594 590 591 597
10172 61 603 599 600 604
10173 61 603 599 600 605
10174 61 603 599 600 606
10175 61 612 608 609 613
10176 61 612 608 609 614
10177 61 612 608 609 615
10178 61 621 617 618 622
10179 61 621 617 618 623
10180 61 621 617 618 624
10181 61 630 626 627 631
10182 61 630 626 627 632
10183 61 630 626 627 633
10184 61 639 635 636 640
10185 61 639 635 636 641
10186 61 639 635 636 642
10187 61 648 644 645 649
10188 61 648 644 645 650
10189 61 648 644 645 651
10190 61 657 653 654 658
10191 61 657 653 654 659
10192 61 657 653 654 660
10193 61 666 662 663 667
10194 61 666 662 663 668
10195 61 666 662 663 669
10196 61 675 671 672 676
10197 61 675 671 672 677
10198 61 675 671 672 678
10199 61 684 680 681 685
10200 61 684 680 681 686
10201 61 684 680 681 687
10202 61 693 689 690 694
10203 61 693 689 690 695
10204 61 693 689 690 696
10205 61 702 698 699 703
10206 61 702 698 699 704
10207 61 702 698 699 705
10208 61 711 707 708 712
10209 61 711 707 708 713
10210 61 711 707 708 714
10211 61 720 716 717 721
10212 61 720 716 717 722
10213 61 720 716 717 723
10214 61 729 725 726 730
10215 61 729 725 726 731
10216 61 729 725 726 732
10217 61 738 734 735 739
10218 61 738 734 735 740
10219 61 738 734 735 741
10220 61 747 743 744 748
10221 61 747 743 744 749
10222 61 747 743 744 750
10223 61 756 752 753 757
10224 61 756 752 753 758
10225 61 756 752 753 759
10226 61 765 761 762 766
10227 61 765 761 762 767
10228 61 765 761 762 768
10229 61 774 770 771 775
10230 61 774 770 771 776
10231 61 774 770 771 777
10232 61 783 779 780 784
10233 61 783 779 780 785
10234 61 783 779 780 786
10235 61 792 788 789 793
10236 61 792 788 789 794
10237 61 792 788 789 795
10238 61 801 797 798 802
10239 61 801 797 798 803
10240 61 801 797 798 804
10241 61 810 806 807 811
10242 61 810 806 807 812
10243 61 810 806 807 813
10244 61 819 815 816 820
10245 61 819 815 816 821
10246 61 819 815 816 822
10247 61 828 824 825 829
10248 61 828 824 825 830
10249 61 828 824 825 831
10250 61 837 833 834 838
10251 61 837 833 834 839
10252 61 837 833 834 840
10253 61 846 842 843 847
10254 61 846 842 843 848
10255 61 846 842 843 849
10256 61 855 851 852 856
10257 61 855 851 852 857
10258 61 855 851 852 858
10259 61 864 860 861 865
10260 61 864 860 861 866
10261 61 864 860 861 867
10262 61 873 869 870 874
10263 61 873 869 870 875
10264 61 873 869 870 876
10265 61 882 878 879 883
10266 61 882 878 879 884
10267 61 882 878 879 885
10268 61 891 887 888 892
10269 61 891 887 888 893
10270 61 891 887 888 894
10271 61 908 905 906 911
10272 61 909 905 906 911
10273 61 910 905 906 911
10274 61 911 906 907 912
10275 61 911 906 907 913
10276 61 911 906 907 914
10277 61 920 916 917 921
10278 61 920 916 917 922
10279 61 920 916 917 923
10280 61 929 925 926 930
10281 61 929 925 926 931
10282 61 929 925 926 932
10283 61 938 934 935 939
10284 61 938 934 935 940
10285 61 938 934 935 941
10286 61 947 943 944 948
10287 61 947 943 944 949
10288 61 947 943 944 950
10289 61 956 952 953 957
10290 61 956 952 953 958
10291 61 956 952 953 959
10292 61 965 961 962 966
10293 61 965 961 962 967
10294 61 965 961 962 968
10295 61 974 970 971 975
10296 61 974 970 971 976
10297 61 974 970 971 977
10298 61 983 979 980 984
10299 61 983 979 980 985
10300 61 983 979 980 986
10301 61 992 988 989 993
10302 61 992 988 989 994
10303 61 992 988 989 995
10304 61 1001 997 998 1002
10305 61 1001 997 998 1003
10306 61 1001 997 998 1004
10307 61 1010 1006 1007 1011
10308 61 1010 1006 1007 1012
10309 61 1010 1006 1007 1013
10310 61 1019 1015 1016 1020
10311 61 1019 1015 1016 1021
10312 61 1019 1015 1016 1022
10313 61 1028 1024 1025 1029
10314 61 1028 1024 1025 1030
10315 61 1028 1024 1025 1031
10316 61 1037 1033 1034 1038
10317 61 1037 1033 1034 1039
10318 61 1037 1033 1034 1040
10319 61 1046 1042 1043 1047
10320 61 1046 1042 1043 1048
10321 61 1046 1042 1043 1049
10322 61 1055 1051 1052 1056
10323 61 1055 1051 1052 1057
10324 61 1055 1051 1052 1058
10325 61 1064 1060 1061 1065
10326 61 1064 1060 1061 1066
10327 61 1064 1060 1061 1067
10328 61 1073 1069 1070 1074
10329 61 1073 1069 1070 1075
10330 61 1073 1069 1070 1076
10331 61 1082 1078 1079 1083
10332 61 1082 1078 1079 1084
10333 61 1082 1078 1079 1085
10334 61 1091 1087 1088 1092
10335 61 1091 1087 1088 1093
10336 61 1091 1087 1088 1094
10337 61 1100 1096 1097 1101
10338 61 1100 1096 1097 1102
10339 61 1100 1096 1097 1103
10340 61 1109 1105 1106 1110
10341 61 1109 1105 1106 1111
10342 61 1109 1105 1106 1112
10343 61 1118 1114 1115 1119
10344 61 1118 1114 1115 1120
10345 61 1118 1114 1115 1121
10346 61 1127 1123 1124 1128
10347 61 1127 1123 1124 1129
10348 61 1127 1123 1124 1130
10349 61 1136 1132 1133 1137
10350 61 1136 1132 1133 1138
10351 61 1136 1132 1133 1139
10352 61 1145 1141 1142 1146
10353 61 1145 1141 1142 1147
10354 61 1145 1141 1142 1148
10355 61 1154 1150 1151 1155
10356 61 1154 1150 1151 1156
10357 61 1154 1150 1151 1157
10358 61 1163 1159 1160 1164
10359 61 1163 1159 1160 1165
10360 61 1163 1159 1160 1166
10361 61 1172 1168 1169 1173
10362 61 1172 1168 1169 1174
10363 61 1172 1168 1169 1175
10364 61 1181 1177 1178 1182
10365 61 1181 1177 1178 1183
10366 61 1181 1177 1178 1184
10367 61 1190 1186 1187 1191
10368 61 1190 1186 1187 1192
10369 61 1190 1186 1187 1193
10370 61 1199 1195 1196 1200
10371 61 1199 1195 1196 1201
10372 61 1199 1195 1196 1202
10373 61 1208 1204 1205 1209
10374 61 1208 1204 1205 1210
10375 61 1208 1204 1205 1211
10376 61 1217 1213 1214 1218
10377 61 1217 1213 1214 1219
10378 61 1217 1213 1214 1220
10379 61 1226 1222 1223 1227
10380 61 1226 1222 1223 1228
10381 61 1226 1222 1223 1229
10382 61 1235 1231 1232 1236
10383 61 1235 1231 1232 1237
10384 61 1235 1231 1232 1238
10385 61 1244 1240 1241 1245
10386 61 1244 1240 1241 1246
10387 61 1244 1240 1241 1247
10388 61 1253 1249 1250 1254
10389 61 1253 1249 1250 1255
10390 61 1253 1249 1250 1256
10391 61 1262 1258 1259 1263
10392 61 1262 1258 1259 1264
10393 61 1262 1258 1259 1265
10394 61 1271 1267 1268 1272
10395 61 1271 1267 1268 1273
10396 61 1271 1267 1268 1274
10397 61 1280 1276 1277 1281
10398 61 1280 1276 1277 1282
10399 61 1280 1276 1277 1283
10400 61 1289 1285 1286 1290
10401 61 1289 1285 1286 1291
10402 61 1289 1285 1286 1292
10403 61 1298 1294 1295 1299
10404 61 1298 1294 1295 1300
10405 61 1298 1294 1295 1301
10406 61 1307 1303 1304 1308
10407 61 1307 1303 1304 1309
10408 61 1307 1303 1304 1310
10409 61 1316 1312 1313 1317
10410 61 1316 1312 1313 1318
10411 61 1316 1312 1313 1319
10412 61 1325 1321 1322 1326
10413 61 1325 1321 1322 1327
10414 61 1325 1321 1322 1328
10415 61 1334 1330 1331 1335
10416 61 1334 1330 1331 1336
10417 61 1334 1330 1331 1337
10418 61 1343 1339 1340 1344
10419 61 1343 1339 1340 1345
10420 61 1343 1339 1340 1346
10421 61 1360 1357 1358 1363
10422 61 1361 1357 1358 1363
10423 61 1362 1357 1358 1363
10424 61 1363 1358 1359 1364
10425 61 1363 1358 1359 1365
10426 61 1363 1358 1359 1366
10427 61 1372 1368 1369 1373
10428 61 1372 1368 1369 1374
10429 61 1372 1368 1369 1375
10430 61 1381 1377 1378 1382
10431 61 1381 1377 1378 1383
10432 61 1381 1377 1378 1384
10433 61 1390 1386 1387 1391
10434 61 1390 1386 1387 1392
10435 61 1390 1386 1387 1393
10436 61 1399 1395 1396 1400
10437 61 1399 1395 1396 1401
10438 61 1399 1395 1396 1402
10439 61 1408 1404 1405 1409
10440 61 1408 1404 1405 1410
10441 61 1408 1404 1405 1411
10442 61 1417 1413 1414 1418
10443 61 1417 1413 1414 1419
10444 61 1417 1413 1414 1420
10445 61 1426 1422 1423 1427
10446 61 1426 1422 1423 1428
10447 61 1426 1422 1423 1429
10448 61 1435 1431 1432 1436
10449 61 1435 1431 1432 1437
10450 61 1435 1431 1432 1438
10451 61 1444 1440 1441 1445
10452 61 1444 1440 1441 1446
10453 61 1444 1440 1441 1447
10454 61 1453 1449 1450 1454
10455 61 1453 1449 1450 1455
10456 61 1453 1449 1450 1456
10457 61 1462 1458 1459 1463
10458 61 1462 1458 1459 1464
10459 61 1462 1458 1459 1465
10460 61 1471 1467 1468 1472
10461 61 1471 1467 1468 1473
10462 61 1471 1467 1468 1474
10463 61 1480 1476 1477 1481
10464 61 1480 1476 1477 1482
10465 61 1480 1476 1477 1483
10466 61 1489 1485 1486 1490
10467 61 1489 1485 1486 1491
10468 61 1489 1485 1486 1492
10469 61 1498 1494 1495 1499
10470 61 1498 1494 1495 1500
10471 61 1498 1494 1495 1501
10472 61 1507 1503 1504 1508
10473 61 1507 1503 1504 1509
10474 61 1507 1503 1504 1510
10475 61 1516 1512 1513 1517
10476 61 1516 1512 1513 1518
10477 61 1516 1512 1513 1519
10478 61 1525 1521 1522 1526
10479 61 1525 1521 1522 1527
10480 61 1525 1521 1522 1528
10481 61 1534 1530 1531 1535
10482 61 1534 1530 1531 1536
10483 61 1534 1530 1531 1537
10484 61 1543 1539 1540 1544
10485 61 1543 1539 1540 1545
10486 61 1543 1539 1540 1546
10487 61 1552 1548 1549 1553
10488 61 1552 1548 1549 1554
10489 61 1552 1548 1549 1555
10490 61 1561 1557 1558 1562
10491 61 1561 1557 1558 1563
10492 61 1561 1557 1558 1564
10493 61 1570 1566 1567 1571
10494 61 1570 1566 1567 1572
10495 61 1570 1566 1567 1573
10496 61 1579 1575 1576 1580
10497 61 1579 1575 1576 1581
10498 61 1579 1575 1576 1582
10499 61 1588 1584 1585 1589
10500 61 1588 1584 1585 1590
10501 61 1588 1584 1585 1591
10502 61 1597 1593 1594 1598
10503 61 1597 1593 1594 1599
10504 61 1597 1593 1594 1600
10505 61 1606 1602 1603 1607
10506 61 1606 1602 1603 1608
10507 61 1606 1602 1603 1609
10508 61 1615 1611 1612 1616
10509 61 1615 1611 1612 1617
10510 61 1615 1611 1612 1618
10511 61 1624 1620 1621 1625
10512 61 1624 1620 1621 1626
10513 61 1624 1620 1621 1627
10514 61 1633 1629 1630 1634
10515 61 1633 1629 1630 1635
10516 61 1633 1629 1630 1636
10517 61 1642 1638 1639 1643
10518 61 1642 1638 1639 1644
10519 61 1642 1638 1639 1645
10520 61 1651 1647 1648 1652
10521 61 1651 1647 1648 1653
10522 61 1651 1647 1648 1654
10523 61 1660 1656 1657 1661
10524 61 1660 1656 1657 1662
10525 61 1660 1656 1657 1663
10526 61 1669 1665 1666 1670
10527 61 1669 1665 1666 1671
10528 61 1669 1665 1666 1672
10529 61 1678 1674 1675 1679
10530 61 1678 1674 1675 1680
10531 61 1678 1674 1675 1681
10532 61 1687 1683 1684 1688
10533 61 1687 1683 1684 1689
10534 61 1687 1683 1684 1690
10535 61 1696 1692 1693 1697
10536 61 1696 1692 1693 1698
10537 61 1696 1692 1693 1699
10538 61 1705 1701 1702 1706
10539 61 1705 1701 1702 1707
10540 61 1705 1701 1702 1708
10541 61 1714 1710 1711 1715
10542 61 1714 1710 1711 1716
10543 61 1714 1710 1711 1717
10544 61 1723 1719 1720 1724
10545 61 1723 1719 1720 1725
10546 61 1723 1719 1720 1726
10547 61 1732 1728 1729 1733
10548 61 1732 1728 1729 1734
10549 61 1732 1728 1729 1735
10550 61 1741 1737 1738 1742
10551 61 1741 1737 1738 1743
10552 61 1741 1737 1738 1744
10553 61 1750 1746 1747 1751
10554 61 1750 1746 1747 1752
10555 61 1750 1746 1747 1753
10556 61 1759 1755 1756 1760
10557 61 1759 1755 1756 1761
10558 61 1759 1755 1756 1762
10559 61 1768 1764 1765 1769
10560 61 1768 1764 1765 1770
10561 61 1768 1764 1765 1771
10562 61 1777 1773 1774 1778
10563 61 1777 1773 1774 1779
10564 61 1777 1773 1774 1780
10565 61 1786 1782 1783 1787
10566 61 1786 1782 1783 1788
10567 61 1786 1782 1783 1789
10568 61 1795 1791 1792 1796
10569 61 1795 1791 1792 1797
10570 61 1795 1791 1792 1798
10571 61 1812 1809 1810 1815
10572 61 1813 1809 1810 1815
10573 61 1814 1809 1810 1815
10574 61 1815 1810 1811 1816
10575 61 1815 1810 1811 1817
10576 61 1815 1810 1811 1818
10577 61 1824 1820 1821 1825
10578 61 1824 1820 1821 1826
10579 61 1824 1820 1821 1827
10580 61 1833 1829 1830 1834
10581 61 1833 1829 1830 1835
10582 61 1833 1829 1830 1836
10583 61 1842 1838 1839 1843
10584 61 1842 1838 1839 1844
10585 61 1842 1838 1839 1845
10586 61 1851 1847 1848 1852
10587 61 1851 1847 1848 1853
10588 61 1851 1847 1848 1854
10589 61 1860 1856 1857 1861
10590 61 1860 1856 1857 1862
10591 61 1860 1856 1857 1863
10592 61 1869 1865 1866 1870
10593 61 1869 1865 1866 1871
10594 61 1869 1865 1866 1872
10595 61 1878 1874 1875 1879
10596 61 1878 1874 1875 1880
10597 61 1878 1874 1875 1881
10598 61 1887 1883 1884 1888
10599 61 1887 1883 1884 1889
10600 61 1887 1883 1884 1890
10601 61 1896 1892 1893 1897
10602 61 1896 1892 1893 1898
10603 61 1896 1892 1893 1899
10604 61 1905 1901 1902 1906
10605 61 1905 1901 1902 1907
10606 61 1905 1901 1902 1908
10607 61 1914 1910 1911 1915
10608 61 1914 1910 1911 1916
10609 61 1914 1910 1911 1917
10610 61 1923 1919 1920 1924
10611 61 1923 1919 1920 1925
10612 61 1923 1919 1920 1926
10613 61 1932 1928 1929 1933
10614 61 1932 1928 1929 1934
10615 61 1932 1928 1929 1935
10616 61 1941 1937 1938 1942
10617 61 1941 1937 1938 1943
10618 61 1941 1937 1938 1944
10619 61 1950 1946 1947 1951
10620 61 1950 1946 1947 1952
10621 61 1950 1946 1947 1953
10622 61 1959 1955 1956 1960
10623 61 1959 1955 1956 1961
10624 61 1959 1955 1956 1962
10625 61 1968 1964 1965 1969
10626 61 1968 1964 1965 1970
10627 61 1968 1964 1965 1971
10628 61 1977 1973 1974 1978
10629 61 1977 1973 1974 1979
10630 61 1977 1973 1974 1980
10631 61 1986 1982 1983 1987
10632 61 1986 1982 1983 1988
10633 61 1986 1982 1983 1989
10634 61 1995 1991 1992 1996
10635 61 1995 1991 1992 1997
10636 61 1995 1991 1992 1998
10637 61 2004 2000 2001 2005
10638 61 2004 2000 2001 2006
10639 61 2004 2000 2001 2007
10640 61 2013 2009 2010 2014
10641 61 2013 2009 2010 2015
10642 61 2013 2009 2010 2016
10643 61 2022 2018 2019 2023
10644 61 2022 2018 2019 2024
10645 61 2022 2018 2019 2025
10646 61 2031 2027 2028 2032
10647 61 2031 2027 2028 2033
10648 61 2031 2027 2028 2034
10649 61 2040 2036 2037 2041
10650 61 2040 2036 2037 2042
10651 61 2040 2036 2037 2043
10652 61 2049 2045 2046 2050
10653 61 2049 2045 2046 2051
10654 61 2049 2045 2046 2052
10655 61 2058 2054 2055 2059
10656 61 2058 2054 2055 2060
10657 61 2058 2054 2055 2061
10658 61 2067 2063 2064 2068
10659 61 2067 2063 2064 2069
10660 61 2067 2063 2064 2070
10661 61 2076 2072 2073 2077
10662 61 2076 2072 2073 2078
10663 61 2076 2072 2073 2079
10664 61 2085 2081 2082 2086
10665 61 2085 2081 2082 2087
10666 61 2085 2081 2082 2088
10667 61 2094 2090 2091 2095
10668 61 2094 2090 2091 2096
10669 61 2094 2090 2091 2097
10670 61 2103 2099 2100 2104
10671 61 2103 2099 2100 2105
10672 61 2103 2099 2100 2106
10673 61 2112 2108 2109 2113
10674 61 2112 2108 2109 2114
10675 61 2112 2108 2109 2115
10676 61 2121 2117 2118 2122
10677 61 2121 2117 2118 2123
10678 61 2121 2117 2118 2124
10679 61 2130 2126 2127 2131
10680 61 2130 2126 2127 2132
10681 61 2130 2126 2127 2133
10682 61 2139 2135 2136 2140
10683 61 2139 2135 2136 2141
10684 61 2139 2135 2136 2142
10685 61 2148 2144 2145 2149
10686 61 2148 2144 2145 2150
10687 61 2148 2144 2145 2151
10688 61 2157 2153 2154 2158
10689 61 2157 2153 2154 2159
10690 61 2157 2153 2154 2160
10691 61 2166 2162 2163 2167
10692 61 2166 2162 2163 2168
10693 61 2166 2162 2163 2169
10694 61 2175 2171 2172 2176
10695 61 2175 2171 2172 2177
10696 61 2175 2171 2172 2178
10697 61 2184 2180 2181 2185
10698 61 2184 2180 2181 2186
10699 61 2184 2180 2181 2187
10700 61 2193 2189 2190 2194
10701 61 2193 2189 2190 2195
10702 61 2193 2189 2190 2196
10703 61 2202 2198 2199 2203
10704 61 2202 2198 2199 2204
10705 61 2202 2198 2199 2205
10706 61 2211 2207 2208 2212
10707 61 2211 2207 2208 2213
10708 61 2211 2207 2208 2214
10709 61 2220 2216 2217 2221
10710 61 2220 2216 2217 2222
10711 61 2220 2216 2217 2223
10712 61 2229 2225 2226 2230
10713 61 2229 2225 2226 2231
10714 61 2229 2225 2226 2232
10715 61 2238 2234 2235 2239
10716 61 2238 2234 2235 2240
10717 61 2238 2234 2235 2241
10718 61 2247 2243 2244 2248
10719 61 2247 2243 2244 2249
10720 61 2247 2243 2244 2250
10721 61 2264 2261 2262 2267
10722 61 2265 2261 2262 2267
10723 61 2266 2261 2262 2267
10724 61 2267 2262 2263 2268
10725 61 2267 2262 2263 2269
10726 61 2267 2262 2263 2270
10727 61 2276 2272 2273 2277
10728 61 2276 2272 2273 2278
10729 61 2276 2272 2273 2279
10730 61 2285 2281 2282 2286
10731 61 2285 2281 2282 2287
10732 61 2285 2281 2282 2288
10733 61 2294 2290 2291 2295
10734 61 2294 2290 2291 2296
10735 61 2294 2290 2291 2297
10736 61 2303 2299 2300 2304
10737 61 2303 2299 2300 2305
10738 61 2303 2299 2300 2306
10739 61 2312 2308 2309 2313
10740 61 2312 2308 2309 2314
10741 61 2312 2308 2309 2315
10742 61 2321 2317 2318 2322
10743 61 2321 2317 2318 2323
10744 61 2321 2317 2318 2324
10745 61 2330 2326 2327 2331
10746 61 2330 2326 2327 2332
10747 61 2330 2326 2327 2333
10748 61 2339 2335 2336 2340
10749 61 2339 2335 2336 2341
10750 61 2339 2335 2336 2342
10751 61 2348 2344 2345 2349
10752 61 2348 2344 2345 2350
10753 61 2348 2344 2345 2351
10754 61 2357 2353 2354 2358
10755 61 2357 2353 2354 2359
10756 61 2357 2353 2354 2360
10757 61 2366 2362 2363 2367
10758 61 2366 2362 2363 2368
10759 61 2366 2362 2363 2369
10760 61 2375 2371 2372 2376
10761 61 2375 2371 2372 2377
10762 61 2375 2371 2372 2378
10763 61 2384 2380 2381 2385
10764 61 2384 2380 2381 2386
10765 61 2384 2380 2381 2387
10766 61 2393 2389 2390 2394
10767 61 2393 2389 2390 2395
10768 61 2393 2389 2390 2396
10769 61 2402 2398 2399 2403
10770 61 2402 2398 2399 2404
10771 61 2402 2398 2399 2405
10772 61 2411 2407 2408 2412
10773 61 2411 2407 2408 2413
10774 61 2411 2407 2408 2414
10775 61 2420 2416 2417 2421
10776 61 2420 2416 2417 2422
10777 61 2420 2416 2417 2423
10778 61 2429 2425 2426 2430
10779 61 2429 2425 2426 2431
10780 61 2429 2425 2426 2432
10781 61 2438 2434 2435 2439
10782 61 2438 2434 2435 2440
10783 61 2438 2434 2435 2441
10784 61 2447 2443 2444 2448
10785 61 2447 2443 2444 2449
10786 61 2447 2443 2444 2450
10787 61 2456 2452 2453 2457
10788 61 2456 2452 2453 2458
10789 61 2456 2452 2453 2459
10790 61 2465 2461 2462 2466
10791 61 2465 2461 2462 2467
10792 61 2465 2461 2462 2468
10793 61 2474 2470 2471 2475
10794 61 2474 2470 2471 2476
10795 61 2474 2470 2471 2477
10796 61 2483 2479 2480 2484
10797 61 2483 2479 2480 2485
10798 61 2483 2479 2480 2486
10799 61 2492 2488 2489 2493
10800 61 2492 2488 2489 2494
10801 61 2492 2488 2489 2495
10802 61 2501 2497 2498 2502
10803 61 2501 2497 2498 2503
10804 61 2501 2497 2498 2504
10805 61 2510 2506 2507 2511
10806 61 2510 2506 2507 2512
10807 61 2510 2506 2507 2513
10808 61 2519 2515 2516 2520
10809 61 2519 2515 2516 2521
10810 61 2519 2515 2516 2522
10811 61 2528 2524 2525 2529
10812 61 2528 2524 2525 2530
10813 61 2528 2524 2525 2531
10814 61 2537 2533 2534 2538
10815 61 2537 2533 2534 2539
10816 61 2537 2533 2534 2540
10817 61 2546 2542 2543 2547
10818 61 2546 2542 2543 2548
10819 61 2546 2542 2543 2549
10820 61 2555 2551 2552 2556
10821 61 2555 2551 2552 2557
10822 61 2555 2551 2552 2558
10823 61 2564 2560 2561 2565
10824 61 2564 2560 2561 2566
10825 61 2564 2560 2561 2567
10826 61 2573 2569 2570 2574
10827 61 2573 2569 2570 2575
10828 61 2573 2569 2570 2576
10829 61 2582 2578 2579 2583
10830 61 2582 2578 2579 2584
10831 61 2582 2578 2579 2585
10832 61 2591 2587 2588 2592
10833 61 2591 2587 2588 2593
10834 61 2591 2587 2588 2594
10835 61 2600 2596 2597 2601
10836 61 2600 2596 2597 2602
10837 61 2600 2596 2597 2603
10838 61 2609 2605 2606 2610
10839 61 2609 2605 2606 2611
10840 61 2609 2605 2606 2612
10841 61 2618 2614 2615 2619
10842 61 2618 2614 2615 2620
10843 61 2618 2614 2615 2621
10844 61 2627 2623 2624 2628
10845 61 2627 2623 2624 2629
10846 61 2627 2623 2624 2630
10847 61 2636 2632 2633 2637
10848 61 2636 2632 2633 2638
10849 61 2636 2632 2633 2639
10850 61 2645 2641 2642 2646
10851 61 2645 2641 2642 2647
10852 61 2645 2641 2642 2648
10853 61 2654 2650 2651 2655
10854 61 2654 2650 2651 2656
10855 61 2654 2650 2651 2657
10856 61 2663 2659 2660 2664
10857 61 2663 2659 2660 2665
10858 61 2663 2659 2660 2666
10859 61 2672 2668 2669 2673
10860 61 2672 2668 2669 2674
10861 61 2672 2668 2669 2675
10862 61 2681 2677 2678 2682
10863 61 2681 2677 2678 2683
10864 61 2681 2677 2678 2684
10865 61 2690 2686 2687 2691
10866 61 2690 2686 2687 2692
10867 61 2690 2686 2687 2693
10868 61 2699 2695 2696 2700
10869 61 2699 2695 2696 2701
10870 61 2699 2695 2696 2702
10871 61 2716 2713 2714 2719
10872 61 2717 2713 2714 2719
10873 61 2718 2713 2714 2719
10874 61 2719 2714 2715 2720
10875 61 2719 2714 2715 2721
10876 61 2719 2714 2715 2722
10877 61 2728 2724 2725 2729
10878 61 2728 2724 2725 2730
10879 61 2728 2724 2725 2731
10880 61 2737 2733 2734 2738
10881 61 2737 2733 2734 2739
10882 61 2737 2733 2734 2740
10883 61 2746 2742 2743 2747
10884 61 2746 2742 2743 2748
10885 61 2746 2742 2743 2749
10886 61 2755 2751 2752 2756
10887 61 2755 2751 2752 2757
10888 61 2755 2751 2752 2758
10889 61 2764 2760 2761 2765
10890 61 2764 2760 2761 2766
10891 61 2764 2760 2761 2767
10892 61 2773 2769 2770 2774
10893 61 2773 2769 2770 2775
10894 61 2773 2769 2770 2776
10895 61 2782 2778 2779 2783
10896 61 2782 2778 2779 2784
10897 61 2782 2778 2779 2785
10898 61 2791 2787 2788 2792
10899 61 2791 2787 2788 2793
10900 61 2791 2787 2788 2794
10901 61 2800 2796 2797 2801
10902 61 2800 2796 2797 2802
10903 61 2800 2796 2797 2803
10904 61 2809 2805 2806 2810
10905 61 2809 2805 2806 2811
10906 61 2809 2805 2806 2812
10907 61 2818 2814 2815 2819
10908 61 2818 2814 2815 2820
10909 61 2818 2814 2815 2821
10910 61 2827 2823 2824 2828
10911 61 2827 2823 2824 2829
10912 61 2827 2823 2824 2830
10913 61 2836 2832 2833 2837
10914 61 2836 2832 2833 2838
10915 61 2836 2832 2833 2839
10916 61 2845 2841 2842 2846
10917 61 2845 2841 2842 2847
10918 61 2845 2841 2842 2848
10919 61 2854 2850 2851 2855
10920 61 2854 2850 2851 2856
10921 61 2854 2850 2851 2857
10922 61 2863 2859 2860 2864
10923 61 2863 2859 2860 2865
10924 61 2863 2859 2860 2866
10925 61 2872 2868 2869 2873
10926 61 2872 2868 2869 2874
10927 61 2872 2868 2869 2875
10928 61 2881 2877 2878 2882
10929 61 2881 2877 2878 2883
10930 61 2881 2877 2878 2884
10931 61 2890 2886 2887 2891
10932 61 2890 2886 2887 2892
10933 61 2890 2886 2887 2893
10934 61 2899 2895 2896 2900
10935 61 2899 2895 2896 2901
10936 61 2899 2895 2896 2902
10937 61 2908 2904 2905 2909
10938 61 2908 2904 2905 2910
10939 61 2908 2904 2905 2911
10940 61 2917 2913 2914 2918
10941 61 2917 2913 2914 2919
10942 61 2917 2913 2914 2920
10943 61 2926 2922 2923 2927
10944 61 2926 2922 2923 2928
10945 61 2926 2922 2923 2929
10946 61 2935 2931 2932 2936
10947 61 2935 2931 2932 2937
10948 61 2935 2931 2932 2938
10949 61 2944 2940 2941 2945
10950 61 2944 2940 2941 2946
10951 61 2944 2940 2941 2947
10952 61 2953 2949 2950 2954
10953 61 2953 2949 2950 2955
10954 61 2953 2949 2950 2956
10955 61 2962 2958 2959 2963
10956 61 2962 2958 2959 2964
10957 61 2962 2958 2959 2965
10958 61 2971 2967 2968 2972
10959 61 2971 2967 2968 2973
10960 61 2971 2967 2968 2974
10961 61 2980 2976 2977 2981
10962 61 2980 2976 2977 2982
10963 61 2980 2976 2977 2983
10964 61 2989 2985 2986 2990
10965 61 2989 2985 2986 2991
10966 61 2989 2985 2986 2992
10967 61 2998 2994 2995 2999
10968 61 2998 2994 2995 3000
10969 61 2998 2994 2995 3001
10970 61 3007 3003 3004 3008
10971 61 3007 3003 3004 3009
10972 61 3007 3003 3004 3010
10973 61 3016 3012 3013 3017
10974 61 3016 3012 3013 3018
10975 61 3016 3012 3013 3019
10976 61 3025 3021 3022 3026
10977 61 3025 3021 3022 3027
10978 61 3025 3021 3022 3028
10979 61 3034 3030 3031 3035
10980 61 3034 3030 3031 3036
10981 61 3034 3030 3031 3037
10982 61 3043 3039 3040 3044
10983 61 3043 3039 3040 3045
10984 61 3043 3039 3040 3046
10985 61 3052 3048 3049 3053
10986 61 3052 3048 3049 3054
10987 61 3052 3048 3049 3055
10988 61 3061 3057 3058 3062
10989 61 3061 3057 3058 3063
10990 61 3061 3057 3058 3064
10991 61 3070 3066 3067 3071
10992 61 3070 3066 3067 3072
10993 61 3070 3066 3067 3073
10994 61 3079 3075 3076 3080
10995 61 3079 3075 3076 3081
10996 61 3079 3075 3076 3082
10997 61 3088 3084 3085 3089
10998 61 3088 3084 3085 3090
10999 61 3088 3084 3085 3091
11000 61 3097 3093 3094 3098
11001 61 3097 3093 3094 3099
11002 61 3097 3093 3094 3100
11003 61 3106 3102 3103 3107
11004 61 3106 3102 3103 3108
11005 61 3106 3102 3103 3109
11006 61 3115 3111 3112 3116
11007 61 3115 3111 3112 3117
11008 61 3115 3111 3112 3118
11009 61 3124 3120 3121 3125
11010 61 3124 3120 3121 3126
11011 61 3124 3120 3121 3127
11012 61 3133 3129 3130 3134
11013 61 3133 3129 3130 3135
11014 61 3133 3129 3130 3136
11015 61 3142 3138 3139 3143
11016 61 3142 3138 3139 3144
11017 61 3142 3138 3139 3145
11018 61 3151 3147 3148 3152
11019 61 3151 3147 3148 3153
11020 61 3151 3147 3148 3154
11021 61 3168 3165 3166 3171
11022 61 3169 3165 3166 3171
11023 61 3170 3165 3166 3171
11024 61 3171 3166 3167 3172
11025 61 3171 3166 3167 3173
11026 61 3171 3166 3167 3174
11027 61 3180 3176 3177 3181
11028 61 3180 3176 3177 3182
11029 61 3180 3176 3177 3183
11030 61 3189 3185 3186 3190
11031 61 3189 3185 3186 3191
11032 61 3189 3185 3186 3192
11033 61 3198 3194 3195 3199
11034 61 3198 3194 3195 3200
11035 61 3198 3194 3195 3201
11036 61 3207 3203 3204 3208
11037 61 3207 3203 3204 3209
11038 61 3207 3203 3204 3210
11039 61 3216 3212 3213 3217
11040 61 3216 3212 3213 3218
11041 61 3216 3212 3213 3219
11042 61 3225 3221 3222 3226
11043 61 3225 3221 3222 3227
11044 61 3225 3221 3222 3228
11045 61 3234 3230 3231 3235
11046 61 3234 3230 3231 3236
11047 61 3234 3230 3231 3237
11048 61 3243 3239 3240 3244
11049 61 3243 3239 3240 3245
11050 61 3243 3239 3240 3246
11051 61 3252 3248 3249 3253
11052 61 3252 3248 3249 3254
11053 61 3252 3248 3249 3255
11054 61 3261 3257 3258 3262
11055 61 3261 3257 3258 3263
11056 61 3261 3257 3258 3264
11057 61 3270 3266 3267 3271
11058 61 3270 3266 3267 3272
11059 61 3270 3266 3267 3273
11060 61 3279 3275 3276 3280
11061 61 3279 3275 3276 3281
11062 61 3279 3275 3276 3282
11063 61 3288 3284 3285 3289
11064 61 3288 3284 3285 3290
11065 61 3288 3284 3285 3291
11066 61 3297 3293 3294 3298
11067 61 3297 3293 3294 3299
11068 61 3297 3293 3294 3300
11069 61 3306 3302 3303 3307
11070 61 3306 3302 3303 3308
11071 61 3306 3302 3303 3309
11072 61 3315 3311 3312 3316
11073 61 3315 3311 3312 3317
11074 61 3315 3311 3312 3318
11075 61 3324 3320 3321 3325
11076 61 3324 3320 3321 3326
11077 61 3324 3320 3321 3327
11078 61 3333 3329 3330 3334
11079 61 3333 3329 3330 3335
11080 61 3333 3329 3330 3336
11081 61 3342 3338 3339 3343
11082 61 3342 3338 3339 3344
11083 61 3342 3338 3339 3345
11084 61 3351 3347 3348 3352
11085 61 3351 3347 3348 3353
11086 61 3351 3347 3348 3354
11087 61 3360 3356 3357 3361
11088 61 3360 3356 3357 3362
11089 61 3360 3356 3357 3363
11090 61 3369 3365 3366 3370
11091 61 3369 3365 3366 3371
11092 61 3369 3365 3366 3372
11093 61 3378 3374 3375 3379
11094 61 3378 3374 3375 3380
11095 61 3378 3374 3375 3381
11096 61 3387 3383 3384 3388
11097 61 3387 3383 3384 3389
11098 61 3387 3383 3384 3390
11099 61 3396 3392 3393 3397
11100 61 3396 3392 3393 3398
11101 61 3396 3392 3393 3399
11102 61 3405 3401 3402 3406
11103 61 3405 3401 3402 3407
11104 61 3405 3401 3402 3408
11105 61 3414 3410 3411 3415
11106 61 3414 3410 3411 3416
11107 61 3414 3410 3411 3417
11108 61 3423 3419 3420 3424
11109 61 3423 3419 3420 3425
11110 61 3423 3419 3420 3426
11111 61 3432 3428 3429 3433
11112 61 3432 3428 3429 3434
11113 61 3432 3428 3429 3435
11114 61 3441 3437 3438 3442
11115 61 3441 3437 3438 3443
11116 61 3441 3437 3438 3444
11117 61 3450 3446 3447 3451
11118 61 3450 3446 3447 3452
11119 61 3450 3446 3447 3453
11120 61 3459 3455 3456 3460
11121 61 3459 3455 3456 3461
11122 61 3459 3455 3456 3462
11123 61 3468 3464 3465 3469
11124 61 3468 3464 3465 3470
11125 61 3468 3464 3465 3471
11126 61 3477 3473 3474 3478
11127 61 3477 3473 3474 3479
11128 61 3477 3473 3474 3480
11129 61 3486 3482 3483 3487
11130 61 3486 3482 3483 3488
11131 61 3486 3482 3483 3489
11132 61 3495 3491 3492 3496
11133 61 3495 3491 3492 3497
11134 61 3495 3491 3492 3498
11135 61 3504 3500 3501 3505
11136 61 3504 3500 3501 3506
11137 61 3504 3500 3501 3507
11138 61 3513 3509 3510 3514
11139 61 3513 3509 3510 3515
11140 61 3513 3509 3510 3516
11141 61 3522 3518 3519 3523
11142 61 3522 3518 3519 3524
11143 61 3522 3518 3519 3525
11144 61 3531 3527 3528 3532
11145 61 3531 3527 3528 3533
11146 61 3531 3527 3528 3534
11147 61 3540 3536 3537 3541
11148 61 3540 3536 3537 3542
11149 61 3540 3536 3537 3543
11150 61 3549 3545 3546 3550
11151 61 3549 3545 3546 3551
11152 61 3549 3545 3546 3552
11153 61 3558 3554 3555 3559
11154 61 3558 3554 3555 3560
11155 61 3558 3554 3555 3561
11156 61 3567 3563 3564 3568
11157 61 3567 3563 3564 3569
11158 61 3567 3563 3564 3570
11159 61 3576 3572 3573 3577
11160 61 3576 3572 3573 3578
11161 61 3576 3572 3573 3579
11162 61 3585 3581 3582 3586
11163 61 3585 3581 3582 3587
11164 61 3585 3581 3582 3588
11165 61 3594 3590 3591 3595
11166 61 3594 3590 3591 3596
11167 61 3594 3590 3591 3597
11168 61 3603 3599 3600 3604
11169 61 3603 3599 3600 3605
11170 61 3603 3599 3600 3606
11171 61 3620 3617 3618 3623
11172 61 3621 3617 3618 3623
11173 61 3622 3617 3618 3623
11174 61 3623 3618 3619 3624
11175 61 3623 3618 3619 3625
11176 61 3623 3618 3619 3626
11177 61 3632 3628 3629 3633
11178 61 3632 3628 3629 3634
11179 61 3632 3628 3629 3635
11180 61 3641 3637 3638 3642
11181 61 3641 3637 3638 3643
11182 61 3641 3637 3638 3644
11183 61 3650 3646 3647 3651
11184 61 3650 3646 3647 3652
11185 61 3650 3646 3647 3653
11186 61 3659 3655 3656 3660
11187 61 3659 3655 3656 3661
11188 61 3659 3655 3656 3662
11189 61 3668 3664 3665 3669
11190 61 3668 3664 3665 3670
11191 61 3668 3664 3665 3671
11192 61 3677 3673 3674 3678
11193 61 3677 3673 3674 3679
11194 61 3677 3673 3674 3680
11195 61 3686 3682 3683 3687
11196 61 3686 3682 3683 3688
11197 61 3686 3682 3683 3689
11198 61 3695 3691 3692 3696
11199 61 3695 3691 3692 3697
11200 61 3695 3691 3692 3698
11201 61 3704 3700 3701 3705
11202 61 3704 3700 3701 3706
11203 61 3704 3700 3701 3707
11204 61 3713 3709 3710 3714
11205 61 3713 3709 3710 3715
11206 61 3713 3709 3710 3716
11207 61 3722 3718 3719 3723
11208 61 3722 3718 3719 3724
11209 61 3722 3718 3719 3725
11210 61 3731 3727 3728 3732
11211 61 3731 3727 3728 3733
11212 61 3731 3727 3728 3734
11213 61 3740 3736 3737 3741
11214 61 3740 3736 3737 3742
11215 61 3740 3736 3737 3743
11216 61 3749 3745 3746 3750
11217 61 3749 3745 3746 3751
11218 61 3749 3745 3746 3752
11219 61 3758 3754 3755 3759
11220 61 3758 3754 3755 3760
11221 61 3758 3754 3755 3761
11222 61 3767 3763 3764 3768
11223 61 3767 3763 3764 3769
11224 61 3767 3763 3764 3770
11225 61 3776 3772 3773 3777
11226 61 3776 3772 3773 3778
11227 61 3776 3772 3773 3779
11228 61 3785 3781 3782 3786
11229 61 3785 3781 3782 3787
11230 61 3785 3781 3782 3788
11231 61 3794 3790 3791 3795
11232 61 3794 3790 3791 3796
11233 61 3794 3790 3791 3797
11234 61 3803 3799 3800 3804
11235 61 3803 3799 3800 3805
11236 61 3803 3799 3800 3806
11237 61 3812 3808 3809 3813
11238 61 3812 3808 3809 3814
11239 61 3812 3808 3809 3815
11240 61 3821 3817 3818 3822
11241 61 3821 3817 3818 3823
11242 61 3821 3817 3818 3824
11243 61 3830 3826 3827 3831
11244 61 3830 3826 3827 3832
11245 61 3830 3826 3827 3833
11246 61 3839 3835 3836 3840
11247 61 3839 3835 3836 3841
11248 61 3839 3835 3836 3842
11249 61 3848 3844 3845 3849
11250 61 3848 3844 3845 3850
11251 61 3848 3844 3845 3851
11252 61 3857 3853 3854 3858
11253 61 3857 3853 3854 3859
11254 61 3857 3853 3854 3860
11255 61 3866 3862 3863 3867
11256 61 3866 3862 3863 3868
11257 61 3866 3862 3863 3869
11258 61 3875 3871 3872 3876
11259 61 3875 3871 3872 3877
11260 61 3875 3871 3872 3878
11261 61 3884 3880 3881 3885
11262 61 3884 3880 3881 3886
11263 61 3884 3880 3881 3887
11264 61 3893 3889 3890 3894
11265 61 3893 3889 3890 3895
11266 61 3893 3889 3890 3896
11267 61 3902 3898 3899 3903
11268 61 3902 3898 3899 3904
11269 61 3902 3898 3899 3905
11270 61 3911 3907 3908 3912
11271 61 3911 3907 3908 3913
11272 61 3911 3907 3908 3914
11273 61 3920 3916 3917 3921
11274 61 3920 3916 3917 3922
11275 61 3920 3916 3917 3923
11276 61 3929 3925 3926 3930
11277 61 3929 3925 3926 3931
11278 61 3929 3925 3926 3932
11279 61 3938 3934 3935 3939
11280 61 3938 3934 3935 3940
11281 61 3938 3934 3935 3941
11282 61 3947 3943 3944 3948
11283 61 3947 3943 3944 3949
11284 61 3947 3943 3944 3950
11285 61 3956 3952 3953 3957
11286 61 3956 3952 3953 3958
11287 61 3956 3952 3953 3959
11288 61 3965 3961 3962 3966
11289 61 3965 3961 3962 3967
11290 61 3965 3961 3962 3968
11291 61 3974 3970 3971 3975
11292 61 3974 3970 3971 3976
11293 61 3974 3970 3971 3977
11294 61 3983 3979 3980 3984
11295 61 3983 3979 3980 3985
11296 61 3983 3979 3980 3986
11297 61 3992 3988 3989 3993
11298 61 3992 3988 3989 3994
11299 61 3992 3988 3989 3995
11300 61 4001 3997 3998 4002
11301 61 4001 3997 3998 4003
11302 61 4001 3997 3998 4004
11303 61 4010 4006 4007 4011
11304 61 4010 4006 4007 4012
11305 61 4010 4006 4007 4013
11306 61 4019 4015 4016 4020
11307 61 4019 4015 4016 4021
11308 61 4019 4015 4016 4022
11309 61 4028 4024 4025 4029
11310 61 4028 4024 4025 4030
11311 61 4028 4024 4025 4031
11312 61 4037 4033 4034 4038
11313 61 4037 4033 4034 4039
11314 61 4037 4033 4034 4040
11315 61 4046 4042 4043 4047
11316 61 4046 4042 4043 4048
11317 61 4046 4042 4043 4049
11318 61 4055 4051 4052 4056
11319 61 4055 4051 4052 4057
11320 61 4055 4051 4052 4058
11321 61 4072 4069 4070 4075
11322 61 4073 4069 4070 4075
11323 61 4074 4069 4070 4075
11324 61 4075 4070 4071 4076
11325 61 4075 4070 4071 4077
11326 61 4075 4070 4071 4078
11327 61 4084 4080 4081 4085
11328 61 4084 4080 4081 4086
11329 61 4084 4080 4081 4087
11330 61 4093 4089 4090 4094
11331 61 4093 4089 4090 4095
11332 61 4093 4089 4090 4096
11333 61 4102 4098 4099 4103
11334 61 4102 4098 4099 4104
11335 61 4102 4098 4099 4105
11336 61 4111 4107 4108 4112
11337 61 4111 4107 4108 4113
11338 61 4111 4107 4108 4114
11339 61 4120 4116 4117 4121
11340 61 4120 4116 4117 4122
11341 61 4120 4116 4117 4123
11342 61 4129 4125 4126 4130
11343 61 4129 4125 4126 4131
11344 61 4129 4125 4126 4132
11345 61 4138 4134 4135 4139
11346 61 4138 4134 4135 4140
11347 61 4138 4134 4135 4141
11348 61 4147 4143 4144 4148
11349 61 4147 4143 4144 4149
11350 61 4147 4143 4144 4150
11351 61 4156 4152 4153 4157
11352 61 4156 4152 4153 4158
11353 61 4156 4152 4153 4159
11354 61 4165 4161 4162 4166
11355 61 4165 4161 4162 4167
11356 61 4165 4161 4162 4168
11357 61 4174 4170 4171 4175
11358 61 4174 4170 4171 4176
11359 61 4174 4170 4171 4177
11360 61 4183 4179 4180 4184
11361 61 4183 4179 4180 4185
11362 61 4183 4179 4180 4186
11363 61 4192 4188 4189 4193
11364 61 4192 4188 4189 4194
11365 61 4192 4188 4189 4195
11366 61 4201 4197 4198 4202
11367 61 4201 4197 4198 4203
11368 61 4201 4197 4198 4204
11369 61 4210 4206 4207 4211
11370 61 4210 4206 4207 4212
11371 61 4210 4206 4207 4213
11372 61 4219 4215 4216 4220
11373 61 4219 4215 4216 4221
11374 61 4219 4215 4216 4222
11375 61 4228 4224 4225 4229
11376 61 4228 4224 4225 4230
11377 61 4228 4224 4225 4231
11378 61 4237 4233 4234 4238
11379 61 4237 4233 4234 4239
11380 61 4237 4233 4234 4240
11381 61 4246 4242 4243 4247
11382 61 4246 4242 4243 4248
11383 61 4246 4242 4243 4249
11384 61 4255 4251 4252 4256
11385 61 4255 4251 4252 4257
11386 61 4255 4251 4252 4258
11387 61 4264 4260 4261 4265
11388 61 4264 4260 4261 4266
11389 61 4264 4260 4261 4267
11390 61 4273 4269 4270 4274
11391 61 4273 4269 4270 4275
11392 61 4273 4269 4270 4276
11393 61 4282 4278 4279 4283
11394 61 4282 4278 4279 4284
11395 61 4282 4278 4279 4285
11396 61 4291 4287 4288 4292
11397 61 4291 4287 4288 4293
11398 61 4291 4287 4288 4294
11399 61 4300 4296 4297 4301
11400 61 4300 4296 4297 4302
11401 61 4300 4296 4297 4303
11402 61 4309 4305 4306 4310
11403 61 4309 4305 4306 4311
11404 61 4309 4305 4306 4312
11405 61 4318 4314 4315 4319
11406 61 4318 4314 4315 4320
11407 61 4318 4314 4315 4321
11408 61 4327 4323 4324 4328
11409 61 4327 4323 4324 4329
11410 61 4327 4323 4324 4330
11411 61 4336 4332 4333 4337
11412 61 4336 4332 4333 4338
11413 61 4336 4332 4333 4339
11414 61 4345 4341 4342 4346
11415 61 4345 4341 4342 4347
11416 61 4345 4341 4342 4348
11417 61 4354 4350 4351 4355
11418 61 4354 4350 4351 4356
11419 61 4354 4350 4351 4357
11420 61 4363 4359 4360 4364
11421 61 4363 4359 4360 4365
11422 61 4363 4359 4360 4366
11423 61 4372 4368 4369 4373
11424 61 4372 4368 4369 4374
11425 61 4372 4368 4369 4375
11426 61 4381 4377 4378 4382
11427 61 4381 4377 4378 4383
11428 61 4381 4377 4378 4384
11429 61 4390 4386 4387 4391
11430 61 4390 4386 4387 4392
11431 61 4390 4386 4387 4393
11432 61 4399 4395 4396 4400
11433 61 4399 4395 4396 4401
11434 61 4399 4395 4396 4402
11435 61 4408 4404 4405 4409
11436 61 4408 4404 4405 4410
11437 61 4408 4404 4405 4411
11438 61 4417 4413 4414 4418
11439 61 4417 4413 4414 4419
11440 61 4417 4413 4414 4420
11441 61 4426 4422 4423 4427
11442 61 4426 4422 4423 4428
11443 61 4426 4422 4423 4429
11444 61 4435 4431 4432 4436
11445 61 4435 4431 4432 4437
11446 61 4435 4431 4432 4438
11447 61 4444 4440 4441 4445
11448 61 4444 4440 4441 4446
11449 61 4444 4440 4441 4447
11450 61 4453 4449 4450 4454
11451 61 4453 4449 4450 4455
11452 61 4453 4449 4450 4456
11453 61 4462 4458 4459 4463
11454 61 4462 4458 4459 4464
11455 61 4462 4458 4459 4465
11456 61 4471 4467 4468 4472
11457 61 4471 4467 4468 4473
11458 61 4471 4467 4468 4474
11459 61 4480 4476 4477 4481
11460 61 4480 4476 4477 4482
11461 61 4480 4476 4477 4483
11462 61 4489 4485 4486 4490
11463 61 4489 4485 4486 4491
11464 61 4489 4485 4486 4492
11465 61 4498 4494 4495 4499
11466 61 4498 4494 4495 4500
11467 61 4498 4494 4495 4501
11468 61 4507 4503 4504 4508
11469 61 4507 4503 4504 4509
11470 61 4507 4503 4504 4510
11471 62 7 2 11 14
11472 62 7 2 11 15
11473 62 14 11 12 16
11474 62 15 11 12 16
11475 62 16 12 20 23
11476 62 16 12 20 24
11477 62 23 20 21 25
11478 62 24 20 21 25
11479 62 25 21 29 32
11480 62 25 21 29 33
11481 62 32 29 30 34
11482 62 33 29 30 34
11483 62 34 30 38 41
11484 62 34 30 38 42
11485 62 41 38 39 43
11486 62 42 38 39 43
11487 62 43 39 47 50
11488 62 43 39 47 51
11489 62 50 47 48 52
11490 62 51 47 48 52
11491 62 52 48 56 59
11492 62 52 48 56 60
11493 62 59 56 57 61
11494 62 60 56 57 61
11495 62 61 57 65 68
11496 62 61 57 65 69
11497 62 68 65 66 70
11498 62 69 65 66 70
11499 62 70 66 74 77
11500 62 70 66 74 78
11501 62 77 74 75 79
11502 62 78 74 75 79
11503 62 79 75 83 86
11504 62 79 75 83 87
11505 62 86 83 84 88
11506 62 87 83 84 88
11507 62 88 84 92 95
11508 62 88 84 92 96
11509 62 95 92 93 97
11510 62 96 92 93 97
11511 62 97 93 101 104
11512 62 97 93 101 105
11513 62 104 101 102 106
11514 62 105 101 102 106
11515 62 106 102 110 113
11516 62 106 102 110 114
11517 62 113 110 111 115
11518 62 114 110 111 115
11519 62 115 111 119 122
11520 62 115 111 119 123
11521 62 122 119 120 124
11522 62 123 119 120 124
11523 62 124 120 128 131
11524 62 124 120 128 132
11525 62 131 128 129 133
11526 62 132 128 129 133
11527 62 133 129 137 140
11528 62 133 129 137 141
11529 62 140 137 138 142
11530 62 141 137 138 142
11531 62 142 138 146 149
11532 62 142 138 146 150
11533 62 149 146 147 151
11534 62 150 146 147 151
11535 62 151 147 155 158
11536 62 151 147 155 159
11537 62 158 155 156 160
11538 62 159 155 156 160
11539 62 160 156 164 167
11540 62 160 156 164 168
11541 62 167 164 165 169
11542 62 168 164 165 169
11543 62 169 165 173 176
11544 62 169 165 173 177
11545 62 176 173 174 178
11546 62 177 173 174 178
11547 62 178 174 182 185
11548 62 178 174 182 186
11549 62 185 182 183 187
11550 62 186 182 183 187
11551 62 187 183 191 194
11552 62 187 183 191 195
11553 62 194 191 192 196
11554 62 195 191 192 196
11555 62 196 192 200 203
11556 62 196 192 200 204
11557 62 203 200 201 205
11558 62 204 200 201 205
11559 62 205 201 209 212
11560 62 205 201 209 213
11561 62 212 209 210 214
11562 62 213 209 210 214
11563 62 214 210 218 221
11564 62 214 210 218 222
11565 62 221 218 219 223
11566 62 222 218 219 223
11567 62 223 219 227 230
11568 62 223 219 227 231
11569 62 230 227 228 232
11570 62 231 227 228 232
11571 62 232 228 236 239
11572 62 232 228 236 240
11573 62 239 236 237 241
11574 62 240 236 237 241
11575 62 241 237 245 248
11576 62 241 237 245 249
11577 62 248 245 246 250
11578 62 249 245 246 250
11579 62 250 246 254 257
11580 62 250 246 254 258
11581 62 257 254 255 259
11582 62 258 254 255 259
11583 62 259 255 263 266
11584 62 259 255 263 267
11585 62 266 263 264 268
11586 62 267 263 264 268
11587 62 268 264 272 275
11588 62 268 264 272 276
11589 62 275 272 273 277
11590 62 276 272 273 277
11591 62 277 273 281 284
11592 62 277 273 281 285
11593 62 284 281 282 286
11594 62 285 281 282 286
11595 62 286 282 290 293
11596 62 286 282 290 294
11597 62 293 290 291 295
11598 62 294 290 291 295
11599 62 295 291 299 302
11600 62 295 291 299 303
11601 62 302 299 300 304
11602 62 303 299 300 304
11603 62 304 300 308 311
11604 62 304 300 308 312
11605 62 311 308 309 313
11606 62 312 308 309 313
11607 62 313 309 317 320
11608 62 313 309 317 321
11609 62 320 317 318 322
11610 62 321 317 318 322
11611 62 322 318 326 329
11612 62 322 318 326 330
11613 62 329 326 327 331
11614 62 330 326 327 331
11615 62 331 327 335 338
11616 62 331 327 335 339
11617 62 338 335 336 340
11618 62 339 335 336 340
11619 62 340 336 344 347
11620 62 340 336 344 348
11621 62 347 344 345 349
11622 62 348 344 345 349
11623 62 349 345 353 356
11624 62 349 345 353 357
11625 62 356 353 354 358
11626 62 357 353 354 358
11627 62 358 354 362 365
11628 62 358 354 362 366
11629 62 365 362 363 367
11630 62 366 362 363 367
11631 62 367 363 371 374
11632 62 367 363 371 375
11633 62 374 371 372 376
11634 62 375 371 372 376
11635 62 376 372 380 383
11636 62 376 372 380 384
11637 62 383 380 381 385
11638 62 384 380 381 385
11639 62 385 381 389 392
11640 62 385 381 389 393
11641 62 392 389 390 394
11642 62 393 389 390 394
11643 62 394 390 398 401
11644 62 394 390 398 402
11645 62 401 398 399 403
11646 62 402 398 399 403
11647 62 403 399 407 410
11648 62 403 399 407 411
11649 62 410 407 408 412
11650 62 411 407 408 412
11651 62 412 408 416 419
11652 62 412 408 416 420
11653 62 419 416 417 421
11654 62 420 416 417 421
11655 62 421 417 425 428
11656 62 421 417 425 429
11657 62 428 425 426 430
11658 62 429 425 426 430
11659 62 430 426 434 437
11660 62 430 426 434 438
11661 62 437 434 435 439
11662 62 438 434 435 439
11663 62 439 435 443 446
11664 62 439 435 443 447
11665 62 459 454 463 466
11666 62 459 454 463 467
11667 62 466 463 464 468
11668 62 467 463 464 468
11669 62 468 464 472 475
11670 62 468 464 472 476
11671 62 475 472 473 477
11672 62 476 472 473 477
11673 62 477 473 481 484
11674 62 477 473 481 485
11675 62 484 481 482 486
11676 62 485 481 482 486
11677 62 486 482 490 493
11678 62 486 482 490 494
11679 62 493 490 491 495
11680 62 494 490 491 495
11681 62 495 491 499 502
11682 62 495 491 499 503
11683 62 502 499 500 504
11684 62 503 499 500 504
11685 62 504 500 508 511
11686 62 504 500 508 512
11687 62 511 508 509 513
11688 62 512 508 509 513
11689 62 513 509 517 520
11690 62 513 509 517 521
11691 62 520 517 518 522
11692 62 521 517 518 522
11693 62 522 518 526 529
11694 62 522 518 526 530
11695 62 529 526 527 531
11696 62 530 526 527 531
11697 62 531 527 535 538
11698 62 531 527 535 539
11699 62 538 535 536 540
11700 62 539 535 536 540
11701 62 540 536 544 547
11702 62 540 536 544 548
11703 62 547 544 545 549
11704 62 548 544 545 549
11705 62 549 545 553 556
11706 62 549 545 553 557
11707 62 556 553 554 558
11708 62 557 553 554 558
11709 62 558 554 562 565
11710 62 558 554 562 566
11711 62 565 562 563 567
11712 62 566 562 563 567
11713 62 567 563 571 574
11714 62 567 563 571 575
11715 62 574 571 572 576
11716 62 575 571 572 576
11717 62 576 572 580 583
11718 62 576 572 580 584
11719 62 583 580 581 585
11720 62 584 580 581 585
11721 62 585 581 589 592
11722 62 585 581 589 593
11723 62 592 589 590 594
11724 62 593 589 590 594
11725 62 594 590 598 601
11726 62 594 590 598 602
11727 62 601 598 599 603
11728 62 602 598 599 603
11729 62 603 599 607 610
11730 62 603 599 607 611
11731 62 610 607 608 612
11732 62 611 607 608 612
11733 62 612 608 616 619
11734 62 612 608 616 620
11735 62 619 616 617 621
11736 62 620 616 617 621
11737 62 621 617 625 628
11738 62 621 617 625 629
11739 62 628 625 626 630
11740 62 629 625 626 630
11741 62 630 626 634 637
11742 62 630 626 634 638
11743 62 637 634 635 639
11744 62 638 634 635 639
11745 62 639 635 643 646
11746 62 639 635 643 647
11747 62 646 643 644 648
11748 62 647 643 644 648
11749 62 648 644 652 655
11750 62 648 644 652 656
11751 62 655 652 653 657
11752 62 656 652 653 657
11753 62 657 653 661 664
11754 62 657 653 661 665
11755 62 664 661 662 666
11756 62 665 661 662 666
11757 62 666 662 670 673
11758 62 666 662 670 674
11759 62 673 670 671 675
11760 62 674 670 671 675
11761 62 675 671 679 682
11762 62 675 671 679 683
11763 62 682 679 680 684
11764 62 683 679 680 684
11765 62 684 680 688 691
11766 62 684 680 688 692
11767 62 691 688 689 693
11768 62 692 688 689 693
11769 62 693 689 697 700
11770 62 693 689 697 701
11771 62 700 697 698 702
11772 62 701 697 698 702
11773 62 702 698 706 709
11774 62 702 698 706 710
11775 62 709 706 707 711
11776 62 710 706 707 711
11777 62 711 707 715 718
11778 62 711 707 715 719
11779 62 718 715 716 720
11780 62 719 715 716 720
11781 62 720 716 724 727
11782 62 720 716 724 728
11783 62 727 724 725 729
11784 62 728 724 725 729
11785 62 729 725 733 736
11786 62 729 725 733 737
11787 62 736 733 734 738
11788 62 737 733 734 738
11789 62 738 734 742 745
11790 62 738 734 742 746
11791 62 745 742 743 747
11792 62 746 742 743 747
11793 62 747 743 751 754
11794 62 747 743 751 755
11795 62 754 751 752 756
11796 62 755 751 752 756
11797 62 756 752 760 763
11798 62 756 752 760 764
11799 62 763 760 761 765
11800 62 764 760 761 765
11801 62 765 761 769 772
11802 62 765 761 769 773
11803 62 772 769 770 774
11804 62 773 769 770 774
11805 62 774 770 778 781
11806 62 774 770 778 782
11807 62 781 778 779 783
11808 62 782 778 779 783
11809 62 783 779 787 790
11810 62 783 779 787 791
11811 62 790 787 788 792
11812 62 791 787 788 792
11813 62 792 788 796 799
11814 62 792 788 796 800
11815 62 799 796 797 801
11816 62 800 796 797 801
11817 62 801 797 805 808
11818 62 801 797 805 809
11819 62 808 805 806 810
11820 62 809 805 806 810
11821 62 810 806 814 817
11822 62 810 806 814 818
11823 62 817 814 815 819
11824 62 818 814 815 819
11825 62 819 815 823 826
11826 62 819 815 823 827
11827 62 826 823 824 828
11828 62 827 823 824 828
11829 62 828 824 832 835
11830 62 828 824 832 836
11831 62 835 832 833 837
11832 62 836 832 833 837
11833 62 837 833 841 844
11834 62 837 833 841 845
11835 62 844 841 842 846
11836 62 845 841 842 846
11837 62 846 842 850 853
11838 62 846 842 850 854
11839 62 853 850 851 855
11840 62 854 850 851 855
11841 62 855 851 859 862
11842 62 855 851 859 863
11843 62 862 859 860 864
11844 62 863 859 860 864
11845 62 864 860 868 871
11846 62 864 860 868 872
11847 62 871 868 869 873
11848 62 872 868 869 873
11849 62 873 869 877 880
11850 62 873 869 877 881
11851 62 880 877 878 882
11852 62 881 877 878 882
11853 62 882 878 886 889
11854 62 882 878 886 890
11855 62 889 886 887 891
11856 62 890 886 887 891
11857 62 891 887 895 898
11858 62 891 887 895 899
11859 62 911 906 915 918
11860 62 911 906 915 919
11861 62 918 915 916 920
11862 62 919 915 916 920
11863 62 920 916 924 927
11864 62 920 916 924 928
11865 62 927 924 925 929
11866 62 928 924 925 929
11867 62 929 925 933 936
11868 62 929 925 933 937
11869 62 936 933 934 938
11870 62 937 933 934 938
11871 62 938 934 942 945
11872 62 938 934 942 946
11873 62 945 942 943 947
11874 62 946 942 943 947
11875 62 947 943 951 954
11876 62 947 943 951 955
11877 62 954 951 952 956
11878 62 955 951 952 956
11879 62 956 952 960 963
11880 62 956 952 960 964
11881 62 963 960 961 965
11882 62 964 960 961 965
11883 62 965 961 969 972
11884 62 965 961 969 973
11885 62 972 969 970 974
11886 62 973 969 970 974
11887 62 974 970 978 981
11888 62 974 970 978 982
11889 62 981 978 979 983
11890 62 982 978 979 983
11891 62 983 979 987 990
11892 62 983 979 987 991
11893 62 990 987 988 992
11894 62 991 987 988 992
11895 62 992 988 996 999
11896 62 992 988 996 1000
11897 62 999 996 997 1001
11898 62 1000 996 997 1001
11899 62 1001 997 1005 1008
11900 62 1001 997 1005 1009
11901 62 1008 1005 1006 1010
11902 62 1009 1005 1006 1010
11903 62 1010 1006 1014 1017
11904 62 1010 1006 1014 1018
11905 62 1017 1014 1015 1019
11906 62 1018 1014 1015 1019
11907 62 1019 1015 1023 1026
11908 62 1019 1015 1023 1027
11909 62 1026 1023 1024 1028
11910 62 1027 1023 1024 1028
11911 62 1028 1024 1032 1035
11912 62 1028 1024 1032 1036
11913 62 1035 1032 1033 1037
11914 62 1036 1032 1033 1037
11915 62 1037 1033 1041 1044
11916 62 1037 1033 1041 1045
11917 62 1044 1041 1042 1046
11918 62 1045 1041 1042 1046
11919 62 1046 1042 1050 1053
11920 62 1046 1042 1050 1054
11921 62 1053 1050 1051 1055
11922 62 1054 1050 1051 1055
11923 62 1055 1051 1059 1062
11924 62 1055 1051 1059 1063
11925 62 1062 1059 1060 1064
11926 62 1063 1059 1060 1064
11927 62 1064 1060 1068 1071
11928 62 1064 1060 1068 1072
11929 62 1071 1068 1069 1073
11930 62 1072 1068 1069 1073
11931 62 1073 1069 1077 1080
11932 62 1073 1069 1077 1081
11933 62 1080 1077 1078 1082
11934 62 1081 1077 1078 1082
11935 62 1082 1078 1086 1089
11936 62 1082 1078 1086 1090
11937 62 1089 1086 1087 1091
11938 62 1090 1086 1087 1091
11939 62 1091 1087 1095 1098
11940 62 1091 1087 1095 1099
11941 62 1098 1095 1096 1100
11942 62 1099 1095 1096 1100
11943 62 1100 1096 1104 1107
11944 62 1100 1096 1104 1108
11945 62 1107 1104 1105 1109
11946 62 1108 1104 1105 1109
11947 62 1109 1105 1113 1116
11948 62 1109 1105 1113 1117
11949 62 1116 1113 1114 1118
11950 62 1117 1113 1114 1118
11951 62 1118 1114 1122 1125
11952 62 1118 1114 1122 1126
11953 62 1125 1122 1123 1127
11954 62 1126 1122 1123 1127
11955 62 1127 1123 1131 1134
11956 62 1127 1123 1131 1135
11957 62 1134 1131 1132 1136
11958 62 1135 1131 1132 1136
11959 62 1136 1132 1140 1143
11960 62 1136 1132 1140 1144
11961 62 1143 1140 1141 1145
11962 62 1144 1140 1141 1145
11963 62 1145 1141 1149 1152
11964 62 1145 1141 1149 1153
11965 62 1152 1149 1150 1154
11966 62 1153 1149 1150 1154
11967 62 1154 1150 1158 1161
11968 62 1154 1150 1158 1162
11969 62 1161 1158 1159 1163
11970 62 1162 1158 1159 1163
11971 62 1163 1159 1167 1170
11972 62 1163 1159 1167 1171
11973 62 1170 1167 1168 1172
11974 62 1171 1167 1168 1172
11975 62 1172 1168 1176 1179
11976 62 1172 1168 1176 1180
11977 62 1179 1176 1177 1181
11978 62 1180 1176 1177 1181
11979 62 1181 1177 1185 1188
11980 62 1181 1177 1185 1189
11981 62 1188 1185 1186 1190
11982 62 1189 1185 1186 1190
11983 62 1190 1186 1194 1197
11984 62 1190 1186 1194 1198
11985 62 1197 1194 1195 1199
11986 62 1198 1194 1195 1199
11987 62 1199 1195 1203 1206
11988 62 1199 1195 1203 1207
11989 62 1206 1203 1204 1208
11990 62 1207 1203 1204 1208
11991 62 1208 1204 1212 1215
11992 62 1208 1204 1212 1216
11993 62 1215 1212 1213 1217
11994 62 1216 1212 1213 1217
11995 62 1217 1213 1221 1224
11996 62 1217 1213 1221 1225
11997 62 1224 1221 1222 1226
11998 62 1225 1221 1222 1226
11999 62 1226 1222 1230 1233
12000 62 1226 1222 1230 1234
12001 62 1233 1230 1231 1235
12002 62 1234 1230 1231 1235
12003 62 1235 1231 1239 1242
12004 62 1235 1231 1239 1243
12005 62 1242 1239 1240 1244
12006 62 1243 1239 1240 1244
12007 62 1244 1240 1248 1251
12008 62 1244 1240 1248 1252
12009 62 1251 1248 1249 1253
12010 62 1252 1248 1249 1253
12011 62 1253 1249 1257 1260
12012 62 1253 1249 1257 1261
12013 62 1260 1257 1258 1262
12014 62 1261 1257 1258 1262
12015 62 1262 1258 1266 1269
12016 62 1262 1258 1266 1270
12017 62 1269 1266 1267 1271
12018 62 1270 1266 1267 1271
12019 62 1271 1267 1275 1278
12020 62 1271 1267 1275 1279
12021 62 1278 1275 1276 1280
12022 62 1279 1275 1276 1280
12023 62 1280 1276 1284 1287
12024 62 1280 1276 1284 1288
12025 62 1287 1284 1285 1289
12026 62 1288 1284 1285 1289
12027 62 1289 1285 1293 1296
12028 62 1289 1285 1293 1297
12029 62 1296 1293 1294 1298
12030 62 1297 1293 1294 1298
12031 62 1298 1294 1302 1305
12032 62 1298 1294 1302 1306
12033 62 1305 1302 1303 1307
12034 62 1306 1302 1303 1307
12035 62 1307 1303 1311 1314
12036 62 1307 1303 1311 1315
12037 62 1314 1311 1312 1316
12038 62 1315 1311 1312 1316
12039 62 1316 1312 1320 1323
12040 62 1316 1312 1320 1324
12041 62 1323 1320 1321 1325
12042 62 1324 1320 1321 1325
12043 62 1325 1321 1329 1332
12044 62 1325 1321 1329 1333
12045 62 1332 1329 1330 1334
12046 62 1333 1329 1330 1334
12047 62 1334 1330 1338 1341
12048 62 1334 1330 1338 1342
12049 62 1341 1338 1339 1343
12050 62 1342 1338 1339 1343
12051 62 1343 1339 1347 1350
12052 62 1343 1339 1347 1351
12053 62 1363 1358 1367 1370
12054 62 1363 1358 1367 1371
12055 62 1370 1367 1368 1372
12056 62 1371 1367 1368 1372
12057 62 1372 1368 1376 1379
12058 62 1372 1368 1376 1380
12059 62 1379 1376 1377 1381
12060 62 1380 1376 1377 1381
12061 62 1381 1377 1385 1388
12062 62 1381 1377 1385 1389
12063 62 1388 1385 1386 1390
12064 62 1389 1385 1386 1390
12065 62 1390 1386 1394 1397
12066 62 1390 1386 1394 1398
12067 62 1397 1394 1395 1399
12068 62 1398 1394 1395 1399
12069 62 1399 1395 1403 1406
12070 62 1399 1395 1403 1407
12071 62 1406 1403 1404 1408
12072 62 1407 1403 1404 1408
12073 62 1408 1404 1412 1415
12074 62 1408 1404 1412 1416
12075 62 1415 1412 1413 1417
12076 62 1416 1412 1413 1417
12077 62 1417 1413 1421 1424
12078 62 1417 1413 1421 1425
12079 62 1424 1421 1422 1426
12080 62 1425 1421 1422 1426
12081 62 1426 1422 1430 1433
12082 62 1426 1422 1430 1434
12083 62 1433 1430 1431 1435
12084 62 1434 1430 1431 1435
12085 62 1435 1431 1439 1442
12086 62 1435 1431 1439 1443
12087 62 1442 1439 1440 1444
12088 62 1443 1439 1440 1444
12089 62 1444 1440 1448 1451
12090 62 1444 1440 1448 1452
12091 62 1451 1448 1449 1453
12092 62 1452 1448 1449 1453
12093 62 1453 1449 1457 1460
12094 62 1453 1449 1457 1461
12095 62 1460 1457 1458 1462
12096 62 1461 1457 1458 1462
12097 62 1462 1458 1466 1469
12098 62 1462 1458 1466 1470
12099 62 1469 1466 1467 1471
12100 62 1470 1466 1467 1471
12101 62 1471 1467 1475 1478
12102 62 1471 1467 1475 1479
12103 62 1478 1475 1476 1480
12104 62 1479 1475 1476 1480
12105 62 1480 1476 1484 1487
12106 62 1480 1476 1484 1488
12107 62 1487 1484 1485 1489
12108 62 1488 1484 1485 1489
12109 62 1489 1485 1493 1496
12110 62 1489 1485 1493 1497
12111 62 1496 1493 1494 1498
12112 62 1497 1493 1494 1498
12113 62 1498 1494 1502 1505
12114 62 1498 1494 1502 1506
12115 62 1505 1502 1503 1507
12116 62 1506 1502 1503 1507
12117 62 1507 1503 1511 1514
12118 62 1507 1503 1511 1515
12119 62 1514 1511 1512 1516
12120 62 1515 1511 1512 1516
12121 62 1516 1512 1520 1523
12122 62 1516 1512 1520 1524
12123 62 1523 1520 1521 1525
12124 62 1524 1520 1521 1525
12125 62 1525 1521 1529 1532
12126 62 1525 1521 1529 1533
12127 62 1532 1529 1530 1534
12128 62 1533 1529 1530 1534
12129 62 1534 1530 1538 1541
12130 62 1534 1530 1538 1542
12131 62 1541 1538 1539 1543
12132 62 1542 1538 1539 1543
12133 62 1543 1539 1547 1550
12134 62 1543 1539 1547 1551
12135 62 1550 1547 1548 1552
12136 62 1551 1547 1548 1552
12137 62 1552 1548 1556 1559
12138 62 1552 1548 1556 1560
12139 62 1559 1556 1557 1561
12140 62 1560 1556 1557 1561
12141 62 1561 1557 1565 1568
12142 62 1561 1557 1565 1569
12143 62 1568 1565 1566 1570
12144 62 1569 1565 1566 1570
12145 62 1570 1566 1574 1577
12146 62 1570 1566 1574 1578
12147 62 1577 1574 1575 1579
12148 62 1578 1574 1575 1579
12149 62 1579 1575 1583 1586
12150 62 1579 1575 1583 1587
12151 62 1586 1583 1584 1588
12152 62 1587 1583 1584 1588
12153 62 1588 1584 1592 1595
12154 62 1588 1584 1592 1596
12155 62 1595 1592 1593 1597
12156 62 1596 1592 1593 1597
12157 62 1597 1593 1601 1604
12158 62 1597 1593 1601 1605
12159 62 1604 1601 1602 1606
12160 62 1605 1601 1602 1606
12161 62 1606 1602 1610 1613
12162 62 1606 1602 1610 1614
12163 62 1613 1610 1611 1615
12164 62 1614 1610 1611 1615
12165 62 1615 1611 1619 1622
12166 62 1615 1611 1619 1623
12167 62 1622 1619 1620 1624
12168 62 1623 1619 1620 1624
12169 62 1624 1620 1628 1631
12170 62 1624 1620 1628 1632
12171 62 1631 1628 1629 1633
12172 62 1632 1628 1629 1633
12173 62 1633 1629 1637 1640
12174 62 1633 1629 1637 1641
12175 62 1640 1637 1638 1642
12176 62 1641 1637 1638 1642
12177 62 1642 1638 1646 1649
12178 62 1642 1638 1646 1650
12179 62 1649 1646 1647 1651
12180 62 1650 1646 1647 1651
12181 62 1651 1647 1655 1658
12182 62 1651 1647 1655 1659
12183 62 1658 1655 1656 1660
12184 62 1659 1655 1656 1660
12185 62 1660 1656 1664 1667
12186 62 1660 1656 1664 1668
12187 62 1667 1664 1665 1669
12188 62 1668 1664 1665 1669
12189 62 1669 1665 1673 1676
12190 62 1669 1665 1673 1677
12191 62 1676 1673 1674 1678
12192 62 1677 1673 1674 1678
12193 62 1678 1674 1682 1685
12194 62 1678 1674 1682 1686
12195 62 1685 1682 1683 1687
12196 62 1686 1682 1683 1687
12197 62 1687 1683 1691 1694
12198 62 1687 1683 1691 1695
12199 62 1694 1691 1692 1696
12200 62 1695 1691 1692 1696
12201 62 1696 1692 1700 1703
12202 62 1696 1692 1700 1704
12203 62 1703 1700 1701 1705
12204 62 1704 1700 1701 1705
12205 62 1705 1701 1709 1712
12206 62 1705 1701 1709 1713
12207 62 1712 1709 1710 1714
12208 62 1713 1709 1710 1714
12209 62 1714 1710 1718 1721
12210 62 1714 1710 1718 1722
12211 62 1721 1718 1719 1723
12212 62 1722 1718 1719 1723
12213 62 1723 1719 1727 1730
12214 62 1723 1719 1727 1731
12215 62 1730 1727 1728 1732
12216 62 1731 1727 1728 1732
12217 62 1732 1728 1736 1739
12218 62 1732 1728 1736 1740
12219 62 1739 1736 1737 1741
12220 62 1740 1736 1737 1741
12221 62 1741 1737 1745 1748
12222 62 1741 1737 1745 1749
12223 62 1748 1745 1746 1750
12224 62 1749 1745 1746 1750
12225 62 1750 1746 1754 1757
12226 62 1750 1746 1754 1758
12227 62 1757 1754 1755 1759
12228 62 1758 1754 1755 1759
12229 62 1759 1755 1763 1766
12230 62 1759 1755 1763 1767
12231 62 1766 1763 1764 1768
12232 62 1767 1763 1764 1768
12233 62 1768 1764 1772 1775
12234 62 1768 1764 1772 1776
12235 62 1775 1772 1773 1777
12236 62 1776 1772 1773 1777
12237 62 1777 1773 1781 1784
12238 62 1777 1773 1781 1785
12239 62 1784 1781 1782 1786
12240 62 1785 1781 1782 1786
12241 62 1786 1782 1790 1793
12242 62 1786 1782 1790 1794
12243 62 1793 1790 1791 1795
12244 62 1794 1790 1791 1795
12245 62 1795 1791 1799 1802
12246 62 1795 1791 1799 1803
12247 62 1815 1810 1819 1822
12248 62 1815 1810 1819 1823
12249 62 1822 1819 1820 1824
12250 62 1823 1819 1820 1824
12251 62 1824 1820 1828 1831
12252 62 1824 1820 1828 1832
12253 62 1831 1828 1829 1833
12254 62 1832 1828 1829 1833
12255 62 1833 1829 1837 1840
12256 62 1833 1829 1837 1841
12257 62 1840 1837 1838 1842
12258 62 1841 1837 1838 1842
12259 62 1842 1838 1846 1849
12260 62 1842 1838 1846 1850
12261 62 1849 1846 1847 1851
12262 62 1850 1846 1847 1851
12263 62 1851 1847 1855 1858
12264 62 1851 1847 1855 1859
12265 62 1858 1855 1856 1860
12266 62 1859 1855 1856 1860
12267 62 1860 1856 1864 1867
12268 62 1860 1856 1864 1868
12269 62 1867 1864 1865 1869
12270 62 1868 1864 1865 1869
12271 62 1869 1865 1873 1876
12272 62 1869 1865 1873 1877
12273 62 1876 1873 1874 1878
12274 62 1877 1873 1874 1878
12275 62 1878 1874 1882 1885
12276 62 1878 1874 1882 1886
12277 62 1885 1882 1883 1887
12278 62 1886 1882 1883 1887
12279 62 1887 1883 1891 1894
12280 62 1887 1883 1891 1895
12281 62 1894 1891 1892 1896
12282 62 1895 1891 1892 1896
12283 62 1896 1892 1900 1903
12284 62 1896 1892 1900 1904
12285 62 1903 1900 1901 1905
12286 62 1904 1900 1901 1905
12287 62 1905 1901 1909 1912
12288 62 1905 1901 1909 1913
12289 62 1912 1909 1910 1914
12290 62 1913 1909 1910 1914
12291 62 1914 1910 1918 1921
12292 62 1914 1910 1918 1922
12293 62 1921 1918 1919 1923
12294 62 1922 1918 1919 1923
12295 62 1923 1919 1927 1930
12296 62 1923 1919 1927 1931
12297 62 1930 1927 1928 1932
12298 62 1931 1927 1928 1932
12299 62 1932 1928 1936 1939
12300 62 1932 1928 1936 1940
12301 62 1939 1936 1937 1941
12302 62 1940 1936 1937 1941
12303 62 1941 1937 1945 1948
12304 62 1941 1937 1945 1949
12305 62 1948 1945 1946 1950
12306 62 1949 1945 1946 1950
12307 62 1950 1946 1954 1957
12308 62 1950 1946 1954 1958
12309 62 1957 1954 1955 1959
12310 62 1958 1954 1955 1959
12311 62 1959 1955 1963 1966
12312 62 1959 1955 1963 1967
12313 62 1966 1963 1964 1968
12314 62 1967 1963 1964 1968
12315 62 1968 1964 1972 1975
12316 62 1968 1964 1972 1976
12317 62 1975 1972 1973 1977
12318 62 1976 1972 1973 1977
12319 62 1977 1973 1981 1984
12320 62 1977 1973 1981 1985
12321 62 1984 1981 1982 1986
12322 62 1985 1981 1982 1986
12323 62 1986 1982 1990 1993
12324 62 1986 1982 1990 1994
12325 62 1993 1990 1991 1995
12326 62 1994 1990 1991 1995
12327 62 1995 1991 1999 2002
12328 62 1995 1991 1999 2003
12329 62 2002 1999 2000 2004
12330 62 2003 1999 2000 2004
12331 62 2004 2000 2008 2011
12332 62 2004 2000 2008 2012
12333 62 2011 2008 2009 2013
12334 62 2012 2008 2009 2013
12335 62 2013 2009 2017 2020
12336 62 2013 2009 2017 2021
12337 62 2020 2017 2018 2022
12338 62 2021 2017 2018 2022
12339 62 2022 2018 2026 2029
12340 62 2022 2018 2026 2030
12341 62 2029 2026 2027 2031
12342 62 2030 2026 2027 2031
12343 62 2031 2027 2035 2038
12344 62 2031 2027 2035 2039
12345 62 2038 2035 2036 2040
12346 62 2039 2035 2036 2040
12347 62 2040 2036 2044 2047
12348 62 2040 2036 2044 2048
12349 62 2047 2044 2045 2049
12350 62 2048 2044 2045 2049
12351 62 2049 2045 2053 2056
12352 62 2049 2045 2053 2057
12353 62 2056 2053 2054 2058
12354 62 2057 2053 2054 2058
12355 62 2058 2054 2062 2065
12356 62 2058 2054 2062 2066
12357 62 2065 2062 2063 2067
12358 62 2066 2062 2063 2067
12359 62 2067 2063 2071 2074
12360 62 2067 2063 2071 2075
12361 62 2074 2071 2072 2076
12362 62 2075 2071 2072 2076
12363 62 2076 2072 2080 2083
12364 62 2076 2072 2080 2084
12365 62 2083 2080 2081 2085
12366 62 2084 2080 2081 2085
12367 62 2085 2081 2089 2092
12368 62 2085 2081 2089 2093
12369 62 2092 2089 2090 2094
12370 62 2093 2089 2090 2094
12371 62 2094 2090 2098 2101
12372 62 2094 2090 2098 2102
12373 62 2101 2098 2099 2103
12374 62 2102 2098 2099 2103
12375 62 2103 2099 2107 2110
12376 62 2103 2099 2107 2111
12377 62 2110 2107 2108 2112
12378 62 2111 2107 2108 2112
12379 62 2112 2108 2116 2119
12380 62 2112 2108 2116 2120
12381 62 2119 2116 2117 2121
12382 62 2120 2116 2117 2121
12383 62 2121 2117 2125 2128
12384 62 2121 2117 2125 2129
12385 62 2128 2125 2126 2130
12386 62 2129 2125 2126 2130
12387 62 2130 2126 2134 2137
12388 62 2130 2126 2134 2138
12389 62 2137 2134 2135 2139
12390 62 2138 2134 2135 2139
12391 62 2139 2135 2143 2146
12392 62 2139 2135 2143 2147
12393 62 2146 2143 2144 2148
12394 62 2147 2143 2144 2148
12395 62 2148 2144 2152 2155
12396 62 2148 2144 2152 2156
12397 62 2155 2152 2153 2157
12398 62 2156 2152 2153 2157
12399 62 2157 2153 2161 2164
12400 62 2157 2153 2161 2165
12401 62 2164 2161 2162 2166
12402 62 2165 2161 2162 2166
12403 62 2166 2162 2170 2173
12404 62 2166 2162 2170 2174
12405 62 2173 2170 2171 2175
12406 62 2174 2170 2171 2175
12407 62 2175 2171 2179 2182
12408 62 2175 2171 2179 2183
12409 62 2182 2179 2180 2184
12410 62 2183 2179 2180 2184
12411 62 2184 2180 2188 2191
12412 62 2184 2180 2188 2192
12413 62 2191 2188 2189 2193
12414 62 2192 2188 2189 2193
12415 62 2193 2189 2197 2200
12416 62 2193 2189 2197 2201
12417 62 2200 2197 2198 2202
12418 62 2201 2197 2198 2202
12419 62 2202 2198 2206 2209
12420 62 2202 2198 2206 2210
12421 62 2209 2206 2207 2211
12422 62 2210 2206 2207 2211
12423 62 2211 2207 2215 2218
12424 62 2211 2207 2215 2219
12425 62 2218 2215 2216 2220
12426 62 2219 2215 2216 2220
12427 62 2220 2216 2224 2227
12428 62 2220 2216 2224 2228
12429 62 2227 2224 2225 2229
12430 62 2228 2224 2225 2229
12431 62 2229 2225 2233 2236
12432 62 2229 2225 2233 2237
12433 62 2236 2233 2234 2238
12434 62 2237 2233 2234 2238
12435 62 2238 2234 2242 2245
12436 62 2238 2234 2242 2246
12437 62 2245 2242 2243 2247
12438 62 2246 2242 2243 2247
12439 62 2247 2243 2251 2254
12440 62 2247 2243 2251 2255
12441 62 2267 2262 2271 2274
12442 62 2267 2262 2271 2275
12443 62 2274 2271 2272 2276
12444 62 2275 2271 2272 2276
12445 62 2276 2272 2280 2283
12446 62 2276 2272 2280 2284
12447 62 2283 2280 2281 2285
12448 62 2284 2280 2281 2285
12449 62 2285 2281 2289 2292
12450 62 2285 2281 2289 2293
12451 62 2292 2289 2290 2294
12452 62 2293 2289 2290 2294
12453 62 2294 2290 2298 2301
12454 62 2294 2290 2298 2302
12455 62 2301 2298 2299 2303
12456 62 2302 2298 2299 2303
12457 62 2303 2299 2307 2310
12458 62 2303 2299 2307 2311
12459 62 2310 2307 2308 2312
12460 62 2311 2307 2308 2312
12461 62 2312 2308 2316 2319
12462 62 2312 2308 2316 2320
12463 62 2319 2316 2317 2321
12464 62 2320 2316 2317 2321
12465 62 2321 2317 2325 2328
12466 62 2321 2317 2325 2329
12467 62 2328 2325 2326 2330
12468 62 2329 2325 2326 2330
12469 62 2330 2326 2334 2337
12470 62 2330 2326 2334 2338
12471 62 2337 2334 2335 2339
12472 62 2338 2334 2335 2339
12473 62 2339 2335 2343 2346
12474 62 2339 2335 2343 2347
12475 62 2346 2343 2344 2348
12476 62 2347 2343 2344 2348
12477 62 2348 2344 2352 2355
12478 62 2348 2344 2352 2356
12479 62 2355 2352 2353 2357
12480 62 2356 2352 2353 2357
12481 62 2357 2353 2361 2364
12482 62 2357 2353 2361 2365
12483 62 2364 2361 2362 2366
12484 62 2365 2361 2362 2366
12485 62 2366 2362 2370 2373
12486 62 2366 2362 2370 2374
12487 62 2373 2370 2371 2375
12488 62 2374 2370 2371 2375
12489 62 2375 2371 2379 2382
12490 62 2375 2371 2379 2383
12491 62 2382 2379 2380 2384
12492 62 2383 2379 2380 2384
12493 62 2384 2380 2388 2391
12494 62 2384 2380 2388 2392
12495 62 2391 2388 2389 2393
12496 62 2392 2388 2389 2393
12497 62 2393 2389 2397 2400
12498 62 2393 2389 2397 2401
12499 62 2400 2397 2398 2402
12500 62 2401 2397 2398 2402
12501 62 2402 2398 2406 2409
12502 62 2402 2398 2406 2410
12503 62 2409 2406 2407 2411
12504 62 2410 2406 2407 2411
12505 62 2411 2407 2415 2418
12506 62 2411 2407 2415 2419
12507 62 2418 2415 2416 2420
12508 62 2419 2415 2416 2420
12509 62 2420 2416 2424 2427
12510 62 2420 2416 2424 2428
12511 62 2427 2424 2425 2429
12512 62 2428 2424 2425 2429
12513 62 2429 2425 2433 2436
12514 62 2429 2425 2433 2437
12515 62 2436 2433 2434 2438
12516 62 2437 2433 2434 2438
12517 62 2438 2434 2442 2445
12518 62 2438 2434 2442 2446
12519 62 2445 2442 2443 2447
12520 62 2446 2442 2443 2447
12521 62 2447 2443 2451 2454
12522 62 2447 2443 2451 2455
12523 62 2454 2451 2452 2456
12524 62 2455 2451 2452 2456
12525 62 2456 2452 2460 2463
12526 62 2456 2452 2460 2464
12527 62 2463 2460 2461 2465
12528 62 2464 2460 2461 2465
12529 62 2465 2461 2469 2472
12530 62 2465 2461 2469 2473
12531 62 2472 2469 2470 2474
12532 62 2473 2469 2470 2474
12533 62 2474 2470 2478 2481
12534 62 2474 2470 2478 2482
12535 62 2481 2478 2479 2483
12536 62 2482 2478 2479 2483
12537 62 2483 2479 2487 2490
12538 62 2483 2479 2487 2491
12539 62 2490 2487 2488 2492
12540 62 2491 2487 2488 2492
12541 62 2492 2488 2496 2499
12542 62 2492 2488 2496 2500
12543 62 2499 2496 2497 2501
12544 62 2500 2496 2497 2501
12545 62 2501 2497 2505 2508
12546 62 2501 2497 2505 2509
12547 62 2508 2505 2506 2510
12548 62 2509 2505 2506 2510
12549 62 2510 2506 2514 2517
12550 62 2510 2506 2514 2518
12551 62 2517 2514 2515 2519
12552 62 2518 2514 2515 2519
12553 62 2519 2515 2523 2526
12554 62 2519 2515 2523 2527
12555 62 2526 2523 2524 2528
12556 62 2527 2523 2524 2528
12557 62 2528 2524 2532 2535
12558 62 2528 2524 2532 2536
12559 62 2535 2532 2533 2537
12560 62 2536 2532 2533 2537
12561 62 2537 2533 2541 2544
12562 62 2537 2533 2541 2545
12563 62 2544 2541 2542 2546
12564 62 2545 2541 2542 2546
12565 62 2546 2542 2550 2553
12566 62 2546 2542 2550 2554
12567 62 2553 2550 2551 2555
12568 62 2554 2550 2551 2555
12569 62 2555 2551 2559 2562
12570 62 2555 2551 2559 2563
12571 62 2562 2559 2560 2564
12572 62 2563 2559 2560 2564
12573 62 2564 2560 2568 2571
12574 62 2564 2560 2568 2572
12575 62 2571 2568 2569 2573
12576 62 2572 2568 2569 2573
12577 62 2573 2569 2577 2580
12578 62 2573 2569 2577 2581
12579 62 2580 2577 2578 2582
12580 62 2581 2577 2578 2582
12581 62 2582 2578 2586 2589
12582 62 2582 2578 2586 2590
12583 62 2589 2586 2587 2591
12584 62 2590 2586 2587 2591
12585 62 2591 2587 2595 2598
12586 62 2591 2587 2595 2599
12587 62 2598 2595 2596 2600
12588 62 2599 2595 2596 2600
12589 62 2600 2596 2604 2607
12590 62 2600 2596 2604 2608
12591 62 2607 2604 2605 2609
12592 62 2608 2604 2605 2609
12593 62 2609 2605 2613 2616
12594 62 2609 2605 2613 2617
12595 62 2616 2613 2614 2618
12596 62 2617 2613 2614 2618
12597 62 2618 2614 2622 2625
12598 62 2618 2614 2622 2626
12599 62 2625 2622 2623 2627
12600 62 2626 2622 2623 2627
12601 62 2627 2623 2631 2634
12602 62 2627 2623 2631 2635
12603 62 2634 2631 2632 2636
12604 62 2635 2631 2632 2636
12605 62 2636 2632 2640 2643
12606 62 2636 2632 2640 2644
12607 62 2643 2640 2641 2645
12608 62 2644 2640 2641 2645
12609 62 2645 2641 2649 2652
12610 62 2645 2641 2649 2653
12611 62 2652 2649 2650 2654
12612 62 2653 2649 2650 2654
12613 62 2654 2650 2658 2661
12614 62 2654 2650 2658 2662
12615 62 2661 2658 2659 2663
12616 62 2662 2658 2659 2663
12617 62 2663 2659 2667 2670
12618 62 2663 2659 2667 2671
12619 62 2670 2667 2668 2672
12620 62 2671 2667 2668 2672
12621 62 2672 2668 2676 2679
12622 62 2672 2668 2676 2680
12623 62 2679 2676 2677 2681
12624 62 2680 2676 2677 2681
12625 62 2681 2677 2685 2688
12626 62 2681 2677 2685 2689
12627 62 2688 2685 2686 2690
12628 62 2689 2685 2686 2690
12629 62 2690 2686 2694 2697
12630 62 2690 2686 2694 2698
12631 62 2697 2694 2695 2699
12632 62 2698 2694 2695 2699
12633 62 2699 2695 2703 2706
12634 62 2699 2695 2703 2707
12635 62 2719 2714 2723 2726
12636 62 2719 2714 2723 2727
12637 62 2726 2723 2724 2728
12638 62 2727 2723 2724 2728
12639 62 2728 2724 2732 2735
12640 62 2728 2724 2732 2736
12641 62 2735 2732 2733 2737
12642 62 2736 2732 2733 2737
12643 62 2737 2733 2741 2744
12644 62 2737 2733 2741 2745
12645 62 2744 2741 2742 2746
12646 62 2745 2741 2742 2746
12647 62 2746 2742 2750 2753
12648 62 2746 2742 2750 2754
12649 62 2753 2750 2751 2755
12650 62 2754 2750 2751 2755
12651 62 2755 2751 2759 2762
12652 62 2755 2751 2759 2763
12653 62 2762 2759 2760 2764
12654 62 2763 2759 2760 2764
12655 62 2764 2760 2768 2771
12656 62 2764 2760 2768 2772
12657 62 2771 2768 2769 2773
12658 62 2772 2768 2769 2773
12659 62 2773 2769 2777 2780
12660 62 2773 2769 2777 2781
12661 62 2780 2777 2778 2782
12662 62 2781 2777 2778 2782
12663 62 2782 2778 2786 2789
12664 62 2782 2778 2786 2790
12665 62 2789 2786 2787 2791
12666 62 2790 2786 2787 2791
12667 62 2791 2787 2795 2798
12668 62 2791 2787 2795 2799
12669 62 2798 2795 2796 2800
12670 62 2799 2795 2796 2800
12671 62 2800 2796 2804 2807
12672 62 2800 2796 2804 2808
12673 62 2807 2804 2805 2809
12674 62 2808 2804 2805 2809
12675 62 2809 2805 2813 2816
12676 62 2809 2805 2813 2817
12677 62 2816 2813 2814 2818
12678 62 2817 2813 2814 2818
12679 62 2818 2814 2822 2825
12680 62 2818 2814 2822 2826
12681 62 2825 2822 2823 2827
12682 62 2826 2822 2823 2827
12683 62 2827 2823 2831 2834
12684 62 2827 2823 2831 2835
12685 62 2834 2831 2832 2836
12686 62 2835 2831 2832 2836
12687 62 2836 2832 2840 2843
12688 62 2836 2832 2840 2844
12689 62 2843 2840 2841 2845
12690 62 2844 2840 2841 2845
12691 62 2845 2841 2849 2852
12692 62 2845 2841 2849 2853
12693 62 2852 2849 2850 2854
12694 62 2853 2849 2850 2854
12695 62 2854 2850 2858 2861
12696 62 2854 2850 2858 2862
12697 62 2861 2858 2859 2863
12698 62 2862 2858 2859 2863
12699 62 2863 2859 2867 2870
12700 62 2863 2859 2867 2871
12701 62 2870 2867 2868 2872
12702 62 2871 2867 2868 2872
12703 62 2872 2868 2876 2879
12704 62 2872 2868 2876 2880
12705 62 2879 2876 2877 2881
12706 62 2880 2876 2877 2881
12707 62 2881 2877 2885 2888
12708 62 2881 2877 2885 2889
12709 62 2888 2885 2886 2890
12710 62 2889 2885 2886 2890
12711 62 2890 2886 2894 2897
12712 62 2890 2886 2894 2898
12713 62 2897 2894 2895 2899
12714 62 2898 2894 2895 2899
12715 62 2899 2895 2903 2906
12716 62 2899 2895 2903 2907
12717 62 2906 2903 2904 2908
12718 62 2907 2903 2904 2908
12719 62 2908 2904 2912 2915
12720 62 2908 2904 2912 2916
12721 62 2915 2912 2913 2917
12722 62 2916 2912 2913 2917
12723 62 2917 2913 2921 2924
12724 62 2917 2913 2921 2925
12725 62 2924 2921 2922 2926
12726 62 2925 2921 2922 2926
12727 62 2926 2922 2930 2933
12728 62 2926 2922 2930 2934
12729 62 2933 2930 2931 2935
12730 62 2934 2930 2931 2935
12731 62 2935 2931 2939 2942
12732 62 2935 2931 2939 2943
12733 62 2942 2939 2940 2944
12734 62 2943 2939 2940 2944
12735 62 2944 2940 2948 2951
12736 62 2944 2940 2948 2952
12737 62 2951 2948 2949 2953
12738 62 2952 2948 2949 2953
12739 62 2953 2949 2957 2960
12740 62 2953 2949 2957 2961
12741 62 2960 2957 2958 2962
12742 62 2961 2957 2958 2962
12743 62 2962 2958 2966 2969
12744 62 2962 2958 2966 2970
12745 62 2969 2966 2967 2971
12746 62 2970 2966 2967 2971
12747 62 2971 2967 2975 2978
12748 62 2971 2967 2975 2979
12749 62 2978 2975 2976 2980
12750 62 2979 2975 2976 2980
12751 62 2980 2976 2984 2987
12752 62 2980 2976 2984 2988
12753 62 2987 2984 2985 2989
12754 62 2988 2984 2985 2989
12755 62 2989 2985 2993 2996
12756 62 2989 2985 2993 2997
12757 62 2996 2993 2994 2998
12758 62 2997 2993 2994 2998
12759 62 2998 2994 3002 3005
12760 62 2998 2994 3002 3006
12761 62 3005 3002 3003 3007
12762 62 3006 3002 3003 3007
12763 62 3007 3003 3011 3014
12764 62 3007 3003 3011 3015
12765 62 3014 3011 3012 3016
12766 62 3015 3011 3012 3016
12767 62 3016 3012 3020 3023
12768 62 3016 3012 3020 3024
12769 62 3023 3020 3021 3025
12770 62 3024 3020 3021 3025
12771 62 3025 3021 3029 3032
12772 62 3025 3021 3029 3033
12773 62 3032 3029 3030 3034
12774 62 3033 3029 3030 3034
12775 62 3034 3030 3038 3041
12776 62 3034 3030 3038 3042
12777 62 3041 3038 3039 3043
12778 62 3042 3038 3039 3043
12779 62 3043 3039 3047 3050
12780 62 3043 3039 3047 3051
12781 62 3050 3047 3048 3052
12782 62 3051 3047 3048 3052
12783 62 3052 3048 3056 3059
12784 62 3052 3048 3056 3060
12785 62 3059 3056 3057 3061
12786 62 3060 3056 3057 3061
12787 62 3061 3057 3065 3068
12788 62 3061 3057 3065 3069
12789 62 3068 3065 3066 3070
12790 62 3069 3065 3066 3070
12791 62 3070 3066 3074 3077
12792 62 3070 3066 3074 3078
12793 62 3077 3074 3075 3079
12794 62 3078 3074 3075 3079
12795 62 3079 3075 3083 3086
12796 62 3079 3075 3083 3087
12797 62 3086 3083 3084 3088
12798 62 3087 3083 3084 3088
12799 62 3088 3084 3092 3095
12800 62 3088 3084 3092 3096
12801 62 3095 3092 3093 3097
12802 62 3096 3092 3093 3097
12803 62 3097 3093 3101 3104
12804 62 3097 3093 3101 3105
12805 62 3104 3101 3102 3106
12806 62 3105 3101 3102 3106
12807 62 3106 3102 3110 3113
12808 62 3106 3102 3110 3114
12809 62 3113 3110 3111 3115
12810 62 3114 3110 3111 3115
12811 62 3115 3111 3119 3122
12812 62 3115 3111 3119 3123
12813 62 3122 3119 3120 3124
12814 62 3123 3119 3120 3124
12815 62 3124 3120 3128 3131
12816 62 3124 3120 3128 3132
12817 62 3131 3128 3129 3133
12818 62 3132 3128 3129 3133
12819 62 3133 3129 3137 3140
12820 62 3133 3129 3137 3141
12821 62 3140 3137 3138 3142
12822 62 3141 3137 3138 3142
12823 62 3142 3138 3146 3149
12824 62 3142 3138 3146 3150
12825 62 3149 3146 3147 3151
12826 62 3150 3146 3147 3151
12827 62 3151 3147 3155 3158
12828 62 3151 3147 3155 3159
12829 62 3171 3166 3175 3178
12830 62 3171 3166 3175 3179
12831 62 3178 3175 3176 3180
12832 62 3179 3175 3176 3180
12833 62 3180 3176 3184 3187
12834 62 3180 3176 3184 3188
12835 62 3187 3184 3185 3189
12836 62 3188 3184 3185 3189
12837 62 3189 3185 3193 3196
12838 62 3189 3185 3193 3197
12839 62 3196 3193 3194 3198
12840 62 3197 3193 3194 3198
12841 62 3198 3194 3202 3205
12842 62 3198 3194 3202 3206
12843 62 3205 3202 3203 3207
12844 62 3206 3202 3203 3207
12845 62 3207 3203 3211 3214
12846 62 3207 3203 3211 3215
12847 62 3214 3211 3212 3216
12848 62 3215 3211 3212 3216
12849 62 3216 3212 3220 3223
12850 62 3216 3212 3220 3224
12851 62 3223 3220 3221 3225
12852 62 3224 3220 3221 3225
12853 62 3225 3221 3229 3232
12854 62 3225 3221 3229 3233
12855 62 3232 3229 3230 3234
12856 62 3233 3229 3230 3234
12857 62 3234 3230 3238 3241
12858 62 3234 3230 3238 3242
12859 62 3241 3238 3239 3243
12860 62 3242 3238 3239 3243
12861 62 3243 3239 3247 3250
12862 62 3243 3239 3247 3251
12863 62 3250 3247 3248 3252
12864 62 3251 3247 3248 3252
12865 62 3252 3248 3256 3259
12866 62 3252 3248 3256 3260
12867 62 3259 3256 3257 3261
12868 62 3260 3256 3257 3261
12869 62 3261 3257 3265 3268
12870 62 3261 3257 3265 3269
12871 62 3268 3265 3266 3270
12872 62 3269 3265 3266 3270
12873 62 3270 3266 3274 3277
12874 62 3270 3266 3274 3278
12875 62 3277 3274 3275 3279
12876 62 3278 3274 3275 3279
12877 62 3279 3275 3283 3286
12878 62 3279 3275 3283 3287
12879 62 3286 3283 3284 3288
12880 62 3287 3283 3284 3288
12881 62 3288 3284 3292 3295
12882 62 3288 3284 3292 3296
12883 62 3295 3292 3293 3297
12884 62 3296 3292 3293 3297
12885 62 3297 3293 3301 3304
12886 62 3297 3293 3301 3305
12887 62 3304 3301 3302 3306
12888 62 3305 3301 3302 3306
12889 62 3306 3302 3310 3313
12890 62 3306 3302 3310 3314
12891 62 3313 3310 3311 3315
12892 62 3314 3310 3311 3315
12893 62 3315 3311 3319 3322
12894 62 3315 3311 3319 3323
12895 62 3322 3319 3320 3324
12896 62 3323 3319 3320 3324
12897 62 3324 3320 3328 3331
12898 62 3324 3320 3328 3332
12899 62 3331 3328 3329 3333
12900 62 3332 3328 3329 3333
12901 62 3333 3329 3337 3340
12902 62 3333 3329 3337 3341
12903 62 3340 3337 3338 3342
12904 62 3341 3337 3338 3342
12905 62 3342 3338 3346 3349
12906 62 3342 3338 3346 3350
12907 62 3349 3346 3347 3351
12908 62 3350 3346 3347 3351
12909 62 3351 3347 3355 3358
12910 62 3351 3347 3355 3359
12911 62 3358 3355 3356 3360
12912 62 3359 3355 3356 3360
12913 62 3360 3356 3364 3367
12914 62 3360 3356 3364 3368
12915 62 3367 3364 3365 3369
12916 62 3368 3364 3365 3369
12917 62 3369 3365 3373 3376
12918 62 3369 3365 3373 3377
12919 62 3376 3373 3374 3378
12920 62 3377 3373 3374 3378
12921 62 3378 3374 3382 3385
12922 62 3378 3374 3382 3386
12923 62 3385 3382 3383 3387
12924 62 3386 3382 3383 3387
12925 62 3387 3383 3391 3394
12926 62 3387 3383 3391 3395
12927 62 3394 3391 3392 3396
12928 62 3395 3391 3392 3396
12929 62 3396 3392 3400 3403
12930 62 3396 3392 3400 3404
12931 62 3403 3400 3401 3405
12932 62 3404 3400 3401 3405
12933 62 3405 3401 3409 3412
12934 62 3405 3401 3409 3413
12935 62 3412 3409 3410 3414
12936 62 3413 3409 3410 3414
12937 62 3414 3410 3418 3421
12938 62 3414 3410 3418 3422
12939 62 3421 3418 3419 3423
12940 62 3422 3418 3419 3423
12941 62 3423 3419 3427 3430
12942 62 3423 3419 3427 3431
12943 62 3430 3427 3428 3432
12944 62 3431 3427 3428 3432
12945 62 3432 3428 3436 3439
12946 62 3432 3428 3436 3440
12947 62 3439 3436 3437 3441
12948 62 3440 3436 3437 3441
12949 62 3441 3437 3445 3448
12950 62 3441 3437 3445 3449
12951 62 3448 3445 3446 3450
12952 62 3449 3445 3446 3450
12953 62 3450 3446 3454 3457
12954 62 3450 3446 3454 3458
12955 62 3457 3454 3455 3459
12956 62 3458 3454 3455 3459
12957 62 3459 3455 3463 3466
12958 62 3459 3455 3463 3467
12959 62 3466 3463 3464 3468
12960 62 3467 3463 3464 3468
12961 62 3468 3464 3472 3475
12962 62 3468 3464 3472 3476
12963 62 3475 3472 3473 3477
12964 62 3476 3472 3473 3477
12965 62 3477 3473 3481 3484
12966 62 3477 3473 3481 3485
12967 62 3484 3481 3482 3486
12968 62 3485 3481 3482 3486
12969 62 3486 3482 3490 3493
12970 62 3486 3482 3490 3494
12971 62 3493 3490 3491 3495
12972 62 3494 3490 3491 3495
12973 62 3495 3491 3499 3502
12974 62 3495 3491 3499 3503
12975 62 3502 3499 3500 3504
12976 62 3503 3499 3500 3504
12977 62 3504 3500 3508 3511
12978 62 3504 3500 3508 3512
12979 62 3511 3508 3509 3513
12980 62 3512 3508 3509 3513
12981 62 3513 3509 3517 3520
12982 62 3513 3509 3517 3521
12983 62 3520 3517 3518 3522
12984 62 3521 3517 3518 3522
12985 62 3522 3518 3526 3529
12986 62 3522 3518 3526 3530
12987 62 3529 3526 3527 3531
12988 62 3530 3526 3527 3531
12989 62 3531 3527 3535 3538
12990 62 3531 3527 3535 3539
12991 62 3538 3535 3536 3540
12992 62 3539 3535 3536 3540
12993 62 3540 3536 3544 3547
12994 62 3540 3536 3544 3548
12995 62 3547 3544 3545 3549
12996 62 3548 3544 3545 3549
12997 62 3549 3545 3553 3556
12998 62 3549 3545 3553 3557
12999 62 3556 3553 3554 3558
13000 62 3557 3553 3554 3558
13001 62 3558 3554 3562 3565
13002 62 3558 3554 3562 3566
13003 62 3565 3562 3563 3567
13004 62 3566 3562 3563 3567
13005 62 3567 3563 3571 3574
13006 62 3567 3563 3571 3575
13007 62 3574 3571 3572 3576
13008 62 3575 3571 3572 3576
13009 62 3576 3572 3580 3583
13010 62 3576 3572 3580 3584
13011 62 3583 3580 3581 3585
13012 62 3584 3580 3581 3585
13013 62 3585 3581 3589 3592
13014 62 3585 3581 3589 3593
13015 62 3592 3589 3590 3594
13016 62 3593 3589 3590 3594
13017 62 3594 3590 3598 3601
13018 62 3594 3590 3598 3602
13019 62 3601 3598 3599 3603
13020 62 3602 3598 3599 3603
13021 62 3603 3599 3607 3610
13022 62 3603 3599 3607 3611
13023 62 3623 3618 3627 3630
13024 62 3623 3618 3627 3631
13025 62 3630 3627 3628 3632
13026 62 3631 3627 3628 3632
13027 62 3632 3628 3636 3639
13028 62 3632 3628 3636 3640
13029 62 3639 3636 3637 3641
13030 62 3640 3636 3637 3641
13031 62 3641 3637 3645 3648
13032 62 3641 3637 3645 3649
13033 62 3648 3645 3646 3650
13034 62 3649 3645 3646 3650
13035 62 3650 3646 3654 3657
13036 62 3650 3646 3654 3658
13037 62 3657 3654 3655 3659
13038 62 3658 3654 3655 3659
13039 62 3659 3655 3663 3666
13040 62 3659 3655 3663 3667
13041 62 3666 3663 3664 3668
13042 62 3667 3663 3664 3668
13043 62 3668 3664 3672 3675
13044 62 3668 3664 3672 3676
13045 62 3675 3672 3673 3677
13046 62 3676 3672 3673 3677
13047 62 3677 3673 3681 3684
13048 62 3677 3673 3681 3685
13049 62 3684 3681 3682 3686
13050 62 3685 3681 3682 3686
13051 62 3686 3682 3690 3693
13052 62 3686 3682 3690 3694
13053 62 3693 3690 3691 3695
13054 62 3694 3690 3691 3695
13055 62 3695 3691 3699 3702
13056 62 3695 3691 3699 3703
13057 62 3702 3699 3700 3704
13058 62 3703 3699 3700 3704
13059 62 3704 3700 3708 3711
13060 62 3704 3700 3708 3712
13061 62 3711 3708 3709 3713
13062 62 3712 3708 3709 3713
13063 62 3713 3709 3717 3720
13064 62 3713 3709 3717 3721
13065 62 3720 3717 3718 3722
13066 62 3721 3717 3718 3722
13067 62 3722 3718 3726 3729
13068 62 3722 3718 3726 3730
13069 62 3729 3726 3727 3731
13070 62 3730 3726 3727 3731
13071 62 3731 3727 3735 3738
13072 62 3731 3727 3735 3739
13073 62 3738 3735 3736 3740
13074 62 3739 3735 3736 3740
13075 62 3740 3736 3744 3747
13076 62 3740 3736 3744 3748
13077 62 3747 3744 3745 3749
13078 62 3748 3744 3745 3749
13079 62 3749 3745 3753 3756
13080 62 3749 3745 3753 3757
13081 62 3756 3753 3754 3758
13082 62 3757 3753 3754 3758
13083 62 3758 3754 3762 3765
13084 62 3758 3754 3762 3766
13085 62 3765 3762 3763 3767
13086 62 3766 3762 3763 3767
13087 62 3767 3763 3771 3774
13088 62 3767 3763 3771 3775
13089 62 3774 3771 3772 3776
13090 62 3775 3771 3772 3776
13091 62 3776 3772 3780 3783
13092 62 3776 3772 3780 3784
13093 62 3783 3780 3781 3785
13094 62 3784 3780 3781 3785
13095 62 3785 3781 3789 3792
13096 62 3785 3781 3789 3793
13097 62 3792 3789 3790 3794
13098 62 3793 3789 3790 3794
13099 62 3794 3790 3798 3801
13100 62 3794 3790 3798 3802
13101 62 3801 3798 3799 3803
13102 62 3802 3798 3799 3803
13103 62 3803 3799 3807 3810
13104 62 3803 3799 3807 3811
13105 62 3810 3807 3808 3812
13106 62 3811 3807 3808 3812
13107 62 3812 3808 3816 3819
13108 62 3812 3808 3816 3820
13109 62 3819 3816 3817 3821
13110 62 3820 3816 3817 3821
13111 62 3821 3817 3825 3828
13112 62 3821 3817 3825 3829
13113 62 3828 3825 3826 3830
13114 62 3829 3825 3826 3830
13115 62 3830 3826 3834 3837
13116 62 3830 3826 3834 3838
13117 62 3837 3834 3835 3839
13118 62 3838 3834 3835 3839
13119 62 3839 3835 3843 3846
13120 62 3839 3835 3843 3847
13121 62 3846 3843 3844 3848
13122 62 3847 3843 3844 3848
13123 62 3848 3844 3852 3855
13124 62 3848 3844 3852 3856
13125 62 3855 3852 3853 3857
13126 62 3856 3852 3853 3857
13127 62 3857 3853 3861 3864
13128 62 3857 3853 3861 3865
13129 62 3864 3861 3862 3866
13130 62 3865 3861 3862 3866
13131 62 3866 3862 3870 3873
13132 62 3866 3862 3870 3874
13133 62 3873 3870 3871 3875
13134 62 3874 3870 3871 3875
13135 62 3875 3871 3879 3882
13136 62 3875 3871 3879 3883
13137 62 3882 3879 3880 3884
13138 62 3883 3879 3880 3884
13139 62 3884 3880 3888 3891
13140 62 3884 3880 3888 3892
13141 62 3891 3888 3889 3893
13142 62 3892 3888 3889 3893
13143 62 3893 3889 3897 3900
13144 62 3893 3889 3897 3901
13145 62 3900 3897 3898 3902
13146 62 3901 3897 3898 3902
13147 62 3902 3898 3906 3909
13148 62 3902 3898 3906 3910
13149 62 3909 3906 3907 3911
13150 62 3910 3906 3907 3911
13151 62 3911 3907 3915 3918
13152 62 3911 3907 3915 3919
13153 62 3918 3915 3916 3920
13154 62 3919 3915 3916 3920
13155 62 3920 3916 3924 3927
13156 62 3920 3916 3924 3928
13157 62 3927 3924 3925 3929
13158 62 3928 3924 3925 3929
13159 62 3929 3925 3933 3936
13160 62 3929 3925 3933 3937
13161 62 3936 3933 3934 3938
13162 62 3937 3933 3934 3938
13163 62 3938 3934 3942 3945
13164 62 3938 3934 3942 3946
13165 62 3945 3942 3943 3947
13166 62 3946 3942 3943 3947
13167 62 3947 3943 3951 3954
13168 62 3947 3943 3951 3955
13169 62 3954 3951 3952 3956
13170 62 3955 3951 3952 3956
13171 62 3956 3952 3960 3963
13172 62 3956 3952 3960 3964
13173 62 3963 3960 3961 3965
13174 62 3964 3960 3961 3965
13175 62 3965 3961 3969 3972
13176 62 3965 3961 3969 3973
13177 62 3972 3969 3970 3974
13178 62 3973 3969 3970 3974
13179 62 3974 3970 3978 3981
13180 62 3974 3970 3978 3982
13181 62 3981 3978 3979 3983
13182 62 3982 3978 3979 3983
13183 62 3983 3979 3987 3990
13184 62 3983 3979 3987 3991
13185 62 3990 3987 3988 3992
13186 62 3991 3987 3988 3992
13187 62 3992 3988 3996 3999
13188 62 3992 3988 3996 4000
13189 62 3999 3996 3997 4001
13190 62 4000 3996 3997 4001
13191 62 4001 3997 4005 4008
13192 62 4001 3997 4005 4009
13193 62 4008 4005 4006 4010
13194 62 4009 4005 4006 4010
13195 62 4010 4006 4014 4017
13196 62 4010 4006 4014 4018
13197 62 4017 4014 4015 4019
13198 62 4018 4014 4015 4019
13199 62 4019 4015 4023 4026
13200 62 4019 4015 4023 4027
13201 62 4026 4023 4024 4028
13202 62 4027 4023 4024 4028
13203 62 4028 4024 4032 4035
13204 62 4028 4024 4032 4036
13205 62 4035 4032 4033 4037
13206 62 4036 4032 4033 4037
13207 62 4037 4033 4041 4044
13208 62 4037 4033 4041 4045
13209 62 4044 4041 4042 4046
13210 62 4045 4041 4042 4046
13211 62 4046 4042 4050 4053
13212 62 4046 4042 4050 4054
13213 62 4053 4050 4051 4055
13214 62 4054 4050 4051 4055
13215 62 4055 4051 4059 4062
13216 62 4055 4051 4059 4063
13217 62 4075 4070 4079 4082
13218 62 4075 4070 4079 4083
13219 62 4082 4079 4080 4084
13220 62 4083 4079 4080 4084
13221 62 4084 4080 4088 4091
13222 62 4084 4080 4088 4092
13223 62 4091 4088 4089 4093
13224 62 4092 4088 4089 4093
13225 62 4093 4089 4097 4100
13226 62 4093 4089 4097 4101
13227 62 4100 4097 4098 4102
13228 62 4101 4097 4098 4102
13229 62 4102 4098 4106 4109
13230 62 4102 4098 4106 4110
13231 62 4109 4106 4107 4111
13232 62 4110 4106 4107 4111
13233 62 4111 4107 4115 4118
13234 62 4111 4107 4115 4119
13235 62 4118 4115 4116 4120
13236 62 4119 4115 4116 4120
13237 62 4120 4116 4124 4127
13238 62 4120 4116 4124 4128
13239 62 4127 4124 4125 4129
13240 62 4128 4124 4125 4129
13241 62 4129 4125 4133 4136
13242 62 4129 4125 4133 4137
13243 62 4136 4133 4134 4138
13244 62 4137 4133 4134 4138
13245 62 4138 4134 4142 4145
13246 62 4138 4134 4142 4146
13247 62 4145 4142 4143 4147
13248 62 4146 4142 4143 4147
13249 62 4147 4143 4151 4154
13250 62 4147 4143 4151 4155
13251 62 4154 4151 4152 4156
13252 62 4155 4151 4152 4156
13253 62 4156 4152 4160 4163
13254 62 4156 4152 4160 4164
13255 62 4163 4160 4161 4165
13256 62 4164 4160 4161 4165
13257 62 4165 4161 4169 4172
13258 62 4165 4161 4169 4173
13259 62 4172 4169 4170 4174
13260 62 4173 4169 4170 4174
13261 62 4174 4170 4178 4181
13262 62 4174 4170 4178 4182
13263 62 4181 4178 4179 4183
13264 62 4182 4178 4179 4183
13265 62 4183 4179 4187 4190
13266 62 4183 4179 4187 4191
13267 62 4190 4187 4188 4192
13268 62 4191 4187 4188 4192
13269 62 4192 4188 4196 4199
13270 62 4192 4188 4196 4200
13271 62 4199 4196 4197 4201
13272 62 4200 4196 4197 4201
13273 62 4201 4197 4205 4208
13274 62 4201 4197 4205 4209
13275 62 4208 4205 4206 4210
13276 62 4209 4205 4206 4210
13277 62 4210 4206 4214 4217
13278 62 4210 4206 4214 4218
13279 62 4217 4214 4215 4219
13280 62 4218 4214 4215 4219
13281 62 4219 4215 4223 4226
13282 62 4219 4215 4223 4227
13283 62 4226 4223 4224 4228
13284 62 4227 4223 4224 4228
13285 62 4228 4224 4232 4235
13286 62 4228 4224 4232 4236
13287 62 4235 4232 4233 4237
13288 62 4236 4232 4233 4237
13289 62 4237 4233 4241 4244
13290 62 4237 4233 4241 4245
13291 62 4244 4241 4242 4246
13292 62 4245 4241 4242 4246
13293 62 4246 4242 4250 4253
13294 62 4246 4242 4250 4254
13295 62 4253 4250 4251 4255
13296 62 4254 4250 4251 4255
13297 62 4255 4251 4259 4262
13298 62 4255 4251 4259 4263
13299 62 4262 4259 4260 4264
13300 62 4263 4259 4260 4264
13301 62 4264 4260 4268 4271
13302 62 4264 4260 4268 4272
13303 62 4271 4268 4269 4273
13304 62 4272 4268 4269 4273
13305 62 4273 4269 4277 4280
13306 62 4273 4269 4277 4281
13307 62 4280 4277 4278 4282
13308 62 4281 4277 4278 4282
13309 62 4282 4278 4286 4289
13310 62 4282 4278 4286 4290
13311 62 4289 4286 4287 4291
13312 62 4290 4286 4287 4291
13313 62 4291 4287 4295 4298
13314 62 4291 4287 4295 4299
13315 62 4298 4295 4296 4300
13316 62 4299 4295 4296 4300
13317 62 4300 4296 4304 4307
13318 62 4300 4296 4304 4308
13319 62 4307 4304 4305 4309
13320 62 4308 4304 4305 4309
13321 62 4309 4305 4313 4316
13322 62 4309 4305 4313 4317
13323 62 4316 4313 4314 4318
13324 62 4317 4313 4314 4318
13325 62 4318 4314 4322 4325
13326 62 4318 4314 4322 4326
13327 62 4325 4322 4323 4327
13328 62 4326 4322 4323 4327
13329 62 4327 4323 4331 4334
13330 62 4327 4323 4331 4335
13331 62 4334 4331 4332 4336
13332 62 4335 4331 4332 4336
13333 62 4336 4332 4340 4343
13334 62 4336 4332 4340 4344
13335 62 4343 4340 4341 4345
13336 62 4344 4340 4341 4345
13337 62 4345 4341 4349 4352
13338 62 4345 4341 4349 4353
13339 62 4352 4349 4350 4354
13340 62 4353 4349 4350 4354
13341 62 4354 4350 4358 4361
13342 62 4354 4350 4358 4362
13343 62 4361 4358 4359 4363
13344 62 4362 4358 4359 4363
13345 62 4363 4359 4367 4370
13346 62 4363 4359 4367 4371
13347 62 4370 4367 4368 4372
13348 62 4371 4367 4368 4372
13349 62 4372 4368 4376 4379
13350 62 4372 4368 4376 4380
13351 62 4379 4376 4377 4381
13352 62 4380 4376 4377 4381
13353 62 4381 4377 4385 4388
13354 62 4381 4377 4385 4389
13355 62 4388 4385 4386 4390
13356 62 4389 4385 4386 4390
13357 62 4390 4386 4394 4397
13358 62 4390 4386 4394 4398
13359 62 4397 4394 4395 4399
13360 62 4398 4394 4395 4399
13361 62 4399 4395 4403 4406
13362 62 4399 4395 4403 4407
13363 62 4406 4403 4404 4408
13364 62 4407 4403 4404 4408
13365 62 4408 4404 4412 4415
13366 62 4408 4404 4412 4416
13367 62 4415 4412 4413 4417
13368 62 4416 4412 4413 4417
13369 62 4417 4413 4421 4424
13370 62 4417 4413 4421 4425
13371 62 4424 4421 4422 4426
13372 62 4425 4421 4422 4426
13373 62 4426 4422 4430 4433
13374 62 4426 4422 4430 4434
13375 62 4433 4430 4431 4435
13376 62 4434 4430 4431 4435
13377 62 4435 4431 4439 4442
13378 62 4435 4431 4439 4443
13379 62 4442 4439 4440 4444
13380 62 4443 4439 4440 4444
13381 62 4444 4440 4448 4451
13382 62 4444 4440 4448 4452
13383 62 4451 4448 4449 4453
13384 62 4452 4448 4449 4453
13385 62 4453 4449 4457 4460
13386 62 4453 4449 4457 4461
13387 62 4460 4457 4458 4462
13388 62 4461 4457 4458 4462
13389 62 4462 4458 4466 4469
13390 62 4462 4458 4466 4470
13391 62 4469 4466 4467 4471
13392 62 4470 4466 4467 4471
13393 62 4471 4467 4475 4478
13394 62 4471 4467 4475 4479
13395 62 4478 4475 4476 4480
13396 62 4479 4475 4476 4480
13397 62 4480 4476 4484 4487
13398 62 4480 4476 4484 4488
13399 62 4487 4484 4485 4489
13400 62 4488 4484 4485 4489
13401 62 4489 4485 4493 4496
13402 62 4489 4485 4493 4497
13403 62 4496 4493 4494 4498
13404 62 4497 4493 4494 4498
13405 62 4498 4494 4502 4505
13406 62 4498 4494 4502 4506
13407 62 4505 4502 4503 4507
13408 62 4506 4502 4503 4507
13409 62 4507 4503 4511 4514
13410 62 4507 4503 4511 4515

