LAMMPS Description

     710  atoms
     705  bonds
     1300  angles
     1105  dihedrals
     0  impropers

     8  atom types
     9  bond types
     10  angle types
     21  dihedral types
     0  improper types

  -36.2051 36.2051 xlo xhi
  -36.2051 36.2051 ylo yhi
  -36.2051 36.2051 zlo zhi

Masses

1 12.011  # 54_bCT_aCT_dCT_iCT
2 1.008  # 60_bHC_aHC_dHC_iHC
3 15.999  # 154_bOH_aOH_dOH_iOH
4 1.008  # 155_bHO_aHO_dHO_iHO
5 12.011  # 157_bCT_aCT_dCT_iCT
6 15.999  # 180_bOS_aOS_dOS_iOS
7 12.011  # 182_bCT_aCT_dCT_iCT
8 1.008  # 185_bHC_aHC_dHC_iHC

Atoms  # full

1 1 1 -0.1800 -9.653578347525302 18.438703512157073 10.401270137914526
2 1 6 -0.4000 -9.396450003047102 17.122131509307724 8.515767770963173
3 1 7 0.1400 -9.529122540614853 18.46845236692427 8.892850183867807
4 1 2 0.0600 -9.797438637254492 19.43074324708423 10.846254835814005
5 1 2 0.0600 -10.484930726724013 17.72736460914837 10.631190095001818
6 1 2 0.0600 -8.70473520853717 17.97353861022984 10.770790518421716
7 1 8 0.0300 -8.67447837407467 19.06565324315221 8.540852368489041
8 1 8 0.0300 -10.453798793767831 18.851837952246953 8.400867135560494
9 1 7 0.1400 -9.396475558611858 17.122058170082475 8.515850883396906
10 1 6 -0.4000 -9.695327093665387 14.845439746812673 8.98705393392254
11 1 7 0.1400 -9.225938352551097 15.736593094699648 8.028871842530211
12 1 8 0.0300 -9.616679661477173 17.893059229591525 7.793365922088224
13 1 8 0.0300 -9.624617128738791 17.28122250987641 9.553042831359276
14 1 8 0.0300 -9.781327840077495 15.636717586431088 7.064740938558526
15 1 8 0.0300 -8.130353347756 15.598687233888816 7.848504243382942
16 1 7 0.1400 -9.695291785494637 14.845502771685165 8.987035906303865
17 1 6 -0.4000 -12.004114823509768 15.104306224553515 9.297990809648395
18 1 7 0.1400 -10.89941331201254 14.358698584722179 9.693334733240102
19 1 8 0.0300 -8.750042562063136 14.810259001334412 9.506823153409453
20 1 8 0.0300 -9.81887039184623 15.503529009724904 8.147465302897892
21 1 8 0.0300 -10.715530896909783 14.443662767443364 10.791947196791511
22 1 8 0.0300 -11.015251693716424 13.281740107627202 9.412979765498326
23 1 7 0.1400 -12.004142896784927 15.1043195571769 9.297991210926098
24 1 6 -0.4000 -12.544319040040406 17.077096829281764 10.442847345522987
25 1 7 0.1400 -12.190716961535465 15.744062411599348 10.617712468835464
26 1 8 0.0300 -11.253580574568664 14.334162060439644 9.20617274497979
27 1 8 0.0300 -12.354499757089735 15.615828801494844 8.421203115994008
28 1 8 0.0300 -11.237450041684555 15.641455773524148 11.191066685128382
29 1 8 0.0300 -13.00335275476968 15.172816454806702 11.132647536977705
30 1 7 0.1400 -12.54438501826062 17.07711363597323 10.442836484855937
31 1 6 -0.4000 -10.562432390348427 17.18880683868797 11.689321305934508
32 1 7 0.1400 -11.569358153623654 16.329365874662177 11.264992734415905
33 1 8 0.0300 -13.582236206546872 16.784733563012065 10.49075103283499
34 1 8 0.0300 -12.28140626154035 18.057694822028303 10.09290547584317
35 1 8 0.0300 -12.11696550344389 15.877175673737115 12.127333277710843
36 1 8 0.0300 -11.161786607097728 15.518477665816016 10.610620709328698
37 1 7 0.1400 -10.562419072757693 17.188808147362554 11.689252150380462
38 1 6 -0.4000 -11.146417316703042 16.581151168624874 13.876495860454888
39 1 7 0.1400 -11.040894981976361 16.105642318905804 12.574440035725136
40 1 8 0.0300 -10.921585624563942 17.211938673251684 10.671715238600008
41 1 8 0.0300 -10.158538306275268 18.079180242042828 12.1333994902129
42 1 8 0.0300 -12.024680279365942 15.747763063253473 12.184478592741568
43 1 8 0.0300 -10.285564246748574 15.283341117321537 12.502654143703646
44 1 7 0.1400 -11.14638256107227 16.581235677784093 13.876503090350106
45 1 6 -0.4000 -9.012994448704267 15.679317390029555 14.236412195848725
46 1 7 0.1400 -10.15710131403834 15.56672888273345 13.454788047859246
47 1 8 0.0300 -12.193922911325778 16.328983054079075 13.813695221219772
48 1 8 0.0300 -10.826786895365498 17.378620909135805 14.52085113549622
49 1 8 0.0300 -10.628700144093656 14.55906475657698 13.555726407008631
50 1 8 0.0300 -9.934625025755865 15.77232032746907 12.37771170005303
51 1 7 0.1400 -9.012968909490821 15.67932173244094 14.236556352565117
52 1 6 -0.4000 -8.513740129923848 14.465256121344023 12.29461111193552
53 1 7 0.1400 -7.995179168634258 15.37590641065217 13.208068051265123
54 1 8 0.0300 -9.035179239747471 16.67436756209514 14.654057847314151
55 1 8 0.0300 -9.88165089351797 15.05178361936996 14.305378785462917
56 1 8 0.0300 -7.703432312532321 16.334895972444524 12.714911086062418
57 1 8 0.0300 -7.115391694132654 14.949061923658176 13.751791127502395
58 1 7 0.1400 -8.513751151394192 14.465275047894618 12.294623430924311
59 1 6 -0.4000 -6.983730740124101 15.334254076903083 10.74599533217355
60 1 7 0.1400 -8.263409768978525 15.495828894093759 11.264558888124022
61 1 8 0.0300 -9.136796679479882 14.72641169346209 13.13637097162413
62 1 8 0.0300 -7.840214185922051 13.632043610711623 12.366889109033194
63 1 8 0.0300 -8.393322824533469 16.499063605148702 11.738503729356498
64 1 8 0.0300 -9.042711134430117 15.348278602807179 10.47539775543531
65 1 7 0.1400 -6.983707181468842 15.334208847555505 10.745908850627533
66 1 6 -0.4000 -5.359861640756262 13.64601550895605 10.832308569471358
67 1 7 0.1400 -5.589160321621783 14.957247055011383 10.431450804693533
68 1 8 0.0300 -7.184926971685096 16.357331927358466 11.024560532122246
69 1 8 0.0300 -7.68113161310934 14.56165709846591 11.01031754399735
70 1 8 0.0300 -4.909691848811882 15.6736601447853 10.953998294648246
71 1 8 0.0300 -5.474682947723728 15.069002821349358 9.324083395223841
72 1 7 0.1400 -5.359913796406512 13.646061070824267 10.832364581342397
73 1 6 -0.4000 -5.717901099037733 11.464758654593698 11.61217280142058
74 1 7 0.1400 -5.282359753461499 12.203518439950987 10.518038113261715
75 1 8 0.0300 -5.599557428013078 14.33007121658605 10.032603335516269
76 1 8 0.0300 -5.5059167185473195 13.945760750182227 11.853154593499198
77 1 8 0.0300 -5.90945921864783 12.011101731022489 9.613768755775714
78 1 8 0.0300 -4.209269050894384 11.989167538197574 10.284827832653177
79 1 7 0.1400 -5.717918302538508 11.464749159902112 11.61213513967722
80 1 6 -0.4000 -4.951707434680867 9.479208326951749 10.62984979077721
81 1 7 0.1400 -4.550562661103886 10.5942225101838 11.356774299803584
82 1 8 0.0300 -5.749803549257569 12.015997196004243 12.539510971654314
83 1 8 0.0300 -6.624595583026294 11.287739581181183 11.064638182527398
84 1 8 0.0300 -4.108971526242579 10.30784041809928 12.342149135561632
85 1 8 0.0300 -3.8169750020132946 11.211981708606384 10.780510714979528
86 1 7 0.1400 -4.951662065885031 9.479231697573807 10.629787647668733
87 1 6 -0.4000 -3.4431268059194164 9.795107652608541 8.86375261107649
88 1 7 0.1400 -4.174765810407168 8.833060683126757 9.550602664307242
89 1 8 0.0300 -5.916619076779076 9.066146742003285 10.88105600343151
90 1 8 0.0300 -4.716950244631469 10.49136990574642 10.901146466432682
91 1 8 0.0300 -4.890806028395568 8.30084604110151 8.878282070366328
92 1 8 0.0300 -3.5020624620945 8.090211979099493 10.048099406099528
93 1 7 0.1400 -3.4431856530932294 9.79517655744726 8.86376730014468
94 1 6 -0.4000 -3.7113597465568353 8.807763455051372 6.7548732722684806
95 1 7 0.1400 -2.7652407080617625 9.179225920067791 7.7032758250281645
96 1 8 0.0300 -2.9336504697497263 10.587522196702182 9.39053032550695
97 1 8 0.0300 -4.50808614075498 9.69157803407668 8.955436800706217
98 1 8 0.0300 -2.0377663826808265 9.920828409463429 7.2924378355070525
99 1 8 0.0300 -2.213741621692054 8.288783462481417 8.096744994672893
100 1 7 0.1400 -3.7114012595344867 8.807745407905418 6.754854768092266
101 1 6 -0.4000 -5.907924931756144 9.575299464516338 6.471163866669591
102 1 7 0.1400 -5.124510398303551 8.658742650174473 7.163101923766286
103 1 8 0.0300 -2.945471913609977 8.628084582849535 7.493766958404411
104 1 8 0.0300 -3.4842126290902025 9.38816979640815 5.8804167454582545
105 1 8 0.0300 -5.184981414158162 8.81454067218254 8.267661217140745
106 1 8 0.0300 -5.415028012688986 7.607232180220096 6.91454157433758
107 1 7 0.1400 -5.907885881938336 9.575254973853584 6.471172961194623
108 1 6 -0.4000 -6.070260854686296 10.29383799444865 4.245951891112468
109 1 7 0.1400 -6.664616315316655 9.481207799721277 5.20457942724745
110 1 8 0.0300 -6.454557609688825 9.499025030566166 7.398672836032723
111 1 8 0.0300 -4.935836881964729 10.031487422870235 6.460141455650043
112 1 8 0.0300 -7.72007856427099 9.785921487313498 5.407384776353945
113 1 8 0.0300 -6.635238191395137 8.40522202459077 4.8992131921269735
114 1 7 0.1400 -6.070239298534908 10.293758712856715 4.24594706989829
115 1 6 -0.4000 -5.119438214780194 12.436007925394911 4.278834917355083
116 1 7 0.1400 -5.428180260265992 11.337556068262668 5.0729853230793225
117 1 8 0.0300 -5.8848051812099165 9.260075976862476 4.49500768388486
118 1 8 0.0300 -6.414752770733697 10.55258214104207 3.262346591809796
119 1 8 0.0300 -4.514709805747372 10.896494416110457 5.540978215891069
120 1 8 0.0300 -6.16660295291431 11.607113845007799 5.869180984947829
121 1 7 0.1400 -5.119462564332896 12.436068427150495 4.27889221852964
122 1 6 -0.4000 -7.077099995344098 13.43694316845695 3.4663397950401778
123 1 7 0.1400 -6.595398322753751 12.480198598999605 4.352452839429855
124 1 8 0.0300 -4.570303976925894 12.214655373307355 5.181287977310121
125 1 8 0.0300 -4.627450323017716 12.929423039715358 3.4617788967333385
126 1 8 0.0300 -6.883633037087079 12.711424134672928 5.406699727547514
127 1 8 0.0300 -6.95516558222789 11.45652955015667 4.0794579723508795
128 1 7 0.1400 -7.077055950018038 13.436942667788552 3.466275363584268
129 1 6 -0.4000 -8.587922310031843 13.14750232636244 5.234846292592707
130 1 7 0.1400 -8.058365133257977 12.53437447806197 4.105139942178703
131 1 8 0.0300 -6.987979911756871 13.414199591882484 2.390884638356444
132 1 8 0.0300 -6.730103061633362 14.293673061992076 4.012888320702379
133 1 8 0.0300 -8.85088330049783 12.296263181281976 3.3546741102179585
134 1 8 0.0300 -7.50096043846716 11.601972109244329 4.373063119317988
135 1 7 0.1400 -8.587953822780987 13.147613827528666 5.23485220354429
136 1 5 0.1450 -8.094313369808996 12.016227204773378 6.023174734644341
137 1 3 -0.6830 -7.99468612572465 12.424965931494762 7.360818209384281
138 1 8 0.0300 -8.365889211697112 13.207158638303543 4.184349598114893
139 1 8 0.0300 -9.136665855224509 13.93869413851445 5.7150948995036694
140 1 8 0.0300 -7.10310692899443 11.692802579358947 5.622341473345762
141 1 8 0.0300 -8.83303171931693 11.177491411039547 5.951310498685459
142 1 4 0.4180 -8.771372209404964 12.122744806924977 7.89860917182332
143 2 1 -0.1800 12.323090356228471 -9.483765634715072 16.794056931303103
144 2 6 -0.4000 13.49575305955655 -8.720139390228427 14.951142624300603
145 2 7 0.1400 12.189211953214686 -8.77452313174037 15.463359127449555
146 2 2 0.0600 11.365255518229624 -9.631172559090505 17.30754852983408
147 2 2 0.0600 12.862886225966566 -10.44013209950429 16.58430325662667
148 2 2 0.0600 13.005922879849857 -8.842902522862211 17.40745828160413
149 2 8 0.0300 11.754875377971164 -7.767283459405359 15.55160867067891
150 2 8 0.0300 11.580463123607299 -9.358431687533617 14.733610087763253
151 2 7 0.1400 13.495819578357276 -8.720248694704647 14.95110172477946
152 2 6 -0.4000 12.793537201343804 -7.314137721883399 13.212140139508529
153 2 7 0.1400 12.894428133273527 -8.644521461226311 13.602643821880822
154 2 8 0.0300 13.170971101184815 -9.510389264048593 15.610698834806147
155 2 8 0.0300 13.965494367434083 -7.8443661392162705 15.357776461512405
156 2 8 0.0300 11.894325768308699 -9.14087103619913 13.640238489269445
157 2 8 0.0300 13.573641714149536 -9.216817981939682 12.922200875019763
158 2 7 0.1400 12.793436547333467 -7.3141080727513685 13.212150136919677
159 2 6 -0.4000 11.762380005635293 -5.276991649373077 13.74263584400691
160 2 7 0.1400 12.526853375362625 -5.925717582228316 12.779657063857087
161 2 8 0.0300 12.858391886349418 -8.080514488009678 12.45497181539678
162 2 8 0.0300 12.591967426561265 -7.585969948875781 14.231292086642773
163 2 8 0.0300 12.003330719901813 -5.9638092376950995 11.793526213004595
164 2 8 0.0300 13.525678966455281 -5.4366214676549935 12.657225739075857
165 2 7 0.1400 11.762490170828006 -5.277012475939619 13.742629317191067
166 2 6 -0.4000 13.394871026068145 -3.759028444596701 13.017789180310267
167 2 7 0.1400 12.227045312077905 -4.4107658452899035 12.638296805840296
168 2 8 0.0300 10.699395389532386 -5.407455009622826 13.875787987161607
169 2 8 0.0300 12.43159170079813 -5.479095343525888 14.557868335651147
170 2 8 0.0300 11.410292575424029 -3.687749623575691 12.397167151283856
171 2 8 0.0300 12.404406493232075 -5.0844236018624525 11.762748270104419
172 2 7 0.1400 13.394877474258545 -3.7589998110533953 13.017758709908524
173 2 6 -0.4000 14.478442696926594 -3.3959960989829634 15.064329185911593
174 2 7 0.1400 14.427840384664313 -2.98400974532087 13.737566339586024
175 2 8 0.0300 12.84527847733896 -3.267288028965832 12.229674027947722
176 2 8 0.0300 12.98994402429204 -4.637984991282058 13.483121959463762
177 2 8 0.0300 14.171606070661365 -1.9000977255154732 13.651196728907122
178 2 8 0.0300 15.395349286105969 -3.1853264802547767 13.21291874560821
179 2 7 0.1400 14.478450666065147 -3.396021938776175 15.064353853818023
180 2 6 -0.4000 13.050848596988693 -1.709259444165128 15.846095895122023
181 2 7 0.1400 14.381815241759377 -2.1048334277138285 15.777963567646138
182 2 8 0.0300 15.246254063118053 -4.090756034448575 15.368885428181452
183 2 8 0.0300 13.624767337531495 -3.7496403819533866 14.517245298567213
184 2 8 0.0300 14.826239367666785 -2.2359293885083837 16.79446838582202
185 2 8 0.0300 14.99286072437953 -1.374043336756765 15.191085163606195
186 2 7 0.1400 13.050898957342135 -1.7092101392976549 15.846039739502519
187 2 6 -0.4000 14.004211385061282 0.2253287534766263 16.764239438642026
188 2 7 0.1400 13.645466015461711 -0.3845559310356863 15.5676043934473
189 2 8 0.0300 12.26574984722249 -2.062723713478878 15.195281698639441
190 2 8 0.0300 13.159360511841799 -2.128488322009102 16.82868458719557
191 2 8 0.0300 12.894888641906313 0.22128681336018863 15.004071630096707
192 2 8 0.0300 14.54053468048616 -0.5703178114284814 14.922467502017055
193 2 7 0.1400 14.004111592122964 0.22528372335625207 16.764249898412867
194 2 6 -0.4000 16.144898613566383 -0.08792652516501293 17.666062666697204
195 2 7 0.1400 15.3616901968074 -0.31561656292319057 16.540303002015808
196 2 8 0.0300 13.169043189842794 -0.2913203378128908 16.316256586524403
197 2 8 0.0300 13.840533982778876 0.8834113587979963 17.59687189018893
198 2 8 0.0300 15.268240881799393 -1.4059727042364398 16.31586657309881
199 2 8 0.0300 15.770433021366957 0.2192439633177386 15.64659694248597
200 2 7 0.1400 16.144975547451367 -0.08792479754186577 17.666074671783317
201 2 6 -0.4000 16.905829483388956 2.0605246354906575 17.11871526346872
202 2 7 0.1400 17.14096470873717 0.7056013595193882 16.915030845724676
203 2 8 0.0300 16.45350491711792 -1.037684691212446 18.075565541557
204 2 8 0.0300 15.281031323618475 0.4100904561547605 18.064484241436546
205 2 8 0.0300 18.1587210784654 0.40591769039379955 17.264806016851836
206 2 8 0.0300 17.016363886323244 0.42949798307899933 15.837952129672782
207 2 7 0.1400 16.90579165848595 2.0604545130891196 17.11871611109485
208 2 6 -0.4000 16.69568163574497 3.1847238163843876 19.16473867011314
209 2 7 0.1400 17.61061634315366 2.581882744627003 18.309127705140515
210 2 8 0.0300 17.2770910772781 1.15587495132325 16.661781150690118
211 2 8 0.0300 15.894905909628452 2.374221295540541 16.937582433975155
212 2 8 0.0300 18.137094909632268 1.7288162039253128 18.80215792345769
213 2 8 0.0300 18.361523039768134 3.3207175138785985 17.932140547899742
214 2 7 0.1400 16.6956439818897 3.184714166137949 19.164758911160078
215 2 6 -0.4000 17.0397955700597 5.323985333453296 18.27065905261334
216 2 7 0.1400 17.498532750365012 4.012053655732918 18.239219071708025
217 2 8 0.0300 17.1858884470167 2.371244665282485 19.67744276656251
218 2 8 0.0300 15.778579329044947 3.5857601261789935 19.55373649462408
219 2 8 0.0300 18.569146341343853 3.9413449883684994 18.550294341009423
220 2 8 0.0300 17.371038080810937 3.561786953868833 17.222920883956153
221 2 7 0.1400 17.03980112725732 5.3240015209433835 18.270756945121224
222 2 6 -0.4000 14.890914657944654 5.552870648147124 17.36287927460722
223 2 7 0.1400 16.181850053627837 6.0671920820122756 17.323480456868655
224 2 8 0.0300 18.077907211049208 5.179561728000434 18.01309455941297
225 2 8 0.0300 16.574910225069377 4.6816174273541975 18.99488961622955
226 2 8 0.0300 16.631140696541305 5.977690261882585 16.304604437726052
227 2 8 0.0300 16.202846632047866 7.1365923899113675 17.651808227792742
228 2 7 0.1400 14.890869577218384 5.5529200049895815 17.362798211165433
229 2 6 -0.4000 13.494576118262044 7.034655650243205 18.52433170360574
230 2 7 0.1400 14.493433986859388 6.963192072221152 17.560086446755875
231 2 8 0.0300 15.191653525824604 5.24140257833918 16.374161316671827
232 2 8 0.0300 14.569673735284328 4.820104388434899 18.079012915885922
233 2 8 0.0300 14.148489845503446 7.367333624742894 16.57740432884107
234 2 8 0.0300 15.414382613445444 7.507006490142848 17.88868423440781
235 2 7 0.1400 13.494590217873355 7.034634419772697 18.524401425375803
236 2 6 -0.4000 13.626961142806106 8.723254607425744 16.904100280500867
237 2 7 0.1400 13.116362968634405 7.455525986930603 17.15855390949839
238 2 8 0.0300 12.803142313385608 6.417670780091959 19.07773013662383
239 2 8 0.0300 14.248932798596531 7.592243128620885 19.047076083958515
240 2 8 0.0300 12.00175996526221 7.436973202876172 17.085773836143705
241 2 8 0.0300 13.551992124751035 6.695361070491913 16.46268500075417
242 2 7 0.1400 13.62696569754307 8.723232198796406 16.904080207708642
243 2 6 -0.4000 15.723364685815316 9.632423285994577 16.381759569660982
244 2 7 0.1400 14.422949002260006 9.480138896980238 15.9145106907689
245 2 8 0.0300 12.580088726324552 8.964301230118117 17.00824992149318
246 2 8 0.0300 14.138993959914837 8.212693857166492 17.69801135098136
247 2 8 0.0300 13.925076088201097 10.466558778349093 15.749952557919917
248 2 8 0.0300 14.398954565861791 8.883573029408153 14.968259966769232
249 2 7 0.1400 15.72338642575204 9.632367961615204 16.381760825333718
250 2 6 -0.4000 16.55841508136797 9.315465220164855 18.54893312968829
251 2 7 0.1400 16.746284620199017 10.031028949366691 17.371959644077773
252 2 8 0.0300 15.359576915698858 10.3810979168626 15.694765123374749
253 2 8 0.0300 15.14101051994409 8.749335172920674 16.566802438017813
254 2 8 0.0300 16.656968435567784 11.131947417244987 17.53923829258804
255 2 8 0.0300 17.73878921116715 9.799472695167783 16.910252661188675
256 2 7 0.1400 16.558361810953528 9.315527610584697 18.54894763490187
257 2 6 -0.4000 15.422084912538772 11.126202477049754 19.51054387973683
258 2 7 0.1400 16.685113097903912 10.589759929252867 19.28787328022619
259 2 8 0.0300 17.27270996778155 8.533180353293403 18.75523985444783
260 2 8 0.0300 15.615741512134349 9.072103732321361 18.095780129728254
261 2 8 0.0300 17.220999259359324 10.383490432918215 20.246132074520524
262 2 8 0.0300 17.305682434591173 11.265132427988778 18.647074804639093
263 2 7 0.1400 15.422107075489567 11.126207550975698 19.510541535331033
264 2 6 -0.4000 16.287843058199734 13.205777628034246 20.15878956104616
265 2 7 0.1400 15.913769689745472 12.444731718891767 19.057212855051166
266 2 8 0.0300 14.632031263809377 10.654959975595451 18.946074588117884
267 2 8 0.0300 15.604682658557087 10.827317243291413 20.525667015476195
268 2 8 0.0300 15.098791166772697 12.936888969741428 18.47277102943529
269 2 8 0.0300 16.787484454295978 12.242175460456952 18.388295466747245
270 2 7 0.1400 16.287849193048608 13.205664531302535 20.15886785391131
271 2 6 -0.4000 14.250860649710754 14.341872848907194 20.391342225222047
272 2 7 0.1400 15.592653985589122 14.366783253152684 20.75405852696864
273 2 8 0.0300 17.09709260665439 12.756334314760657 20.713975459730296
274 2 8 0.0300 15.791409369295579 12.644238590607323 19.389779162987722
275 2 8 0.0300 15.721765832130322 14.317798309108678 21.862621383255885
276 2 8 0.0300 16.104020415749183 15.278522276142661 20.3551934770299
277 2 7 0.1400 14.25085554093161 14.341879173000482 20.39129978268895
278 2 5 0.1450 14.477043149132832 15.386670039385885 21.39250915710264
279 2 3 -0.6830 13.289460005430199 16.117905309528968 21.53819462821127
280 2 8 0.0300 15.080578436814495 13.941834084405611 19.836378307938837
281 2 8 0.0300 13.250643684877742 14.005000660831316 20.18245747124808
282 2 8 0.0300 15.31851035024047 16.040884843925895 21.058298237202113
283 2 8 0.0300 14.729306587876497 14.900771508390047 22.369552029779836
284 2 4 0.4180 12.774211877590211 15.831223896023978 22.33577292148922
285 3 1 -0.1800 -5.536550591885312 -18.940767890787487 -13.36769311789689
286 3 6 -0.4000 -6.609459255166687 -18.186631729225677 -15.274192960561605
287 3 7 0.1400 -5.500456266441227 -18.95339268476478 -14.881047938898153
288 3 2 0.0600 -4.7006459990268095 -19.4813493800359 -12.907383260170565
289 3 2 0.0600 -5.5856968222338 -17.865235931044154 -13.066315196321339
290 3 2 0.0600 -6.51328231256068 -19.410653797776348 -13.087640658097314
291 3 8 0.0300 -5.547433699996307 -19.967137681060578 -15.306585485093331
292 3 8 0.0300 -4.595162192881428 -18.442660036200838 -15.2855881743116
293 3 7 0.1400 -6.609487949715614 -18.186598670477363 -15.274270909472628
294 3 6 -0.4000 -8.594632908131961 -19.432761199473877 -15.299058918653904
295 3 7 0.1400 -8.02233760235731 -18.25056226350047 -14.84356275097338
296 3 8 0.0300 -5.898870248043287 -17.70267246698265 -14.621771935035785
297 3 8 0.0300 -6.2647662664896675 -18.877009287284906 -16.021030001357886
298 3 8 0.0300 -8.048866390119123 -18.181569073396894 -13.728880211799458
299 3 8 0.0300 -8.528041300483624 -17.357123435192165 -15.288408600422882
300 3 7 0.1400 -8.59465408932591 -19.432674823886604 -15.299012963082534
301 3 6 -0.4000 -9.460837938089412 -20.789779729591817 -13.595390993556405
302 3 7 0.1400 -8.952367080896327 -20.807366131307635 -14.889122459456503
303 3 8 0.0300 -8.716204264605837 -19.16204398692708 -16.33675161273186
304 3 8 0.0300 -8.546397230143162 -18.665513121787 -14.549157511429712
305 3 8 0.0300 -9.697561529942105 -21.20479053760762 -15.620368023127465
306 3 8 0.0300 -8.010454323724025 -21.408469590051695 -14.94684584953367
307 3 7 0.1400 -9.460829492778908 -20.789812672157517 -13.595338441408952
308 3 6 -0.4000 -7.44644804725024 -21.915677941263787 -13.184204901388064
309 3 7 0.1400 -8.41950892170985 -21.68135627934617 -14.149004825388925
310 3 8 0.0300 -10.479195874835895 -20.929135785001083 -13.92463463349708
311 3 8 0.0300 -9.263107368500975 -20.272821476650105 -12.67513462412778
312 3 8 0.0300 -8.912273418915705 -22.628707467686073 -14.477166182413841
313 3 8 0.0300 -7.991399391449572 -21.15223183988131 -15.03704004859875
314 3 7 0.1400 -7.446372972516748 -21.91566072311922 -13.184248736685495
315 3 6 -0.4000 -7.88546840504166 -23.36436049549498 -14.973885619031796
316 3 7 0.1400 -8.487060167694617 -22.600505386768216 -13.980303350681494
317 3 8 0.0300 -7.630183102404543 -21.75810251319874 -12.132437799949578
318 3 8 0.0300 -6.44087606518884 -21.89007448187051 -13.560374132813934
319 3 8 0.0300 -9.096036433275643 -23.23023510160681 -13.287072224571094
320 3 8 0.0300 -9.128291979875517 -21.79564912334189 -14.419490279301424
321 3 7 0.1400 -7.8854940132215345 -23.3643329690653 -14.973858187754827
322 3 6 -0.4000 -9.539506204620428 -24.596581655663943 -13.860241177701669
323 3 7 0.1400 -8.641494064045633 -24.633739848019115 -14.92080068292576
324 3 8 0.0300 -6.859366494442891 -23.395463459692586 -15.307040131681097
325 3 8 0.0300 -8.233449498970431 -22.530584246709285 -14.393393677291899
326 3 8 0.0300 -7.908663957102456 -25.469906032858347 -14.812324207646295
327 3 8 0.0300 -9.174108825575878 -24.72438431700214 -15.90057723706597
328 3 7 0.1400 -9.539549379225777 -24.596568109188972 -13.860281428470241
329 3 6 -0.4000 -9.302199534946345 -26.660584851485865 -12.77499992630657
330 3 7 0.1400 -8.737357727253773 -25.832416279027132 -13.738163229113653
331 3 8 0.0300 -9.025966409884473 -23.67610281648028 -14.092430472235833
332 3 8 0.0300 -10.513484927691424 -24.565546357745916 -13.409020751729708
333 3 8 0.0300 -7.691810741552413 -25.542682517129002 -13.471954949927682
334 3 8 0.0300 -8.748881974061236 -26.316425019598515 -14.746855318299456
335 3 7 0.1400 -9.302228417207768 -26.660556623432047 -12.775026128155138
336 3 6 -0.4000 -9.636351983780532 -25.872821032942948 -10.592786434231146
337 3 7 0.1400 -8.820323108023723 -25.75322629806735 -11.71188740077577
338 3 8 0.0300 -8.572677304449913 -27.11001150471775 -13.431274925153831
339 3 8 0.0300 -10.275236452564425 -27.103700551762408 -12.674887115201567
340 3 8 0.0300 -7.760685364874649 -26.021138186317643 -11.480863433560032
341 3 8 0.0300 -8.863329327504303 -24.719111937324428 -12.136875581777602
342 3 7 0.1400 -9.636344989634882 -25.87279411140306 -10.59283619897709
343 3 6 -0.4000 -8.854134004337865 -23.750837281766927 -11.209100093458364
344 3 7 0.1400 -9.494884248021306 -24.888339349045598 -11.686720415635255
345 3 8 0.0300 -9.580791621998653 -26.921829409238228 -10.840537162318286
346 3 8 0.0300 -9.460925264775776 -25.55249222773229 -9.582992833178556
347 3 8 0.0300 -8.91947888852206 -25.369588159263238 -12.514542410344049
348 3 8 0.0300 -10.531803377067789 -24.65378883858871 -12.035492229091986
349 3 7 0.1400 -8.854172317913543 -23.750758237534665 -11.209125040462753
350 3 6 -0.4000 -7.850445076993556 -22.981885761500475 -9.23537157525181
351 3 7 0.1400 -7.639060184677542 -23.173453450135604 -10.595963816877324
352 3 8 0.0300 -8.732571800312172 -24.439635064389638 -12.031061188555356
353 3 8 0.0300 -9.769146035451714 -23.74620868970116 -10.647029498914083
354 3 8 0.0300 -6.788353139405865 -23.87174877804528 -10.787437465572514
355 3 8 0.0300 -7.453703186674328 -22.201701733290164 -11.11864764492175
356 3 7 0.1400 -7.850482941469924 -22.981890685283684 -9.235314746454941
357 3 6 -0.4000 -9.457719993624636 -23.17072697216896 -7.539594865420218
358 3 7 0.1400 -8.121229309652666 -22.877720066389955 -7.785628612743525
359 3 8 0.0300 -6.877509870642273 -23.328288513769866 -9.548761628500795
360 3 8 0.0300 -8.680987468816838 -23.03665835370404 -9.913851210141363
361 3 8 0.0300 -7.438811882301912 -23.58415527798673 -7.253428700432183
362 3 8 0.0300 -7.876084680471049 -21.82566682870049 -7.494175193050904
363 3 7 0.1400 -9.457686245975061 -23.17074606749223 -7.5395908684924695
364 3 6 -0.4000 -11.540775853712425 -22.115375187534006 -7.336450542922215
365 3 7 0.1400 -10.803511578681704 -23.221549147762346 -6.929739885972867
366 3 8 0.0300 -8.626190388000808 -23.561916590057294 -6.973448430189318
367 3 8 0.0300 -9.279433184894406 -22.480060068995932 -8.342291122445678
368 3 8 0.0300 -10.680739139636911 -23.25061984523821 -5.819756632604033
369 3 8 0.0300 -11.273170985623914 -24.174070456019553 -7.28184810624992
370 3 7 0.1400 -11.540796384452014 -22.115430929128326 -7.336498306687778
371 3 6 -0.4000 -12.937992242395696 -22.71361751425962 -9.120973732103879
372 3 7 0.1400 -12.722215572571564 -21.747051043455276 -8.14538022747378
373 3 8 0.0300 -10.918105661372248 -21.321869165862292 -6.952528267137165
374 3 8 0.0300 -11.146196193197326 -23.11057766665213 -7.420894158822197
375 3 8 0.0300 -12.535470125641655 -20.741393797682264 -8.594557967433357
376 3 8 0.0300 -13.584497572678828 -21.688012244281996 -7.434858466735101
377 3 7 0.1400 -12.938056515689958 -22.71347485611969 -9.120993938439995
378 3 6 -0.4000 -11.889570584851903 -24.123732225522318 -10.672182967823659
379 3 7 0.1400 -12.514589501699803 -22.89057354786946 -10.526361058249895
380 3 8 0.0300 -12.918497280027996 -21.71812825882724 -8.704077175094287
381 3 8 0.0300 -12.93351640594099 -23.566100008299898 -8.468185591929977
382 3 8 0.0300 -11.831563019492823 -22.04741474746138 -10.791952966820856
383 3 8 0.0300 -13.444655899743243 -22.83124810264995 -11.145484621668384
384 3 7 0.1400 -11.88960662914958 -24.123731080812576 -10.672231060506208
385 3 6 -0.4000 -13.801906728416892 -25.132889508480325 -11.577241335701677
386 3 7 0.1400 -13.314672308522823 -24.45773890020293 -10.463972600753484
387 3 8 0.0300 -11.235608891045533 -24.121531705551554 -9.813628054860843
388 3 8 0.0300 -11.475560089935641 -24.216452324601583 -11.658698107251906
389 3 8 0.0300 -13.394220772250192 -25.077235933467428 -9.537756390738188
390 3 8 0.0300 -13.847428635669052 -23.485397315276447 -10.313707707620335
391 3 7 0.1400 -13.801802858578037 -25.132881786367737 -11.577228230424147
392 3 6 -0.4000 -12.975084155262797 -27.305136700996183 -11.273615365971203
393 3 7 0.1400 -13.741288701024892 -26.50814530178454 -12.116425133140622
394 3 8 0.0300 -14.706044807858454 -24.564080419547818 -11.731268816846502
395 3 8 0.0300 -13.12275597246897 -24.854445566721278 -10.793316501940277
396 3 8 0.0300 -14.786688733161082 -26.89091557530277 -12.209197383951055
397 3 8 0.0300 -13.277875260953934 -26.428358800076808 -13.131678351656497
398 3 7 0.1400 -12.975148930079687 -27.30519179439792 -11.273612272443042
399 3 6 -0.4000 -11.462831484394169 -27.303605670748624 -13.06448620091679
400 3 7 0.1400 -12.588701761473363 -26.669790045895315 -12.551371327928852
401 3 8 0.0300 -13.408058079998549 -26.683103903662694 -10.505163624765705
402 3 8 0.0300 -12.535402830325777 -28.2492222439542 -11.011736580440537
403 3 8 0.0300 -12.399917082916943 -25.58602542147621 -12.356960464034717
404 3 8 0.0300 -13.465653313913966 -26.78231178780484 -13.237047514090847
405 3 7 0.1400 -11.46279381996472 -27.303539172317766 -13.064510475607264
406 3 6 -0.4000 -11.972580883942413 -26.0926819347054 -15.005715745413308
407 3 7 0.1400 -12.368632345659845 -27.173045423611775 -14.22561897480755
408 3 8 0.0300 -11.24988952188178 -28.2941435255511 -12.692634454313907
409 3 8 0.0300 -10.79876398906665 -26.492012124086994 -12.832913339037459
410 3 8 0.0300 -12.336981548096063 -28.13073494835959 -14.799909842923942
411 3 8 0.0300 -13.395134804414976 -27.017733700189165 -13.808452376507574
412 3 7 0.1400 -11.972611763728448 -26.092613717451954 -15.00564964824923
413 3 6 -0.4000 -13.482074025757218 -24.30099317358391 -15.08282157514608
414 3 7 0.1400 -13.17857628939895 -25.532499548259928 -15.651921015628794
415 3 8 0.0300 -11.300247552690935 -26.685048591180283 -15.607201215537025
416 3 8 0.0300 -11.622376747773359 -25.649604550134278 -14.092289198442344
417 3 8 0.0300 -12.975668509538506 -25.442723799173855 -16.74679532245499
418 3 8 0.0300 -14.000240537600108 -26.27232791848205 -15.480518431510275
419 3 7 0.1400 -13.482164130111057 -24.30098245715219 -15.08278802727552
420 3 5 0.1450 -13.381234028826425 -23.592479717546688 -13.80489680239518
421 3 3 -0.6830 -14.166588490440741 -24.273285270144356 -12.863618326504719
422 3 8 0.0300 -13.31461394886169 -23.772311401931066 -16.004117421213802
423 3 8 0.0300 -13.764237854803337 -25.33907051802861 -15.101052520262042
424 3 8 0.0300 -13.72950382090098 -22.539651260008245 -13.939140576647736
425 3 8 0.0300 -12.313069692061566 -23.606707212361144 -13.468490012845693
426 3 4 0.4180 -13.61946812107688 -24.861217376473792 -12.281558931104058
427 4 1 -0.1800 18.992471194657334 8.40704411784426 -13.737163189574064
428 4 6 -0.4000 19.666229752496655 8.228125201740008 -15.943661190297915
429 4 7 0.1400 18.5455469849064 8.006149632682806 -15.12685645159473
430 4 2 0.0600 18.2216491715134 8.257436049290483 -12.97146035265892
431 4 2 0.0600 19.931782878256186 7.835321989944053 -13.535073186051003
432 4 2 0.0600 19.270104729111292 9.488928859225078 -13.812476049790359
433 4 8 0.0300 17.67498587454207 8.577307940418445 -15.483043959272615
434 4 8 0.0300 18.30623819712323 6.918926409363328 -15.195667546372773
435 4 7 0.1400 19.666266099070487 8.228192452020279 -15.943670106750831
436 4 6 -0.4000 21.83047039896719 7.707077251403079 -15.209507525305602
437 4 7 0.1400 20.48709962776272 7.3899495699959115 -15.044044524127626
438 4 8 0.0300 18.766190597956573 7.800874921835774 -16.35861687525439
439 4 8 0.0300 20.12129217579319 9.078054017676122 -16.41678276640321
440 4 8 0.0300 20.282903621399306 6.318535337769478 -15.285615494999284
441 4 8 0.0300 20.142470680993867 7.61374743973951 -14.003370510544498
442 4 7 0.1400 21.830472034848807 7.707062222418228 -15.209492461228702
443 4 6 -0.4000 21.329885827251967 5.429988169385215 -14.967246293523988
444 4 7 0.1400 22.369582774207565 6.331114138749901 -15.166231835279586
445 4 8 0.0300 22.440259214033055 8.506258405848078 -14.816603091948137
446 4 8 0.0300 20.770113385205416 7.844083556488917 -15.309560878503751
447 4 8 0.0300 23.123869553208483 6.279550769774622 -14.343812432538904
448 4 8 0.0300 22.873068611193627 6.158955722198818 -16.15046782911697
449 4 7 0.1400 21.329941314735656 5.430041715673234 -14.967257499983218
450 4 6 -0.4000 22.792012293296217 4.013598650448142 -13.805201779879097
451 4 7 0.1400 22.425979084038534 5.343432559534984 -13.97885218720177
452 4 8 0.0300 21.291746735996576 6.29486512197914 -15.61188037427515
453 4 8 0.0300 20.81582438621434 4.530489757614318 -15.24946143078536
454 4 8 0.0300 23.278914537216792 5.961280657030386 -14.35133821530606
455 4 8 0.0300 22.029268653093514 5.782488351373791 -13.029269202080293
456 4 7 0.1400 22.792010074399784 4.013566451322898 -13.805227480120818
457 4 6 -0.4000 24.533029227483354 4.67315102044104 -12.38110090401271
458 4 7 0.1400 24.068042303271834 3.625295526109552 -13.16747169652196
459 4 8 0.0300 22.577730077938394 3.631082090011499 -14.791486470685019
460 4 8 0.0300 22.280976196832757 4.888256024657711 -13.448981039748183
461 4 8 0.0300 24.79351521021219 3.361469808310628 -13.974977765801565
462 4 8 0.0300 23.84799532981781 2.7197884512546064 -12.54820336464848
463 4 7 0.1400 24.533088791300944 4.67305115251952 -12.381089478553358
464 4 6 -0.4000 24.507895702859297 3.1726486493908053 -10.580396934863609
465 4 7 0.1400 24.299793035285898 3.2779784391397397 -11.950868355631032
466 4 8 0.0300 23.936646551983692 5.063256957063746 -13.191591227631186
467 4 8 0.0300 25.020474555705096 5.348554794402771 -11.703373500832127
468 4 8 0.0300 23.255765576727953 2.9977839796426027 -12.232788079389675
469 4 8 0.0300 25.026330605414632 2.6466981114693877 -12.521381551874422
470 4 7 0.1400 24.507961845594668 3.172685232332505 -10.580410550265588
471 4 6 -0.4000 26.72755589898632 2.5039421960652066 -10.233249219480589
472 4 7 0.1400 25.68413067792386 3.2428013980305495 -9.687406854212103
473 4 8 0.0300 23.863448025714188 4.036126288931741 -10.643564946485215
474 4 8 0.0300 24.497642437726928 2.440001861505543 -11.365405829190816
475 4 8 0.0300 25.960887679267106 4.3177788154134396 -9.561668577127088
476 4 8 0.0300 25.358603046170813 2.8201192608609778 -8.703929059911177
477 4 7 0.1400 26.727516267744043 2.503911363201148 -10.233304113310384
478 4 6 -0.4000 26.976853404076216 1.6907787847747946 -8.049046252537673
479 4 7 0.1400 27.238508118889577 2.779045628840017 -8.873549185415573
480 4 8 0.0300 27.270088992864835 2.909271598421381 -11.07367005601463
481 4 8 0.0300 26.06235911738243 1.6732985579769992 -10.377516918291382
482 4 8 0.0300 28.33372599812206 2.985694550034541 -8.949542740264894
483 4 8 0.0300 26.70604640590733 3.6960197506278663 -8.516477786141682
484 4 7 0.1400 26.976812398883983 1.6908012232668976 -8.048989264249542
485 4 6 -0.4000 28.04813715939878 -0.34203791015074425 -7.586210358989464
486 4 7 0.1400 28.270822391917523 0.9845719384397548 -7.937081555927555
487 4 8 0.0300 26.88484888718147 2.4728522605182914 -8.787132805608106
488 4 8 0.0300 26.094882275407084 1.2193936402237562 -7.657679734652512
489 4 8 0.0300 28.79847934633937 1.0693034042133756 -8.91809109571711
490 4 8 0.0300 28.85501114286198 1.520596862525121 -7.147614783967372
491 4 7 0.1400 28.048160806750538 -0.34199810655788687 -7.58622391261222
492 4 6 -0.4000 27.875238702463008 -1.3704290893037494 -5.486994611278717
493 4 7 0.1400 27.182119330972338 -0.6041388141197809 -6.4170364119645
494 4 8 0.0300 27.93930292572837 0.6007589631164119 -8.100301795153856
495 4 8 0.0300 28.953226028868844 -0.9092366373854278 -7.696887334105316
496 4 8 0.0300 26.868247926402994 0.3793262633401069 -5.990114659402647
497 4 8 0.0300 26.285640800873537 -1.1496914677752028 -6.805051292041831
498 4 7 0.1400 27.875266232092237 -1.3704792926622478 -5.4870205368791565
499 4 6 -0.4000 28.366086612088388 -3.469952550986461 -6.406609245031853
500 4 7 0.1400 28.78623019912939 -2.1457569119015054 -6.355832521065982
501 4 8 0.0300 27.687417024505265 -0.3376626155242435 -5.737857907768258
502 4 8 0.0300 27.186825588105748 -1.9005115082270847 -4.8559386640838
503 4 8 0.0300 28.786118046956425 -1.6733457228505983 -7.368160855096694
504 4 8 0.0300 29.804615988277057 -2.0602784992152694 -5.900375799272659
505 4 7 0.1400 28.36609738435388 -3.4699237419929974 -6.4066421299550225
506 4 6 -0.4000 30.30889958357386 -4.7551984379506065 -6.1460187030781075
507 4 7 0.1400 29.19488682974523 -4.26410229919087 -5.474905324577558
508 4 8 0.0300 27.295051412095283 -3.4826332104435114 -6.273916869660125
509 4 8 0.0300 28.783542094872697 -3.182247172316762 -7.353284145143009
510 4 8 0.0300 28.56281477809542 -5.088999905493249 -5.065015265366792
511 4 8 0.0300 29.491934067082802 -3.570899958024733 -4.648412461334384
512 4 7 0.1400 30.308934645127124 -4.755267676543327 -6.14596371750937
513 4 6 -0.4000 32.38715176722614 -3.912362695960566 -6.827770718883827
514 4 7 0.1400 31.76508608245264 -4.998885970236402 -6.223540251028899
515 4 8 0.0300 29.644764112151417 -5.600959950221662 -6.238694949397748
516 4 8 0.0300 29.939985332329005 -3.76374508407772 -6.3301059267284385
517 4 8 0.0300 31.92906133588006 -5.9416929375728404 -6.799915249276812
518 4 8 0.0300 32.11827998819312 -5.134815176862122 -5.170623200291336
519 4 7 0.1400 32.387106654095 -3.9123438392816543 -6.8278500352251985
520 4 6 -0.4000 32.64833557959724 -1.8078255783853474 -7.826398150257683
521 4 7 0.1400 33.18355897313288 -2.6676479613594015 -6.874119625481969
522 4 8 0.0300 32.277258633576515 -4.412435376527167 -5.877713799328688
523 4 8 0.0300 31.68731528517753 -4.10817125396839 -7.618478053730566
524 4 8 0.0300 33.17443504978367 -2.2116151724328357 -5.854349136868684
525 4 8 0.0300 34.22673727472893 -2.9709273915575927 -7.141809031880212
526 4 7 0.1400 32.64829126686638 -1.8078440169336758 -7.826347426883138
527 4 6 -0.4000 30.870930237079712 -0.35959468365099956 -8.314094941937764
528 4 7 0.1400 32.01839654233528 -0.9390969954268136 -8.843331324804264
529 4 8 0.0300 33.15540852834038 -2.6998544489555187 -8.161110734728117
530 4 8 0.0300 32.32245627531937 -1.7297879366759168 -6.806108334014044
531 4 8 0.0300 31.789243798009565 -1.5644599367851089 -9.740209918229091
532 4 8 0.0300 32.77916925264672 -0.16309314938358643 -9.109601702750282
533 4 7 0.1400 30.870914997160085 -0.359584585345772 -8.314122417711143
534 4 6 -0.4000 31.20837651369949 0.7553517357447534 -10.348175692521824
535 4 7 0.1400 31.69306872550401 0.6229541917014704 -9.051974569953513
536 4 8 0.0300 30.71827360068045 -0.20521014578682806 -7.2568683628635835
537 4 8 0.0300 30.195204588203435 -0.9862387993348205 -8.865365503216443
538 4 8 0.0300 31.657655706962885 1.591752305162645 -8.49685554355298
539 4 8 0.0300 32.73866873979381 0.22475244592505386 -9.048371824087006
540 4 7 0.1400 31.208487864502178 0.7553539976709687 -10.348114282835624
541 4 6 -0.4000 31.37037143531303 3.0937264572767313 -10.360112185103148
542 4 7 0.1400 31.97576000183082 1.9287796877364636 -10.817273762302309
543 4 8 0.0300 31.16258057295203 -0.1128335949003052 -10.987692131645154
544 4 8 0.0300 30.46927140670522 0.8936620905095007 -9.581577330055469
545 4 8 0.0300 32.01501965475219 1.8942736197631513 -11.93318102140833
546 4 8 0.0300 33.00807181787476 1.8173513885330563 -10.400412815951233
547 4 7 0.1400 31.370410054300564 3.0936910094413506 -10.360194085756788
548 4 6 -0.4000 33.329727886406445 4.188317782362102 -9.684027049591172
549 4 7 0.1400 32.35554521185907 3.285053943102076 -9.274544994676736
550 4 8 0.0300 30.341292036265422 2.9138637945604016 -10.089093960814761
551 4 8 0.0300 31.60866704105824 3.4525783964481276 -11.343851776068108
552 4 8 0.0300 31.80937810955217 3.648425267768561 -8.37030842343677
553 4 8 0.0300 32.796941217171856 2.2777873489207936 -9.068533891237259
554 4 7 0.1400 33.32977301591567 4.1882505709436035 -9.6840253783864
555 4 6 -0.4000 35.16662454568988 3.1576303349773145 -8.655368785162539
556 4 7 0.1400 34.26225856360698 4.206764628085498 -8.536910330522856
557 4 8 0.0300 32.96437077861038 5.131890930741729 -10.059446576951894
558 4 8 0.0300 33.29619198162713 3.3157323902487796 -10.309112043172256
559 4 8 0.0300 34.778305337729606 5.197489464079373 -8.525034882634857
560 4 8 0.0300 33.63331748143419 4.098605717637139 -7.6178935922389766
561 4 7 0.1400 35.16649237830029 3.157629360803389 -8.655447743262705
562 4 5 0.1450 35.223044159148344 1.713683010980679 -8.416722304910223
563 4 3 -0.6830 33.917040541333186 1.20748367203834 -8.483053138675952
564 4 8 0.0300 35.93957875070178 3.7963632829082172 -8.267156051927842
565 4 8 0.0300 34.3308468047125 3.582915948293034 -9.183040193781611
566 4 8 0.0300 35.68204933753497 1.5236237981554053 -7.416246047403578
567 4 8 0.0300 35.84025429567339 1.2393273847035609 -9.221946116772475
568 4 4 0.4180 33.72661105293405 0.7897788781813195 -9.362289918580494
569 5 1 -0.1800 -19.782936323333686 -18.80904056488092 17.08107026341308
570 5 6 -0.4000 -17.88290750105886 -19.861626085708384 16.28322930440601
571 5 7 0.1400 -19.27295048071472 -19.829076616060334 16.085507159123583
572 5 2 0.0600 -20.873565333263905 -18.694200828471494 17.06727904736625
573 5 2 0.0600 -19.384825241481206 -19.12099085559552 18.078169848524478
574 5 2 0.0600 -19.28063940162088 -17.84669735525396 16.807537177073026
575 5 8 0.0300 -19.52014576407973 -19.57751013918874 15.043117213087788
576 5 8 0.0300 -19.65368026407761 -20.85517437290941 16.300510008987814
577 5 7 0.1400 -17.882952617082644 -19.86168890561449 16.283281320371835
578 5 6 -0.4000 -16.207204408414704 -18.82802006458523 15.011380118142892
579 5 7 0.1400 -16.55701723205397 -19.208016115221636 16.302049320501986
580 5 8 0.0300 -18.530280466262646 -19.726463880474764 17.136274783565984
581 5 8 0.0300 -18.298707150782832 -20.16082411724483 15.339451201721975
582 5 8 0.0300 -16.612653988472452 -18.329864170801475 16.990333210947142
583 5 8 0.0300 -15.839536986940363 -19.96264330392294 16.711459755083823
584 5 7 0.1400 -16.20713658728518 -18.82811417461224 15.011368751833238
585 5 6 -0.4000 -14.859931540875376 -20.49705522951789 14.065847563187333
586 5 7 0.1400 -16.045245759855256 -20.27557962881034 14.757636375308019
587 5 8 0.0300 -17.20604831287098 -18.41935011202623 15.013443751924855
588 5 8 0.0300 -15.364907659629303 -18.179271212858392 14.860364631352631
589 5 8 0.0300 -16.93331722934257 -20.62795590480011 14.178722715767824
590 5 8 0.0300 -16.028503867102057 -20.771274871040234 15.760563559034578
591 5 7 0.1400 -14.86002144291505 -20.497042590499003 14.065892546281312
592 5 6 -0.4000 -12.992350302274295 -21.37979628697219 15.173541598003279
593 5 7 0.1400 -14.361916907074026 -21.168940158988814 15.284986689008639
594 5 8 0.0300 -15.67583242059405 -19.797554373739562 14.166320049053866
595 5 8 0.0300 -14.223527906116313 -20.454710939403597 13.202044753595024
596 5 8 0.0300 -14.610421164079801 -20.52421778927073 16.16280198862189
597 5 8 0.0300 -14.916892103457307 -22.13757028677595 15.359921373517295
598 5 7 0.1400 -12.992338610638425 -21.37978074015275 15.17350164634785
599 5 6 -0.4000 -11.254715909145078 -20.213553231609087 16.229397827594383
600 5 7 0.1400 -12.35517727131354 -21.03079228067366 16.461126390914423
601 5 8 0.0300 -14.064292599273646 -21.503760300414996 15.152037376357438
602 5 8 0.0300 -12.45920734612746 -21.18245397561352 14.262468055969636
603 5 8 0.0300 -13.118648305878475 -20.524052508000754 17.10011604824211
604 5 8 0.0300 -12.050116373392408 -21.997852362303195 16.933979060440805
605 5 7 0.1400 -11.254679035031547 -20.213529597663463 16.22946309457375
606 5 6 -0.4000 -11.421091560508064 -18.153987421786777 15.122698034974539
607 5 7 0.1400 -11.134193225570499 -18.744792043539476 16.347945864732136
608 5 8 0.0300 -11.606937436659846 -20.767072131293776 17.086447156236744
609 5 8 0.0300 -11.314619831629768 -20.650141289160366 15.250215254774556
610 5 8 0.0300 -11.836604785369449 -18.402169688883127 17.146199535409913
611 5 8 0.0300 -10.079694004058085 -18.539412101897817 16.660527808230125
612 5 7 0.1400 -11.42118431389919 -18.153914767701746 15.122663170512208
613 5 6 -0.4000 -11.107420063820506 -18.50639459717529 12.826656645001695
614 5 7 0.1400 -10.951882377360617 -19.089840806624156 14.078851337839216
615 5 8 0.0300 -11.882769063936022 -18.566073150408464 16.006960623916896
616 5 8 0.0300 -11.597973196152468 -17.128736461221983 14.856384874297664
617 5 8 0.0300 -11.54041687539452 -20.034980133676562 14.17006425952748
618 5 8 0.0300 -9.874369666110754 -19.29419669428135 14.300350837330319
619 5 7 0.1400 -11.107338958585016 -18.506402763040906 12.826642708482655
620 5 6 -0.4000 -11.998349870336577 -20.674373559298363 12.845032426111487
621 5 7 0.1400 -12.165232992448484 -19.392668478462237 13.35686746722634
622 5 8 0.0300 -10.737512127644864 -17.716687283039686 13.462641588798654
623 5 8 0.0300 -10.514706064091838 -18.84673341073427 11.998324953870783
624 5 8 0.0300 -12.100588827972153 -19.381665728830537 14.47207196484088
625 5 8 0.0300 -13.139754509014114 -18.949499848197707 13.031650033960402
626 5 7 0.1400 -11.998420710895996 -20.67437054327539 12.844944053566149
627 5 6 -0.4000 -11.314217573066603 -21.867434255536676 10.946839460908055
628 5 7 0.1400 -11.82503839221587 -22.00854923381541 12.232040477725684
629 5 8 0.0300 -12.823133685416241 -20.52929715943345 13.525913379570351
630 5 8 0.0300 -11.538460261931213 -19.825561201716333 12.37472273645027
631 5 8 0.0300 -12.81804293854821 -22.52031640708193 12.22787738631376
632 5 8 0.0300 -11.115501255303483 -22.56840203109228 12.891569777092615
633 5 7 0.1400 -11.314195110077879 -21.86734396661114 10.946803170295125
634 5 6 -0.4000 -13.438566079133786 -22.77457491429887 10.54891374672358
635 5 7 0.1400 -12.231449426894585 -22.4465851905427 9.942378398209435
636 5 8 0.0300 -10.626653040448875 -21.099415010920886 10.62666566623985
637 5 8 0.0300 -11.559221178655504 -21.96458887257116 11.987790516030998
638 5 8 0.0300 -12.369873969563567 -21.697075011634748 9.125644575167769
639 5 8 0.0300 -11.72085835424327 -23.355760769548212 9.536726425369704
640 5 7 0.1400 -13.438562945920294 -22.7746008465007 10.548981671099856
641 5 6 -0.4000 -14.010818626881116 -22.294840803339444 8.327115397762512
642 5 7 0.1400 -13.109384656752596 -21.989338726333536 9.340366737975497
643 5 8 0.0300 -13.259864225398278 -22.324790293703092 11.513685892027548
644 5 8 0.0300 -14.125940601629056 -23.59495243831375 10.461321964038271
645 5 8 0.0300 -13.143299703964908 -20.9058854401976 9.610477356674268
646 5 8 0.0300 -12.065735159805351 -22.273783406487357 9.054457746417075
647 5 7 0.1400 -14.01081226689912 -22.29477058222104 8.327124935202322
648 5 6 -0.4000 -14.645998167475614 -23.922317244075984 6.764445590233026
649 5 7 0.1400 -13.862932719007418 -23.69974660024113 7.891327931881098
650 5 8 0.0300 -13.156374291617576 -21.805304441650076 8.769024973255432
651 5 8 0.0300 -14.808913408366664 -21.706631815271173 7.914479374461759
652 5 8 0.0300 -12.780987438865573 -23.887441146520906 7.686032612705007
653 5 8 0.0300 -14.19872344165516 -24.333052609314755 8.75041179824977
654 5 7 0.1400 -14.645994995359533 -23.922359860897306 6.764483444448343
655 5 6 -0.4000 -12.989314989473087 -25.4912317693187 6.227465481003632
656 5 7 0.1400 -13.75745357904002 -24.989496286251118 7.271887623745284
657 5 8 0.0300 -14.876612912105635 -23.09632381320474 7.419767218387642
658 5 8 0.0300 -14.768563203702026 -23.81256359310814 5.703318606224196
659 5 8 0.0300 -13.121155761489048 -24.555762783074773 8.08119679557163
660 5 8 0.0300 -14.425345648111273 -25.778529298729854 7.699911091899132
661 5 7 0.1400 -12.989282149947655 -25.491278402523022 6.227379265968751
662 5 6 -0.4000 -14.035901162861961 -27.123430847210955 4.910184125108638
663 5 7 0.1400 -13.197743026434663 -26.937729304520598 6.003618565476757
664 5 8 0.0300 -12.031879947021304 -25.1665044896855 6.605294504311923
665 5 8 0.0300 -13.628868254085782 -24.792350798542994 5.721831226917908
666 5 8 0.0300 -12.198891470262678 -27.411694389706167 5.843513391425944
667 5 8 0.0300 -13.658835811309473 -27.338282853021415 6.941065789868508
668 5 7 0.1400 -14.035912756439558 -27.123372897959424 4.910193179362907
669 5 6 -0.4000 -16.312750287679936 -27.190204813963792 4.357128670161308
670 5 7 0.1400 -15.356530691135088 -26.47899848930634 5.072965695573411
671 5 8 0.0300 -13.15947398882512 -26.4936279747459 4.8962856882420205
672 5 8 0.0300 -13.990570730052179 -28.111026664832753 4.491107105358995
673 5 8 0.0300 -15.274096888197592 -25.423561733661717 4.716260042453626
674 5 8 0.0300 -15.579304025435285 -26.489748095571134 6.169375056847714
675 5 7 0.1400 -16.312799406636074 -27.190280150544226 4.357075417209126
676 5 6 -0.4000 -17.03360132852948 -25.289339234157715 3.1903688466429028
677 5 7 0.1400 -15.919100937212688 -25.89835130091421 3.755688384868592
678 5 8 0.0300 -15.600200293787207 -28.00064397745826 4.336339641452157
679 5 8 0.0300 -17.357067544246465 -27.400743745204167 4.492567601834452
680 5 8 0.0300 -15.126346949454026 -26.097222084570486 2.9941291118630837
681 5 8 0.0300 -15.496418437401713 -25.279819154294785 4.586720567128645
682 5 7 0.1400 -17.033591365388386 -25.289275353914192 3.1903886485527093
683 5 6 -0.4000 -17.834199052952858 -26.263490268379513 1.2144664256284368
684 5 7 0.1400 -17.316664030906484 -26.55029211948754 2.4724390800039067
685 5 8 0.0300 -17.162955366221045 -25.2723668698292 4.261787761140784
686 5 8 0.0300 -17.033471246890464 -24.368468862418304 2.637881281370538
687 5 8 0.0300 -18.033421983027495 -27.146657562485725 3.0877335594760327
688 5 8 0.0300 -16.342230999074104 -27.094791281701504 2.395901972518354
689 5 7 0.1400 -17.834198111775986 -26.26350153573498 1.2143886262590036
690 5 6 -0.4000 -16.630035951531116 -27.253178402020055 -0.5362881549243659
691 5 7 0.1400 -16.619464736546227 -27.01513420289242 0.8333162436796347
692 5 8 0.0300 -17.760629729059144 -25.550823857957287 2.0216031086995874
693 5 8 0.0300 -18.638868993315167 -26.188315204983837 0.50728128782223
694 5 8 0.0300 -15.72901614020438 -26.414949808759086 1.1413113577831426
695 5 8 0.0300 -16.646907129872478 -27.972427448529984 1.4118433017376142
696 5 7 0.1400 -16.6299648511574 -27.253303543068878 -0.5362003099901778
697 5 6 -0.4000 -16.97667799503606 -27.098063843711035 -2.8492127681505446
698 5 7 0.1400 -16.068994649735405 -26.82003099578937 -1.8336332881784512
699 5 8 0.0300 -16.384459465988687 -26.677761901361524 0.34322900752997576
700 5 8 0.0300 -17.494559213517633 -27.890185057729077 -0.5334571623392106
701 5 8 0.0300 -15.845086576931768 -25.727567692637663 -1.7675265094018249
702 5 8 0.0300 -15.117333173618938 -27.39189087883006 -1.9721024509711689
703 5 7 0.1400 -16.976718986095182 -27.098020484485705 -2.8492210631649346
704 5 5 0.1450 -17.795082668162653 -28.308447738034946 -2.9507875327216238
705 5 3 -0.6830 -16.955161578836716 -29.419626804846803 -2.7892429717340885
706 5 8 0.0300 -17.426323477705008 -26.17050966136561 -2.5426375115524036
707 5 8 0.0300 -15.91919789851578 -27.14647257742779 -3.0411261022191693
708 5 8 0.0300 -18.589790621386015 -28.282470368036964 -2.1662332354728475
709 5 8 0.0300 -18.258446054323457 -28.345566744680404 -3.969739715952637
710 5 4 0.4180 -16.710645820209162 -29.827907134280427 -3.659482718229482

Bonds

1 1 1 3
2 4 2 3
3 2 1 4
4 2 1 5
5 2 1 6
6 2 3 7
7 2 3 8
8 1 9 11
9 4 10 11
10 2 9 12
11 2 9 13
12 2 11 14
13 2 11 15
14 1 16 18
15 4 17 18
16 2 16 19
17 2 16 20
18 2 18 21
19 2 18 22
20 1 23 25
21 4 24 25
22 2 23 26
23 2 23 27
24 2 25 28
25 2 25 29
26 1 30 32
27 4 31 32
28 2 30 33
29 2 30 34
30 2 32 35
31 2 32 36
32 1 37 39
33 4 38 39
34 2 37 40
35 2 37 41
36 2 39 42
37 2 39 43
38 1 44 46
39 4 45 46
40 2 44 47
41 2 44 48
42 2 46 49
43 2 46 50
44 1 51 53
45 4 52 53
46 2 51 54
47 2 51 55
48 2 53 56
49 2 53 57
50 1 58 60
51 4 59 60
52 2 58 61
53 2 58 62
54 2 60 63
55 2 60 64
56 1 65 67
57 4 66 67
58 2 65 68
59 2 65 69
60 2 67 70
61 2 67 71
62 1 72 74
63 4 73 74
64 2 72 75
65 2 72 76
66 2 74 77
67 2 74 78
68 1 79 81
69 4 80 81
70 2 79 82
71 2 79 83
72 2 81 84
73 2 81 85
74 1 86 88
75 4 87 88
76 2 86 89
77 2 86 90
78 2 88 91
79 2 88 92
80 1 93 95
81 4 94 95
82 2 93 96
83 2 93 97
84 2 95 98
85 2 95 99
86 1 100 102
87 4 101 102
88 2 100 103
89 2 100 104
90 2 102 105
91 2 102 106
92 1 107 109
93 4 108 109
94 2 107 110
95 2 107 111
96 2 109 112
97 2 109 113
98 1 114 116
99 4 115 116
100 2 114 117
101 2 114 118
102 2 116 119
103 2 116 120
104 1 121 123
105 4 122 123
106 2 121 124
107 2 121 125
108 2 123 126
109 2 123 127
110 1 128 130
111 4 129 130
112 2 128 131
113 2 128 132
114 2 130 133
115 2 130 134
116 1 135 136
117 3 136 137
118 2 135 138
119 2 135 139
120 2 136 140
121 2 136 141
122 6 137 142
123 4 2 9
124 4 10 16
125 4 17 23
126 4 24 30
127 4 31 37
128 4 38 44
129 4 45 51
130 4 52 58
131 4 59 65
132 4 66 72
133 4 73 79
134 4 80 86
135 4 87 93
136 4 94 100
137 4 101 107
138 4 108 114
139 4 115 121
140 4 122 128
141 4 129 135
142 1 143 145
143 4 144 145
144 2 143 146
145 2 143 147
146 2 143 148
147 2 145 149
148 2 145 150
149 1 151 153
150 4 152 153
151 2 151 154
152 2 151 155
153 2 153 156
154 2 153 157
155 1 158 160
156 4 159 160
157 2 158 161
158 2 158 162
159 2 160 163
160 2 160 164
161 1 165 167
162 4 166 167
163 2 165 168
164 2 165 169
165 2 167 170
166 2 167 171
167 1 172 174
168 4 173 174
169 2 172 175
170 2 172 176
171 2 174 177
172 2 174 178
173 1 179 181
174 4 180 181
175 2 179 182
176 2 179 183
177 2 181 184
178 2 181 185
179 1 186 188
180 4 187 188
181 2 186 189
182 2 186 190
183 2 188 191
184 2 188 192
185 1 193 195
186 4 194 195
187 2 193 196
188 2 193 197
189 2 195 198
190 2 195 199
191 1 200 202
192 4 201 202
193 2 200 203
194 2 200 204
195 2 202 205
196 2 202 206
197 1 207 209
198 4 208 209
199 2 207 210
200 2 207 211
201 2 209 212
202 2 209 213
203 1 214 216
204 4 215 216
205 2 214 217
206 2 214 218
207 2 216 219
208 2 216 220
209 1 221 223
210 4 222 223
211 2 221 224
212 2 221 225
213 2 223 226
214 2 223 227
215 1 228 230
216 4 229 230
217 2 228 231
218 2 228 232
219 2 230 233
220 2 230 234
221 1 235 237
222 4 236 237
223 2 235 238
224 2 235 239
225 2 237 240
226 2 237 241
227 1 242 244
228 4 243 244
229 2 242 245
230 2 242 246
231 2 244 247
232 2 244 248
233 1 249 251
234 4 250 251
235 2 249 252
236 2 249 253
237 2 251 254
238 2 251 255
239 1 256 258
240 4 257 258
241 2 256 259
242 2 256 260
243 2 258 261
244 2 258 262
245 1 263 265
246 4 264 265
247 2 263 266
248 2 263 267
249 2 265 268
250 2 265 269
251 1 270 272
252 4 271 272
253 2 270 273
254 2 270 274
255 2 272 275
256 2 272 276
257 1 277 278
258 3 278 279
259 2 277 280
260 2 277 281
261 2 278 282
262 2 278 283
263 6 279 284
264 4 144 151
265 4 152 158
266 4 159 165
267 4 166 172
268 4 173 179
269 4 180 186
270 4 187 193
271 4 194 200
272 4 201 207
273 4 208 214
274 4 215 221
275 4 222 228
276 4 229 235
277 4 236 242
278 4 243 249
279 4 250 256
280 4 257 263
281 4 264 270
282 4 271 277
283 1 285 287
284 4 286 287
285 2 285 288
286 2 285 289
287 2 285 290
288 2 287 291
289 2 287 292
290 1 293 295
291 4 294 295
292 2 293 296
293 2 293 297
294 2 295 298
295 2 295 299
296 1 300 302
297 4 301 302
298 2 300 303
299 2 300 304
300 2 302 305
301 2 302 306
302 1 307 309
303 4 308 309
304 2 307 310
305 2 307 311
306 2 309 312
307 2 309 313
308 1 314 316
309 4 315 316
310 2 314 317
311 2 314 318
312 2 316 319
313 2 316 320
314 1 321 323
315 4 322 323
316 2 321 324
317 2 321 325
318 2 323 326
319 2 323 327
320 1 328 330
321 4 329 330
322 2 328 331
323 2 328 332
324 2 330 333
325 2 330 334
326 1 335 337
327 4 336 337
328 2 335 338
329 2 335 339
330 2 337 340
331 2 337 341
332 1 342 344
333 4 343 344
334 2 342 345
335 2 342 346
336 2 344 347
337 2 344 348
338 1 349 351
339 4 350 351
340 2 349 352
341 2 349 353
342 2 351 354
343 2 351 355
344 1 356 358
345 4 357 358
346 2 356 359
347 2 356 360
348 2 358 361
349 2 358 362
350 1 363 365
351 4 364 365
352 2 363 366
353 2 363 367
354 2 365 368
355 2 365 369
356 1 370 372
357 4 371 372
358 2 370 373
359 2 370 374
360 2 372 375
361 2 372 376
362 1 377 379
363 4 378 379
364 2 377 380
365 2 377 381
366 2 379 382
367 2 379 383
368 1 384 386
369 4 385 386
370 2 384 387
371 2 384 388
372 2 386 389
373 2 386 390
374 1 391 393
375 4 392 393
376 2 391 394
377 2 391 395
378 2 393 396
379 2 393 397
380 1 398 400
381 4 399 400
382 2 398 401
383 2 398 402
384 2 400 403
385 2 400 404
386 1 405 407
387 4 406 407
388 2 405 408
389 2 405 409
390 2 407 410
391 2 407 411
392 1 412 414
393 4 413 414
394 2 412 415
395 2 412 416
396 2 414 417
397 2 414 418
398 1 419 420
399 3 420 421
400 2 419 422
401 2 419 423
402 2 420 424
403 2 420 425
404 6 421 426
405 4 286 293
406 4 294 300
407 4 301 307
408 4 308 314
409 4 315 321
410 4 322 328
411 4 329 335
412 4 336 342
413 4 343 349
414 4 350 356
415 4 357 363
416 4 364 370
417 4 371 377
418 4 378 384
419 4 385 391
420 4 392 398
421 4 399 405
422 4 406 412
423 4 413 419
424 1 427 429
425 4 428 429
426 2 427 430
427 2 427 431
428 2 427 432
429 2 429 433
430 2 429 434
431 1 435 437
432 4 436 437
433 2 435 438
434 2 435 439
435 2 437 440
436 2 437 441
437 1 442 444
438 4 443 444
439 2 442 445
440 2 442 446
441 2 444 447
442 2 444 448
443 1 449 451
444 4 450 451
445 2 449 452
446 2 449 453
447 2 451 454
448 2 451 455
449 1 456 458
450 4 457 458
451 2 456 459
452 2 456 460
453 2 458 461
454 2 458 462
455 1 463 465
456 4 464 465
457 2 463 466
458 2 463 467
459 2 465 468
460 2 465 469
461 1 470 472
462 4 471 472
463 2 470 473
464 2 470 474
465 2 472 475
466 2 472 476
467 1 477 479
468 4 478 479
469 2 477 480
470 2 477 481
471 2 479 482
472 2 479 483
473 1 484 486
474 4 485 486
475 2 484 487
476 2 484 488
477 2 486 489
478 2 486 490
479 1 491 493
480 4 492 493
481 2 491 494
482 2 491 495
483 2 493 496
484 2 493 497
485 1 498 500
486 4 499 500
487 2 498 501
488 2 498 502
489 2 500 503
490 2 500 504
491 1 505 507
492 4 506 507
493 2 505 508
494 2 505 509
495 2 507 510
496 2 507 511
497 1 512 514
498 4 513 514
499 2 512 515
500 2 512 516
501 2 514 517
502 2 514 518
503 1 519 521
504 4 520 521
505 2 519 522
506 2 519 523
507 2 521 524
508 2 521 525
509 1 526 528
510 4 527 528
511 2 526 529
512 2 526 530
513 2 528 531
514 2 528 532
515 1 533 535
516 4 534 535
517 2 533 536
518 2 533 537
519 2 535 538
520 2 535 539
521 1 540 542
522 4 541 542
523 2 540 543
524 2 540 544
525 2 542 545
526 2 542 546
527 1 547 549
528 4 548 549
529 2 547 550
530 2 547 551
531 2 549 552
532 2 549 553
533 1 554 556
534 4 555 556
535 2 554 557
536 2 554 558
537 2 556 559
538 2 556 560
539 1 561 562
540 3 562 563
541 2 561 564
542 2 561 565
543 2 562 566
544 2 562 567
545 6 563 568
546 4 428 435
547 4 436 442
548 4 443 449
549 4 450 456
550 4 457 463
551 4 464 470
552 4 471 477
553 4 478 484
554 4 485 491
555 4 492 498
556 4 499 505
557 4 506 512
558 4 513 519
559 4 520 526
560 4 527 533
561 4 534 540
562 4 541 547
563 4 548 554
564 4 555 561
565 1 569 571
566 4 570 571
567 2 569 572
568 2 569 573
569 2 569 574
570 2 571 575
571 2 571 576
572 1 577 579
573 4 578 579
574 2 577 580
575 2 577 581
576 2 579 582
577 2 579 583
578 1 584 586
579 4 585 586
580 2 584 587
581 2 584 588
582 2 586 589
583 2 586 590
584 1 591 593
585 4 592 593
586 2 591 594
587 2 591 595
588 2 593 596
589 2 593 597
590 1 598 600
591 4 599 600
592 2 598 601
593 2 598 602
594 2 600 603
595 2 600 604
596 1 605 607
597 4 606 607
598 2 605 608
599 2 605 609
600 2 607 610
601 2 607 611
602 1 612 614
603 4 613 614
604 2 612 615
605 2 612 616
606 2 614 617
607 2 614 618
608 1 619 621
609 4 620 621
610 2 619 622
611 2 619 623
612 2 621 624
613 2 621 625
614 1 626 628
615 4 627 628
616 2 626 629
617 2 626 630
618 2 628 631
619 2 628 632
620 1 633 635
621 4 634 635
622 2 633 636
623 2 633 637
624 2 635 638
625 2 635 639
626 1 640 642
627 4 641 642
628 2 640 643
629 2 640 644
630 2 642 645
631 2 642 646
632 1 647 649
633 4 648 649
634 2 647 650
635 2 647 651
636 2 649 652
637 2 649 653
638 1 654 656
639 4 655 656
640 2 654 657
641 2 654 658
642 2 656 659
643 2 656 660
644 1 661 663
645 4 662 663
646 2 661 664
647 2 661 665
648 2 663 666
649 2 663 667
650 1 668 670
651 4 669 670
652 2 668 671
653 2 668 672
654 2 670 673
655 2 670 674
656 1 675 677
657 4 676 677
658 2 675 678
659 2 675 679
660 2 677 680
661 2 677 681
662 1 682 684
663 4 683 684
664 2 682 685
665 2 682 686
666 2 684 687
667 2 684 688
668 1 689 691
669 4 690 691
670 2 689 692
671 2 689 693
672 2 691 694
673 2 691 695
674 1 696 698
675 4 697 698
676 2 696 699
677 2 696 700
678 2 698 701
679 2 698 702
680 1 703 704
681 3 704 705
682 2 703 706
683 2 703 707
684 2 704 708
685 2 704 709
686 6 705 710
687 4 570 577
688 4 578 584
689 4 585 591
690 4 592 598
691 4 599 605
692 4 606 612
693 4 613 619
694 4 620 626
695 4 627 633
696 4 634 640
697 4 641 647
698 4 648 654
699 4 655 661
700 4 662 668
701 4 669 675
702 4 676 682
703 4 683 689
704 4 690 696
705 4 697 703

Angles

1 2 1 3 7
2 2 1 3 8
3 2 143 145 149
4 2 143 145 150
5 2 285 287 291
6 2 285 287 292
7 2 427 429 433
8 2 427 429 434
9 2 569 571 575
10 2 569 571 576
11 2 3 1 4
12 2 3 1 5
13 2 3 1 6
14 2 145 143 146
15 2 145 143 147
16 2 145 143 148
17 2 287 285 288
18 2 287 285 289
19 2 287 285 290
20 2 429 427 430
21 2 429 427 431
22 2 429 427 432
23 2 571 569 572
24 2 571 569 573
25 2 571 569 574
26 2 9 11 14
27 2 9 11 15
28 2 11 9 12
29 2 11 9 13
30 2 16 18 21
31 2 16 18 22
32 2 18 16 19
33 2 18 16 20
34 2 23 25 28
35 2 23 25 29
36 2 25 23 26
37 2 25 23 27
38 2 30 32 35
39 2 30 32 36
40 2 32 30 33
41 2 32 30 34
42 2 37 39 42
43 2 37 39 43
44 2 39 37 40
45 2 39 37 41
46 2 44 46 49
47 2 44 46 50
48 2 46 44 47
49 2 46 44 48
50 2 51 53 56
51 2 51 53 57
52 2 53 51 54
53 2 53 51 55
54 2 58 60 63
55 2 58 60 64
56 2 60 58 61
57 2 60 58 62
58 2 65 67 70
59 2 65 67 71
60 2 67 65 68
61 2 67 65 69
62 2 72 74 77
63 2 72 74 78
64 2 74 72 75
65 2 74 72 76
66 2 79 81 84
67 2 79 81 85
68 2 81 79 82
69 2 81 79 83
70 2 86 88 91
71 2 86 88 92
72 2 88 86 89
73 2 88 86 90
74 2 93 95 98
75 2 93 95 99
76 2 95 93 96
77 2 95 93 97
78 2 100 102 105
79 2 100 102 106
80 2 102 100 103
81 2 102 100 104
82 2 107 109 112
83 2 107 109 113
84 2 109 107 110
85 2 109 107 111
86 2 114 116 119
87 2 114 116 120
88 2 116 114 117
89 2 116 114 118
90 2 121 123 126
91 2 121 123 127
92 2 123 121 124
93 2 123 121 125
94 2 128 130 133
95 2 128 130 134
96 2 130 128 131
97 2 130 128 132
98 2 151 153 156
99 2 151 153 157
100 2 153 151 154
101 2 153 151 155
102 2 158 160 163
103 2 158 160 164
104 2 160 158 161
105 2 160 158 162
106 2 165 167 170
107 2 165 167 171
108 2 167 165 168
109 2 167 165 169
110 2 172 174 177
111 2 172 174 178
112 2 174 172 175
113 2 174 172 176
114 2 179 181 184
115 2 179 181 185
116 2 181 179 182
117 2 181 179 183
118 2 186 188 191
119 2 186 188 192
120 2 188 186 189
121 2 188 186 190
122 2 193 195 198
123 2 193 195 199
124 2 195 193 196
125 2 195 193 197
126 2 200 202 205
127 2 200 202 206
128 2 202 200 203
129 2 202 200 204
130 2 207 209 212
131 2 207 209 213
132 2 209 207 210
133 2 209 207 211
134 2 214 216 219
135 2 214 216 220
136 2 216 214 217
137 2 216 214 218
138 2 221 223 226
139 2 221 223 227
140 2 223 221 224
141 2 223 221 225
142 2 228 230 233
143 2 228 230 234
144 2 230 228 231
145 2 230 228 232
146 2 235 237 240
147 2 235 237 241
148 2 237 235 238
149 2 237 235 239
150 2 242 244 247
151 2 242 244 248
152 2 244 242 245
153 2 244 242 246
154 2 249 251 254
155 2 249 251 255
156 2 251 249 252
157 2 251 249 253
158 2 256 258 261
159 2 256 258 262
160 2 258 256 259
161 2 258 256 260
162 2 263 265 268
163 2 263 265 269
164 2 265 263 266
165 2 265 263 267
166 2 270 272 275
167 2 270 272 276
168 2 272 270 273
169 2 272 270 274
170 2 293 295 298
171 2 293 295 299
172 2 295 293 296
173 2 295 293 297
174 2 300 302 305
175 2 300 302 306
176 2 302 300 303
177 2 302 300 304
178 2 307 309 312
179 2 307 309 313
180 2 309 307 310
181 2 309 307 311
182 2 314 316 319
183 2 314 316 320
184 2 316 314 317
185 2 316 314 318
186 2 321 323 326
187 2 321 323 327
188 2 323 321 324
189 2 323 321 325
190 2 328 330 333
191 2 328 330 334
192 2 330 328 331
193 2 330 328 332
194 2 335 337 340
195 2 335 337 341
196 2 337 335 338
197 2 337 335 339
198 2 342 344 347
199 2 342 344 348
200 2 344 342 345
201 2 344 342 346
202 2 349 351 354
203 2 349 351 355
204 2 351 349 352
205 2 351 349 353
206 2 356 358 361
207 2 356 358 362
208 2 358 356 359
209 2 358 356 360
210 2 363 365 368
211 2 363 365 369
212 2 365 363 366
213 2 365 363 367
214 2 370 372 375
215 2 370 372 376
216 2 372 370 373
217 2 372 370 374
218 2 377 379 382
219 2 377 379 383
220 2 379 377 380
221 2 379 377 381
222 2 384 386 389
223 2 384 386 390
224 2 386 384 387
225 2 386 384 388
226 2 391 393 396
227 2 391 393 397
228 2 393 391 394
229 2 393 391 395
230 2 398 400 403
231 2 398 400 404
232 2 400 398 401
233 2 400 398 402
234 2 405 407 410
235 2 405 407 411
236 2 407 405 408
237 2 407 405 409
238 2 412 414 417
239 2 412 414 418
240 2 414 412 415
241 2 414 412 416
242 2 435 437 440
243 2 435 437 441
244 2 437 435 438
245 2 437 435 439
246 2 442 444 447
247 2 442 444 448
248 2 444 442 445
249 2 444 442 446
250 2 449 451 454
251 2 449 451 455
252 2 451 449 452
253 2 451 449 453
254 2 456 458 461
255 2 456 458 462
256 2 458 456 459
257 2 458 456 460
258 2 463 465 468
259 2 463 465 469
260 2 465 463 466
261 2 465 463 467
262 2 470 472 475
263 2 470 472 476
264 2 472 470 473
265 2 472 470 474
266 2 477 479 482
267 2 477 479 483
268 2 479 477 480
269 2 479 477 481
270 2 484 486 489
271 2 484 486 490
272 2 486 484 487
273 2 486 484 488
274 2 491 493 496
275 2 491 493 497
276 2 493 491 494
277 2 493 491 495
278 2 498 500 503
279 2 498 500 504
280 2 500 498 501
281 2 500 498 502
282 2 505 507 510
283 2 505 507 511
284 2 507 505 508
285 2 507 505 509
286 2 512 514 517
287 2 512 514 518
288 2 514 512 515
289 2 514 512 516
290 2 519 521 524
291 2 519 521 525
292 2 521 519 522
293 2 521 519 523
294 2 526 528 531
295 2 526 528 532
296 2 528 526 529
297 2 528 526 530
298 2 533 535 538
299 2 533 535 539
300 2 535 533 536
301 2 535 533 537
302 2 540 542 545
303 2 540 542 546
304 2 542 540 543
305 2 542 540 544
306 2 547 549 552
307 2 547 549 553
308 2 549 547 550
309 2 549 547 551
310 2 554 556 559
311 2 554 556 560
312 2 556 554 557
313 2 556 554 558
314 2 577 579 582
315 2 577 579 583
316 2 579 577 580
317 2 579 577 581
318 2 584 586 589
319 2 584 586 590
320 2 586 584 587
321 2 586 584 588
322 2 591 593 596
323 2 591 593 597
324 2 593 591 594
325 2 593 591 595
326 2 598 600 603
327 2 598 600 604
328 2 600 598 601
329 2 600 598 602
330 2 605 607 610
331 2 605 607 611
332 2 607 605 608
333 2 607 605 609
334 2 612 614 617
335 2 612 614 618
336 2 614 612 615
337 2 614 612 616
338 2 619 621 624
339 2 619 621 625
340 2 621 619 622
341 2 621 619 623
342 2 626 628 631
343 2 626 628 632
344 2 628 626 629
345 2 628 626 630
346 2 633 635 638
347 2 633 635 639
348 2 635 633 636
349 2 635 633 637
350 2 640 642 645
351 2 640 642 646
352 2 642 640 643
353 2 642 640 644
354 2 647 649 652
355 2 647 649 653
356 2 649 647 650
357 2 649 647 651
358 2 654 656 659
359 2 654 656 660
360 2 656 654 657
361 2 656 654 658
362 2 661 663 666
363 2 661 663 667
364 2 663 661 664
365 2 663 661 665
366 2 668 670 673
367 2 668 670 674
368 2 670 668 671
369 2 670 668 672
370 2 675 677 680
371 2 675 677 681
372 2 677 675 678
373 2 677 675 679
374 2 682 684 687
375 2 682 684 688
376 2 684 682 685
377 2 684 682 686
378 2 689 691 694
379 2 689 691 695
380 2 691 689 692
381 2 691 689 693
382 2 696 698 701
383 2 696 698 702
384 2 698 696 699
385 2 698 696 700
386 2 135 136 140
387 2 135 136 141
388 2 277 278 282
389 2 277 278 283
390 2 419 420 424
391 2 419 420 425
392 2 561 562 566
393 2 561 562 567
394 2 703 704 708
395 2 703 704 709
396 2 136 135 138
397 2 136 135 139
398 2 278 277 280
399 2 278 277 281
400 2 420 419 422
401 2 420 419 423
402 2 562 561 564
403 2 562 561 565
404 2 704 703 706
405 2 704 703 707
406 3 135 136 137
407 3 277 278 279
408 3 419 420 421
409 3 561 562 563
410 3 703 704 705
411 4 1 3 2
412 4 143 145 144
413 4 285 287 286
414 4 427 429 428
415 4 569 571 570
416 4 9 11 10
417 4 2 9 11
418 4 16 18 17
419 4 10 16 18
420 4 23 25 24
421 4 17 23 25
422 4 30 32 31
423 4 24 30 32
424 4 37 39 38
425 4 31 37 39
426 4 44 46 45
427 4 38 44 46
428 4 51 53 52
429 4 45 51 53
430 4 58 60 59
431 4 52 58 60
432 4 65 67 66
433 4 59 65 67
434 4 72 74 73
435 4 66 72 74
436 4 79 81 80
437 4 73 79 81
438 4 86 88 87
439 4 80 86 88
440 4 93 95 94
441 4 87 93 95
442 4 100 102 101
443 4 94 100 102
444 4 107 109 108
445 4 101 107 109
446 4 114 116 115
447 4 108 114 116
448 4 121 123 122
449 4 115 121 123
450 4 128 130 129
451 4 122 128 130
452 4 151 153 152
453 4 144 151 153
454 4 158 160 159
455 4 152 158 160
456 4 165 167 166
457 4 159 165 167
458 4 172 174 173
459 4 166 172 174
460 4 179 181 180
461 4 173 179 181
462 4 186 188 187
463 4 180 186 188
464 4 193 195 194
465 4 187 193 195
466 4 200 202 201
467 4 194 200 202
468 4 207 209 208
469 4 201 207 209
470 4 214 216 215
471 4 208 214 216
472 4 221 223 222
473 4 215 221 223
474 4 228 230 229
475 4 222 228 230
476 4 235 237 236
477 4 229 235 237
478 4 242 244 243
479 4 236 242 244
480 4 249 251 250
481 4 243 249 251
482 4 256 258 257
483 4 250 256 258
484 4 263 265 264
485 4 257 263 265
486 4 270 272 271
487 4 264 270 272
488 4 293 295 294
489 4 286 293 295
490 4 300 302 301
491 4 294 300 302
492 4 307 309 308
493 4 301 307 309
494 4 314 316 315
495 4 308 314 316
496 4 321 323 322
497 4 315 321 323
498 4 328 330 329
499 4 322 328 330
500 4 335 337 336
501 4 329 335 337
502 4 342 344 343
503 4 336 342 344
504 4 349 351 350
505 4 343 349 351
506 4 356 358 357
507 4 350 356 358
508 4 363 365 364
509 4 357 363 365
510 4 370 372 371
511 4 364 370 372
512 4 377 379 378
513 4 371 377 379
514 4 384 386 385
515 4 378 384 386
516 4 391 393 392
517 4 385 391 393
518 4 398 400 399
519 4 392 398 400
520 4 405 407 406
521 4 399 405 407
522 4 412 414 413
523 4 406 412 414
524 4 435 437 436
525 4 428 435 437
526 4 442 444 443
527 4 436 442 444
528 4 449 451 450
529 4 443 449 451
530 4 456 458 457
531 4 450 456 458
532 4 463 465 464
533 4 457 463 465
534 4 470 472 471
535 4 464 470 472
536 4 477 479 478
537 4 471 477 479
538 4 484 486 485
539 4 478 484 486
540 4 491 493 492
541 4 485 491 493
542 4 498 500 499
543 4 492 498 500
544 4 505 507 506
545 4 499 505 507
546 4 512 514 513
547 4 506 512 514
548 4 519 521 520
549 4 513 519 521
550 4 526 528 527
551 4 520 526 528
552 4 533 535 534
553 4 527 533 535
554 4 540 542 541
555 4 534 540 542
556 4 547 549 548
557 4 541 547 549
558 4 554 556 555
559 4 548 554 556
560 4 577 579 578
561 4 570 577 579
562 4 584 586 585
563 4 578 584 586
564 4 591 593 592
565 4 585 591 593
566 4 598 600 599
567 4 592 598 600
568 4 605 607 606
569 4 599 605 607
570 4 612 614 613
571 4 606 612 614
572 4 619 621 620
573 4 613 619 621
574 4 626 628 627
575 4 620 626 628
576 4 633 635 634
577 4 627 633 635
578 4 640 642 641
579 4 634 640 642
580 4 647 649 648
581 4 641 647 649
582 4 654 656 655
583 4 648 654 656
584 4 661 663 662
585 4 655 661 663
586 4 668 670 669
587 4 662 668 670
588 4 675 677 676
589 4 669 675 677
590 4 682 684 683
591 4 676 682 684
592 4 689 691 690
593 4 683 689 691
594 4 696 698 697
595 4 690 696 698
596 4 129 135 136
597 4 271 277 278
598 4 413 419 420
599 4 555 561 562
600 4 697 703 704
601 6 136 137 142
602 6 278 279 284
603 6 420 421 426
604 6 562 563 568
605 6 704 705 710
606 7 3 2 9
607 7 11 10 16
608 7 18 17 23
609 7 25 24 30
610 7 32 31 37
611 7 39 38 44
612 7 46 45 51
613 7 53 52 58
614 7 60 59 65
615 7 67 66 72
616 7 74 73 79
617 7 81 80 86
618 7 88 87 93
619 7 95 94 100
620 7 102 101 107
621 7 109 108 114
622 7 116 115 121
623 7 123 122 128
624 7 130 129 135
625 7 145 144 151
626 7 153 152 158
627 7 160 159 165
628 7 167 166 172
629 7 174 173 179
630 7 181 180 186
631 7 188 187 193
632 7 195 194 200
633 7 202 201 207
634 7 209 208 214
635 7 216 215 221
636 7 223 222 228
637 7 230 229 235
638 7 237 236 242
639 7 244 243 249
640 7 251 250 256
641 7 258 257 263
642 7 265 264 270
643 7 272 271 277
644 7 287 286 293
645 7 295 294 300
646 7 302 301 307
647 7 309 308 314
648 7 316 315 321
649 7 323 322 328
650 7 330 329 335
651 7 337 336 342
652 7 344 343 349
653 7 351 350 356
654 7 358 357 363
655 7 365 364 370
656 7 372 371 377
657 7 379 378 384
658 7 386 385 391
659 7 393 392 398
660 7 400 399 405
661 7 407 406 412
662 7 414 413 419
663 7 429 428 435
664 7 437 436 442
665 7 444 443 449
666 7 451 450 456
667 7 458 457 463
668 7 465 464 470
669 7 472 471 477
670 7 479 478 484
671 7 486 485 491
672 7 493 492 498
673 7 500 499 505
674 7 507 506 512
675 7 514 513 519
676 7 521 520 526
677 7 528 527 533
678 7 535 534 540
679 7 542 541 547
680 7 549 548 554
681 7 556 555 561
682 7 571 570 577
683 7 579 578 584
684 7 586 585 591
685 7 593 592 598
686 7 600 599 605
687 7 607 606 612
688 7 614 613 619
689 7 621 620 626
690 7 628 627 633
691 7 635 634 640
692 7 642 641 647
693 7 649 648 654
694 7 656 655 661
695 7 663 662 668
696 7 670 669 675
697 7 677 676 682
698 7 684 683 689
699 7 691 690 696
700 7 698 697 703
701 8 4 1 5
702 8 4 1 6
703 8 5 1 6
704 8 146 143 147
705 8 146 143 148
706 8 147 143 148
707 8 288 285 289
708 8 288 285 290
709 8 289 285 290
710 8 430 427 431
711 8 430 427 432
712 8 431 427 432
713 8 572 569 573
714 8 572 569 574
715 8 573 569 574
716 8 7 3 8
717 8 12 9 13
718 8 14 11 15
719 8 19 16 20
720 8 21 18 22
721 8 26 23 27
722 8 28 25 29
723 8 33 30 34
724 8 35 32 36
725 8 40 37 41
726 8 42 39 43
727 8 47 44 48
728 8 49 46 50
729 8 54 51 55
730 8 56 53 57
731 8 61 58 62
732 8 63 60 64
733 8 68 65 69
734 8 70 67 71
735 8 75 72 76
736 8 77 74 78
737 8 82 79 83
738 8 84 81 85
739 8 89 86 90
740 8 91 88 92
741 8 96 93 97
742 8 98 95 99
743 8 103 100 104
744 8 105 102 106
745 8 110 107 111
746 8 112 109 113
747 8 117 114 118
748 8 119 116 120
749 8 124 121 125
750 8 126 123 127
751 8 131 128 132
752 8 133 130 134
753 8 138 135 139
754 8 149 145 150
755 8 154 151 155
756 8 156 153 157
757 8 161 158 162
758 8 163 160 164
759 8 168 165 169
760 8 170 167 171
761 8 175 172 176
762 8 177 174 178
763 8 182 179 183
764 8 184 181 185
765 8 189 186 190
766 8 191 188 192
767 8 196 193 197
768 8 198 195 199
769 8 203 200 204
770 8 205 202 206
771 8 210 207 211
772 8 212 209 213
773 8 217 214 218
774 8 219 216 220
775 8 224 221 225
776 8 226 223 227
777 8 231 228 232
778 8 233 230 234
779 8 238 235 239
780 8 240 237 241
781 8 245 242 246
782 8 247 244 248
783 8 252 249 253
784 8 254 251 255
785 8 259 256 260
786 8 261 258 262
787 8 266 263 267
788 8 268 265 269
789 8 273 270 274
790 8 275 272 276
791 8 280 277 281
792 8 291 287 292
793 8 296 293 297
794 8 298 295 299
795 8 303 300 304
796 8 305 302 306
797 8 310 307 311
798 8 312 309 313
799 8 317 314 318
800 8 319 316 320
801 8 324 321 325
802 8 326 323 327
803 8 331 328 332
804 8 333 330 334
805 8 338 335 339
806 8 340 337 341
807 8 345 342 346
808 8 347 344 348
809 8 352 349 353
810 8 354 351 355
811 8 359 356 360
812 8 361 358 362
813 8 366 363 367
814 8 368 365 369
815 8 373 370 374
816 8 375 372 376
817 8 380 377 381
818 8 382 379 383
819 8 387 384 388
820 8 389 386 390
821 8 394 391 395
822 8 396 393 397
823 8 401 398 402
824 8 403 400 404
825 8 408 405 409
826 8 410 407 411
827 8 415 412 416
828 8 417 414 418
829 8 422 419 423
830 8 433 429 434
831 8 438 435 439
832 8 440 437 441
833 8 445 442 446
834 8 447 444 448
835 8 452 449 453
836 8 454 451 455
837 8 459 456 460
838 8 461 458 462
839 8 466 463 467
840 8 468 465 469
841 8 473 470 474
842 8 475 472 476
843 8 480 477 481
844 8 482 479 483
845 8 487 484 488
846 8 489 486 490
847 8 494 491 495
848 8 496 493 497
849 8 501 498 502
850 8 503 500 504
851 8 508 505 509
852 8 510 507 511
853 8 515 512 516
854 8 517 514 518
855 8 522 519 523
856 8 524 521 525
857 8 529 526 530
858 8 531 528 532
859 8 536 533 537
860 8 538 535 539
861 8 543 540 544
862 8 545 542 546
863 8 550 547 551
864 8 552 549 553
865 8 557 554 558
866 8 559 556 560
867 8 564 561 565
868 8 575 571 576
869 8 580 577 581
870 8 582 579 583
871 8 587 584 588
872 8 589 586 590
873 8 594 591 595
874 8 596 593 597
875 8 601 598 602
876 8 603 600 604
877 8 608 605 609
878 8 610 607 611
879 8 615 612 616
880 8 617 614 618
881 8 622 619 623
882 8 624 621 625
883 8 629 626 630
884 8 631 628 632
885 8 636 633 637
886 8 638 635 639
887 8 643 640 644
888 8 645 642 646
889 8 650 647 651
890 8 652 649 653
891 8 657 654 658
892 8 659 656 660
893 8 664 661 665
894 8 666 663 667
895 8 671 668 672
896 8 673 670 674
897 8 678 675 679
898 8 680 677 681
899 8 685 682 686
900 8 687 684 688
901 8 692 689 693
902 8 694 691 695
903 8 699 696 700
904 8 701 698 702
905 8 706 703 707
906 8 140 136 141
907 8 282 278 283
908 8 424 420 425
909 8 566 562 567
910 8 708 704 709
911 9 137 136 140
912 9 137 136 141
913 9 279 278 282
914 9 279 278 283
915 9 421 420 424
916 9 421 420 425
917 9 563 562 566
918 9 563 562 567
919 9 705 704 708
920 9 705 704 709
921 10 2 3 7
922 10 2 3 8
923 10 2 9 12
924 10 2 9 13
925 10 10 11 14
926 10 10 11 15
927 10 10 16 19
928 10 10 16 20
929 10 17 18 21
930 10 17 18 22
931 10 17 23 26
932 10 17 23 27
933 10 24 25 28
934 10 24 25 29
935 10 24 30 33
936 10 24 30 34
937 10 31 32 35
938 10 31 32 36
939 10 31 37 40
940 10 31 37 41
941 10 38 39 42
942 10 38 39 43
943 10 38 44 47
944 10 38 44 48
945 10 45 46 49
946 10 45 46 50
947 10 45 51 54
948 10 45 51 55
949 10 52 53 56
950 10 52 53 57
951 10 52 58 61
952 10 52 58 62
953 10 59 60 63
954 10 59 60 64
955 10 59 65 68
956 10 59 65 69
957 10 66 67 70
958 10 66 67 71
959 10 66 72 75
960 10 66 72 76
961 10 73 74 77
962 10 73 74 78
963 10 73 79 82
964 10 73 79 83
965 10 80 81 84
966 10 80 81 85
967 10 80 86 89
968 10 80 86 90
969 10 87 88 91
970 10 87 88 92
971 10 87 93 96
972 10 87 93 97
973 10 94 95 98
974 10 94 95 99
975 10 94 100 103
976 10 94 100 104
977 10 101 102 105
978 10 101 102 106
979 10 101 107 110
980 10 101 107 111
981 10 108 109 112
982 10 108 109 113
983 10 108 114 117
984 10 108 114 118
985 10 115 116 119
986 10 115 116 120
987 10 115 121 124
988 10 115 121 125
989 10 122 123 126
990 10 122 123 127
991 10 122 128 131
992 10 122 128 132
993 10 129 130 133
994 10 129 130 134
995 10 129 135 138
996 10 129 135 139
997 10 144 145 149
998 10 144 145 150
999 10 144 151 154
1000 10 144 151 155
1001 10 152 153 156
1002 10 152 153 157
1003 10 152 158 161
1004 10 152 158 162
1005 10 159 160 163
1006 10 159 160 164
1007 10 159 165 168
1008 10 159 165 169
1009 10 166 167 170
1010 10 166 167 171
1011 10 166 172 175
1012 10 166 172 176
1013 10 173 174 177
1014 10 173 174 178
1015 10 173 179 182
1016 10 173 179 183
1017 10 180 181 184
1018 10 180 181 185
1019 10 180 186 189
1020 10 180 186 190
1021 10 187 188 191
1022 10 187 188 192
1023 10 187 193 196
1024 10 187 193 197
1025 10 194 195 198
1026 10 194 195 199
1027 10 194 200 203
1028 10 194 200 204
1029 10 201 202 205
1030 10 201 202 206
1031 10 201 207 210
1032 10 201 207 211
1033 10 208 209 212
1034 10 208 209 213
1035 10 208 214 217
1036 10 208 214 218
1037 10 215 216 219
1038 10 215 216 220
1039 10 215 221 224
1040 10 215 221 225
1041 10 222 223 226
1042 10 222 223 227
1043 10 222 228 231
1044 10 222 228 232
1045 10 229 230 233
1046 10 229 230 234
1047 10 229 235 238
1048 10 229 235 239
1049 10 236 237 240
1050 10 236 237 241
1051 10 236 242 245
1052 10 236 242 246
1053 10 243 244 247
1054 10 243 244 248
1055 10 243 249 252
1056 10 243 249 253
1057 10 250 251 254
1058 10 250 251 255
1059 10 250 256 259
1060 10 250 256 260
1061 10 257 258 261
1062 10 257 258 262
1063 10 257 263 266
1064 10 257 263 267
1065 10 264 265 268
1066 10 264 265 269
1067 10 264 270 273
1068 10 264 270 274
1069 10 271 272 275
1070 10 271 272 276
1071 10 271 277 280
1072 10 271 277 281
1073 10 286 287 291
1074 10 286 287 292
1075 10 286 293 296
1076 10 286 293 297
1077 10 294 295 298
1078 10 294 295 299
1079 10 294 300 303
1080 10 294 300 304
1081 10 301 302 305
1082 10 301 302 306
1083 10 301 307 310
1084 10 301 307 311
1085 10 308 309 312
1086 10 308 309 313
1087 10 308 314 317
1088 10 308 314 318
1089 10 315 316 319
1090 10 315 316 320
1091 10 315 321 324
1092 10 315 321 325
1093 10 322 323 326
1094 10 322 323 327
1095 10 322 328 331
1096 10 322 328 332
1097 10 329 330 333
1098 10 329 330 334
1099 10 329 335 338
1100 10 329 335 339
1101 10 336 337 340
1102 10 336 337 341
1103 10 336 342 345
1104 10 336 342 346
1105 10 343 344 347
1106 10 343 344 348
1107 10 343 349 352
1108 10 343 349 353
1109 10 350 351 354
1110 10 350 351 355
1111 10 350 356 359
1112 10 350 356 360
1113 10 357 358 361
1114 10 357 358 362
1115 10 357 363 366
1116 10 357 363 367
1117 10 364 365 368
1118 10 364 365 369
1119 10 364 370 373
1120 10 364 370 374
1121 10 371 372 375
1122 10 371 372 376
1123 10 371 377 380
1124 10 371 377 381
1125 10 378 379 382
1126 10 378 379 383
1127 10 378 384 387
1128 10 378 384 388
1129 10 385 386 389
1130 10 385 386 390
1131 10 385 391 394
1132 10 385 391 395
1133 10 392 393 396
1134 10 392 393 397
1135 10 392 398 401
1136 10 392 398 402
1137 10 399 400 403
1138 10 399 400 404
1139 10 399 405 408
1140 10 399 405 409
1141 10 406 407 410
1142 10 406 407 411
1143 10 406 412 415
1144 10 406 412 416
1145 10 413 414 417
1146 10 413 414 418
1147 10 413 419 422
1148 10 413 419 423
1149 10 428 429 433
1150 10 428 429 434
1151 10 428 435 438
1152 10 428 435 439
1153 10 436 437 440
1154 10 436 437 441
1155 10 436 442 445
1156 10 436 442 446
1157 10 443 444 447
1158 10 443 444 448
1159 10 443 449 452
1160 10 443 449 453
1161 10 450 451 454
1162 10 450 451 455
1163 10 450 456 459
1164 10 450 456 460
1165 10 457 458 461
1166 10 457 458 462
1167 10 457 463 466
1168 10 457 463 467
1169 10 464 465 468
1170 10 464 465 469
1171 10 464 470 473
1172 10 464 470 474
1173 10 471 472 475
1174 10 471 472 476
1175 10 471 477 480
1176 10 471 477 481
1177 10 478 479 482
1178 10 478 479 483
1179 10 478 484 487
1180 10 478 484 488
1181 10 485 486 489
1182 10 485 486 490
1183 10 485 491 494
1184 10 485 491 495
1185 10 492 493 496
1186 10 492 493 497
1187 10 492 498 501
1188 10 492 498 502
1189 10 499 500 503
1190 10 499 500 504
1191 10 499 505 508
1192 10 499 505 509
1193 10 506 507 510
1194 10 506 507 511
1195 10 506 512 515
1196 10 506 512 516
1197 10 513 514 517
1198 10 513 514 518
1199 10 513 519 522
1200 10 513 519 523
1201 10 520 521 524
1202 10 520 521 525
1203 10 520 526 529
1204 10 520 526 530
1205 10 527 528 531
1206 10 527 528 532
1207 10 527 533 536
1208 10 527 533 537
1209 10 534 535 538
1210 10 534 535 539
1211 10 534 540 543
1212 10 534 540 544
1213 10 541 542 545
1214 10 541 542 546
1215 10 541 547 550
1216 10 541 547 551
1217 10 548 549 552
1218 10 548 549 553
1219 10 548 554 557
1220 10 548 554 558
1221 10 555 556 559
1222 10 555 556 560
1223 10 555 561 564
1224 10 555 561 565
1225 10 570 571 575
1226 10 570 571 576
1227 10 570 577 580
1228 10 570 577 581
1229 10 578 579 582
1230 10 578 579 583
1231 10 578 584 587
1232 10 578 584 588
1233 10 585 586 589
1234 10 585 586 590
1235 10 585 591 594
1236 10 585 591 595
1237 10 592 593 596
1238 10 592 593 597
1239 10 592 598 601
1240 10 592 598 602
1241 10 599 600 603
1242 10 599 600 604
1243 10 599 605 608
1244 10 599 605 609
1245 10 606 607 610
1246 10 606 607 611
1247 10 606 612 615
1248 10 606 612 616
1249 10 613 614 617
1250 10 613 614 618
1251 10 613 619 622
1252 10 613 619 623
1253 10 620 621 624
1254 10 620 621 625
1255 10 620 626 629
1256 10 620 626 630
1257 10 627 628 631
1258 10 627 628 632
1259 10 627 633 636
1260 10 627 633 637
1261 10 634 635 638
1262 10 634 635 639
1263 10 634 640 643
1264 10 634 640 644
1265 10 641 642 645
1266 10 641 642 646
1267 10 641 647 650
1268 10 641 647 651
1269 10 648 649 652
1270 10 648 649 653
1271 10 648 654 657
1272 10 648 654 658
1273 10 655 656 659
1274 10 655 656 660
1275 10 655 661 664
1276 10 655 661 665
1277 10 662 663 666
1278 10 662 663 667
1279 10 662 668 671
1280 10 662 668 672
1281 10 669 670 673
1282 10 669 670 674
1283 10 669 675 678
1284 10 669 675 679
1285 10 676 677 680
1286 10 676 677 681
1287 10 676 682 685
1288 10 676 682 686
1289 10 683 684 687
1290 10 683 684 688
1291 10 683 689 692
1292 10 683 689 693
1293 10 690 691 694
1294 10 690 691 695
1295 10 690 696 699
1296 10 690 696 700
1297 10 697 698 701
1298 10 697 698 702
1299 10 697 703 706
1300 10 697 703 707

Dihedrals

1 8 3 2 9 11
2 8 11 10 16 18
3 8 9 11 10 16
4 8 18 17 23 25
5 8 16 18 17 23
6 8 25 24 30 32
7 8 23 25 24 30
8 8 32 31 37 39
9 8 30 32 31 37
10 8 39 38 44 46
11 8 37 39 38 44
12 8 46 45 51 53
13 8 44 46 45 51
14 8 53 52 58 60
15 8 51 53 52 58
16 8 60 59 65 67
17 8 58 60 59 65
18 8 67 66 72 74
19 8 65 67 66 72
20 8 74 73 79 81
21 8 72 74 73 79
22 8 81 80 86 88
23 8 79 81 80 86
24 8 88 87 93 95
25 8 86 88 87 93
26 8 95 94 100 102
27 8 93 95 94 100
28 8 102 101 107 109
29 8 100 102 101 107
30 8 109 108 114 116
31 8 107 109 108 114
32 8 116 115 121 123
33 8 114 116 115 121
34 8 123 122 128 130
35 8 121 123 122 128
36 8 128 130 129 135
37 8 145 144 151 153
38 8 153 152 158 160
39 8 151 153 152 158
40 8 160 159 165 167
41 8 158 160 159 165
42 8 167 166 172 174
43 8 165 167 166 172
44 8 174 173 179 181
45 8 172 174 173 179
46 8 181 180 186 188
47 8 179 181 180 186
48 8 188 187 193 195
49 8 186 188 187 193
50 8 195 194 200 202
51 8 193 195 194 200
52 8 202 201 207 209
53 8 200 202 201 207
54 8 209 208 214 216
55 8 207 209 208 214
56 8 216 215 221 223
57 8 214 216 215 221
58 8 223 222 228 230
59 8 221 223 222 228
60 8 230 229 235 237
61 8 228 230 229 235
62 8 237 236 242 244
63 8 235 237 236 242
64 8 244 243 249 251
65 8 242 244 243 249
66 8 251 250 256 258
67 8 249 251 250 256
68 8 258 257 263 265
69 8 256 258 257 263
70 8 265 264 270 272
71 8 263 265 264 270
72 8 270 272 271 277
73 8 287 286 293 295
74 8 295 294 300 302
75 8 293 295 294 300
76 8 302 301 307 309
77 8 300 302 301 307
78 8 309 308 314 316
79 8 307 309 308 314
80 8 316 315 321 323
81 8 314 316 315 321
82 8 323 322 328 330
83 8 321 323 322 328
84 8 330 329 335 337
85 8 328 330 329 335
86 8 337 336 342 344
87 8 335 337 336 342
88 8 344 343 349 351
89 8 342 344 343 349
90 8 351 350 356 358
91 8 349 351 350 356
92 8 358 357 363 365
93 8 356 358 357 363
94 8 365 364 370 372
95 8 363 365 364 370
96 8 372 371 377 379
97 8 370 372 371 377
98 8 379 378 384 386
99 8 377 379 378 384
100 8 386 385 391 393
101 8 384 386 385 391
102 8 393 392 398 400
103 8 391 393 392 398
104 8 400 399 405 407
105 8 398 400 399 405
106 8 407 406 412 414
107 8 405 407 406 412
108 8 412 414 413 419
109 8 429 428 435 437
110 8 437 436 442 444
111 8 435 437 436 442
112 8 444 443 449 451
113 8 442 444 443 449
114 8 451 450 456 458
115 8 449 451 450 456
116 8 458 457 463 465
117 8 456 458 457 463
118 8 465 464 470 472
119 8 463 465 464 470
120 8 472 471 477 479
121 8 470 472 471 477
122 8 479 478 484 486
123 8 477 479 478 484
124 8 486 485 491 493
125 8 484 486 485 491
126 8 493 492 498 500
127 8 491 493 492 498
128 8 500 499 505 507
129 8 498 500 499 505
130 8 507 506 512 514
131 8 505 507 506 512
132 8 514 513 519 521
133 8 512 514 513 519
134 8 521 520 526 528
135 8 519 521 520 526
136 8 528 527 533 535
137 8 526 528 527 533
138 8 535 534 540 542
139 8 533 535 534 540
140 8 542 541 547 549
141 8 540 542 541 547
142 8 549 548 554 556
143 8 547 549 548 554
144 8 554 556 555 561
145 8 571 570 577 579
146 8 579 578 584 586
147 8 577 579 578 584
148 8 586 585 591 593
149 8 584 586 585 591
150 8 593 592 598 600
151 8 591 593 592 598
152 8 600 599 605 607
153 8 598 600 599 605
154 8 607 606 612 614
155 8 605 607 606 612
156 8 614 613 619 621
157 8 612 614 613 619
158 8 621 620 626 628
159 8 619 621 620 626
160 8 628 627 633 635
161 8 626 628 627 633
162 8 635 634 640 642
163 8 633 635 634 640
164 8 642 641 647 649
165 8 640 642 641 647
166 8 649 648 654 656
167 8 647 649 648 654
168 8 656 655 661 663
169 8 654 656 655 661
170 8 663 662 668 670
171 8 661 663 662 668
172 8 670 669 675 677
173 8 668 670 669 675
174 8 677 676 682 684
175 8 675 677 676 682
176 8 684 683 689 691
177 8 682 684 683 689
178 8 691 690 696 698
179 8 689 691 690 696
180 8 696 698 697 703
181 8 1 3 2 9
182 8 143 145 144 151
183 8 285 287 286 293
184 8 427 429 428 435
185 8 569 571 570 577
186 8 130 129 135 136
187 8 272 271 277 278
188 8 414 413 419 420
189 8 556 555 561 562
190 8 698 697 703 704
191 10 4 1 3 7
192 10 4 1 3 8
193 10 5 1 3 7
194 10 5 1 3 8
195 10 6 1 3 7
196 10 6 1 3 8
197 10 146 143 145 149
198 10 146 143 145 150
199 10 147 143 145 149
200 10 147 143 145 150
201 10 148 143 145 149
202 10 148 143 145 150
203 10 288 285 287 291
204 10 288 285 287 292
205 10 289 285 287 291
206 10 289 285 287 292
207 10 290 285 287 291
208 10 290 285 287 292
209 10 430 427 429 433
210 10 430 427 429 434
211 10 431 427 429 433
212 10 431 427 429 434
213 10 432 427 429 433
214 10 432 427 429 434
215 10 572 569 571 575
216 10 572 569 571 576
217 10 573 569 571 575
218 10 573 569 571 576
219 10 574 569 571 575
220 10 574 569 571 576
221 10 12 9 11 14
222 10 12 9 11 15
223 10 13 9 11 14
224 10 13 9 11 15
225 10 19 16 18 21
226 10 19 16 18 22
227 10 20 16 18 21
228 10 20 16 18 22
229 10 26 23 25 28
230 10 26 23 25 29
231 10 27 23 25 28
232 10 27 23 25 29
233 10 33 30 32 35
234 10 33 30 32 36
235 10 34 30 32 35
236 10 34 30 32 36
237 10 40 37 39 42
238 10 40 37 39 43
239 10 41 37 39 42
240 10 41 37 39 43
241 10 47 44 46 49
242 10 47 44 46 50
243 10 48 44 46 49
244 10 48 44 46 50
245 10 54 51 53 56
246 10 54 51 53 57
247 10 55 51 53 56
248 10 55 51 53 57
249 10 61 58 60 63
250 10 61 58 60 64
251 10 62 58 60 63
252 10 62 58 60 64
253 10 68 65 67 70
254 10 68 65 67 71
255 10 69 65 67 70
256 10 69 65 67 71
257 10 75 72 74 77
258 10 75 72 74 78
259 10 76 72 74 77
260 10 76 72 74 78
261 10 82 79 81 84
262 10 82 79 81 85
263 10 83 79 81 84
264 10 83 79 81 85
265 10 89 86 88 91
266 10 89 86 88 92
267 10 90 86 88 91
268 10 90 86 88 92
269 10 96 93 95 98
270 10 96 93 95 99
271 10 97 93 95 98
272 10 97 93 95 99
273 10 103 100 102 105
274 10 103 100 102 106
275 10 104 100 102 105
276 10 104 100 102 106
277 10 110 107 109 112
278 10 110 107 109 113
279 10 111 107 109 112
280 10 111 107 109 113
281 10 117 114 116 119
282 10 117 114 116 120
283 10 118 114 116 119
284 10 118 114 116 120
285 10 124 121 123 126
286 10 124 121 123 127
287 10 125 121 123 126
288 10 125 121 123 127
289 10 131 128 130 133
290 10 131 128 130 134
291 10 132 128 130 133
292 10 132 128 130 134
293 10 154 151 153 156
294 10 154 151 153 157
295 10 155 151 153 156
296 10 155 151 153 157
297 10 161 158 160 163
298 10 161 158 160 164
299 10 162 158 160 163
300 10 162 158 160 164
301 10 168 165 167 170
302 10 168 165 167 171
303 10 169 165 167 170
304 10 169 165 167 171
305 10 175 172 174 177
306 10 175 172 174 178
307 10 176 172 174 177
308 10 176 172 174 178
309 10 182 179 181 184
310 10 182 179 181 185
311 10 183 179 181 184
312 10 183 179 181 185
313 10 189 186 188 191
314 10 189 186 188 192
315 10 190 186 188 191
316 10 190 186 188 192
317 10 196 193 195 198
318 10 196 193 195 199
319 10 197 193 195 198
320 10 197 193 195 199
321 10 203 200 202 205
322 10 203 200 202 206
323 10 204 200 202 205
324 10 204 200 202 206
325 10 210 207 209 212
326 10 210 207 209 213
327 10 211 207 209 212
328 10 211 207 209 213
329 10 217 214 216 219
330 10 217 214 216 220
331 10 218 214 216 219
332 10 218 214 216 220
333 10 224 221 223 226
334 10 224 221 223 227
335 10 225 221 223 226
336 10 225 221 223 227
337 10 231 228 230 233
338 10 231 228 230 234
339 10 232 228 230 233
340 10 232 228 230 234
341 10 238 235 237 240
342 10 238 235 237 241
343 10 239 235 237 240
344 10 239 235 237 241
345 10 245 242 244 247
346 10 245 242 244 248
347 10 246 242 244 247
348 10 246 242 244 248
349 10 252 249 251 254
350 10 252 249 251 255
351 10 253 249 251 254
352 10 253 249 251 255
353 10 259 256 258 261
354 10 259 256 258 262
355 10 260 256 258 261
356 10 260 256 258 262
357 10 266 263 265 268
358 10 266 263 265 269
359 10 267 263 265 268
360 10 267 263 265 269
361 10 273 270 272 275
362 10 273 270 272 276
363 10 274 270 272 275
364 10 274 270 272 276
365 10 296 293 295 298
366 10 296 293 295 299
367 10 297 293 295 298
368 10 297 293 295 299
369 10 303 300 302 305
370 10 303 300 302 306
371 10 304 300 302 305
372 10 304 300 302 306
373 10 310 307 309 312
374 10 310 307 309 313
375 10 311 307 309 312
376 10 311 307 309 313
377 10 317 314 316 319
378 10 317 314 316 320
379 10 318 314 316 319
380 10 318 314 316 320
381 10 324 321 323 326
382 10 324 321 323 327
383 10 325 321 323 326
384 10 325 321 323 327
385 10 331 328 330 333
386 10 331 328 330 334
387 10 332 328 330 333
388 10 332 328 330 334
389 10 338 335 337 340
390 10 338 335 337 341
391 10 339 335 337 340
392 10 339 335 337 341
393 10 345 342 344 347
394 10 345 342 344 348
395 10 346 342 344 347
396 10 346 342 344 348
397 10 352 349 351 354
398 10 352 349 351 355
399 10 353 349 351 354
400 10 353 349 351 355
401 10 359 356 358 361
402 10 359 356 358 362
403 10 360 356 358 361
404 10 360 356 358 362
405 10 366 363 365 368
406 10 366 363 365 369
407 10 367 363 365 368
408 10 367 363 365 369
409 10 373 370 372 375
410 10 373 370 372 376
411 10 374 370 372 375
412 10 374 370 372 376
413 10 380 377 379 382
414 10 380 377 379 383
415 10 381 377 379 382
416 10 381 377 379 383
417 10 387 384 386 389
418 10 387 384 386 390
419 10 388 384 386 389
420 10 388 384 386 390
421 10 394 391 393 396
422 10 394 391 393 397
423 10 395 391 393 396
424 10 395 391 393 397
425 10 401 398 400 403
426 10 401 398 400 404
427 10 402 398 400 403
428 10 402 398 400 404
429 10 408 405 407 410
430 10 408 405 407 411
431 10 409 405 407 410
432 10 409 405 407 411
433 10 415 412 414 417
434 10 415 412 414 418
435 10 416 412 414 417
436 10 416 412 414 418
437 10 438 435 437 440
438 10 438 435 437 441
439 10 439 435 437 440
440 10 439 435 437 441
441 10 445 442 444 447
442 10 445 442 444 448
443 10 446 442 444 447
444 10 446 442 444 448
445 10 452 449 451 454
446 10 452 449 451 455
447 10 453 449 451 454
448 10 453 449 451 455
449 10 459 456 458 461
450 10 459 456 458 462
451 10 460 456 458 461
452 10 460 456 458 462
453 10 466 463 465 468
454 10 466 463 465 469
455 10 467 463 465 468
456 10 467 463 465 469
457 10 473 470 472 475
458 10 473 470 472 476
459 10 474 470 472 475
460 10 474 470 472 476
461 10 480 477 479 482
462 10 480 477 479 483
463 10 481 477 479 482
464 10 481 477 479 483
465 10 487 484 486 489
466 10 487 484 486 490
467 10 488 484 486 489
468 10 488 484 486 490
469 10 494 491 493 496
470 10 494 491 493 497
471 10 495 491 493 496
472 10 495 491 493 497
473 10 501 498 500 503
474 10 501 498 500 504
475 10 502 498 500 503
476 10 502 498 500 504
477 10 508 505 507 510
478 10 508 505 507 511
479 10 509 505 507 510
480 10 509 505 507 511
481 10 515 512 514 517
482 10 515 512 514 518
483 10 516 512 514 517
484 10 516 512 514 518
485 10 522 519 521 524
486 10 522 519 521 525
487 10 523 519 521 524
488 10 523 519 521 525
489 10 529 526 528 531
490 10 529 526 528 532
491 10 530 526 528 531
492 10 530 526 528 532
493 10 536 533 535 538
494 10 536 533 535 539
495 10 537 533 535 538
496 10 537 533 535 539
497 10 543 540 542 545
498 10 543 540 542 546
499 10 544 540 542 545
500 10 544 540 542 546
501 10 550 547 549 552
502 10 550 547 549 553
503 10 551 547 549 552
504 10 551 547 549 553
505 10 557 554 556 559
506 10 557 554 556 560
507 10 558 554 556 559
508 10 558 554 556 560
509 10 580 577 579 582
510 10 580 577 579 583
511 10 581 577 579 582
512 10 581 577 579 583
513 10 587 584 586 589
514 10 587 584 586 590
515 10 588 584 586 589
516 10 588 584 586 590
517 10 594 591 593 596
518 10 594 591 593 597
519 10 595 591 593 596
520 10 595 591 593 597
521 10 601 598 600 603
522 10 601 598 600 604
523 10 602 598 600 603
524 10 602 598 600 604
525 10 608 605 607 610
526 10 608 605 607 611
527 10 609 605 607 610
528 10 609 605 607 611
529 10 615 612 614 617
530 10 615 612 614 618
531 10 616 612 614 617
532 10 616 612 614 618
533 10 622 619 621 624
534 10 622 619 621 625
535 10 623 619 621 624
536 10 623 619 621 625
537 10 629 626 628 631
538 10 629 626 628 632
539 10 630 626 628 631
540 10 630 626 628 632
541 10 636 633 635 638
542 10 636 633 635 639
543 10 637 633 635 638
544 10 637 633 635 639
545 10 643 640 642 645
546 10 643 640 642 646
547 10 644 640 642 645
548 10 644 640 642 646
549 10 650 647 649 652
550 10 650 647 649 653
551 10 651 647 649 652
552 10 651 647 649 653
553 10 657 654 656 659
554 10 657 654 656 660
555 10 658 654 656 659
556 10 658 654 656 660
557 10 664 661 663 666
558 10 664 661 663 667
559 10 665 661 663 666
560 10 665 661 663 667
561 10 671 668 670 673
562 10 671 668 670 674
563 10 672 668 670 673
564 10 672 668 670 674
565 10 678 675 677 680
566 10 678 675 677 681
567 10 679 675 677 680
568 10 679 675 677 681
569 10 685 682 684 687
570 10 685 682 684 688
571 10 686 682 684 687
572 10 686 682 684 688
573 10 692 689 691 694
574 10 692 689 691 695
575 10 693 689 691 694
576 10 693 689 691 695
577 10 699 696 698 701
578 10 699 696 698 702
579 10 700 696 698 701
580 10 700 696 698 702
581 10 138 135 136 140
582 10 138 135 136 141
583 10 139 135 136 140
584 10 139 135 136 141
585 10 280 277 278 282
586 10 280 277 278 283
587 10 281 277 278 282
588 10 281 277 278 283
589 10 422 419 420 424
590 10 422 419 420 425
591 10 423 419 420 424
592 10 423 419 420 425
593 10 564 561 562 566
594 10 564 561 562 567
595 10 565 561 562 566
596 10 565 561 562 567
597 10 706 703 704 708
598 10 706 703 704 709
599 10 707 703 704 708
600 10 707 703 704 709
601 11 137 136 135 138
602 11 137 136 135 139
603 11 279 278 277 280
604 11 279 278 277 281
605 11 421 420 419 422
606 11 421 420 419 423
607 11 563 562 561 564
608 11 563 562 561 565
609 11 705 704 703 706
610 11 705 704 703 707
611 12 2 3 1 4
612 12 2 3 1 5
613 12 2 3 1 6
614 12 144 145 143 146
615 12 144 145 143 147
616 12 144 145 143 148
617 12 286 287 285 288
618 12 286 287 285 289
619 12 286 287 285 290
620 12 428 429 427 430
621 12 428 429 427 431
622 12 428 429 427 432
623 12 570 571 569 572
624 12 570 571 569 573
625 12 570 571 569 574
626 12 10 11 9 12
627 12 10 11 9 13
628 12 2 9 11 14
629 12 2 9 11 15
630 12 17 18 16 19
631 12 17 18 16 20
632 12 10 16 18 21
633 12 10 16 18 22
634 12 24 25 23 26
635 12 24 25 23 27
636 12 17 23 25 28
637 12 17 23 25 29
638 12 31 32 30 33
639 12 31 32 30 34
640 12 24 30 32 35
641 12 24 30 32 36
642 12 38 39 37 40
643 12 38 39 37 41
644 12 31 37 39 42
645 12 31 37 39 43
646 12 45 46 44 47
647 12 45 46 44 48
648 12 38 44 46 49
649 12 38 44 46 50
650 12 52 53 51 54
651 12 52 53 51 55
652 12 45 51 53 56
653 12 45 51 53 57
654 12 59 60 58 61
655 12 59 60 58 62
656 12 52 58 60 63
657 12 52 58 60 64
658 12 66 67 65 68
659 12 66 67 65 69
660 12 59 65 67 70
661 12 59 65 67 71
662 12 73 74 72 75
663 12 73 74 72 76
664 12 66 72 74 77
665 12 66 72 74 78
666 12 80 81 79 82
667 12 80 81 79 83
668 12 73 79 81 84
669 12 73 79 81 85
670 12 87 88 86 89
671 12 87 88 86 90
672 12 80 86 88 91
673 12 80 86 88 92
674 12 94 95 93 96
675 12 94 95 93 97
676 12 87 93 95 98
677 12 87 93 95 99
678 12 101 102 100 103
679 12 101 102 100 104
680 12 94 100 102 105
681 12 94 100 102 106
682 12 108 109 107 110
683 12 108 109 107 111
684 12 101 107 109 112
685 12 101 107 109 113
686 12 115 116 114 117
687 12 115 116 114 118
688 12 108 114 116 119
689 12 108 114 116 120
690 12 122 123 121 124
691 12 122 123 121 125
692 12 115 121 123 126
693 12 115 121 123 127
694 12 129 130 128 131
695 12 129 130 128 132
696 12 122 128 130 133
697 12 122 128 130 134
698 12 152 153 151 154
699 12 152 153 151 155
700 12 144 151 153 156
701 12 144 151 153 157
702 12 159 160 158 161
703 12 159 160 158 162
704 12 152 158 160 163
705 12 152 158 160 164
706 12 166 167 165 168
707 12 166 167 165 169
708 12 159 165 167 170
709 12 159 165 167 171
710 12 173 174 172 175
711 12 173 174 172 176
712 12 166 172 174 177
713 12 166 172 174 178
714 12 180 181 179 182
715 12 180 181 179 183
716 12 173 179 181 184
717 12 173 179 181 185
718 12 187 188 186 189
719 12 187 188 186 190
720 12 180 186 188 191
721 12 180 186 188 192
722 12 194 195 193 196
723 12 194 195 193 197
724 12 187 193 195 198
725 12 187 193 195 199
726 12 201 202 200 203
727 12 201 202 200 204
728 12 194 200 202 205
729 12 194 200 202 206
730 12 208 209 207 210
731 12 208 209 207 211
732 12 201 207 209 212
733 12 201 207 209 213
734 12 215 216 214 217
735 12 215 216 214 218
736 12 208 214 216 219
737 12 208 214 216 220
738 12 222 223 221 224
739 12 222 223 221 225
740 12 215 221 223 226
741 12 215 221 223 227
742 12 229 230 228 231
743 12 229 230 228 232
744 12 222 228 230 233
745 12 222 228 230 234
746 12 236 237 235 238
747 12 236 237 235 239
748 12 229 235 237 240
749 12 229 235 237 241
750 12 243 244 242 245
751 12 243 244 242 246
752 12 236 242 244 247
753 12 236 242 244 248
754 12 250 251 249 252
755 12 250 251 249 253
756 12 243 249 251 254
757 12 243 249 251 255
758 12 257 258 256 259
759 12 257 258 256 260
760 12 250 256 258 261
761 12 250 256 258 262
762 12 264 265 263 266
763 12 264 265 263 267
764 12 257 263 265 268
765 12 257 263 265 269
766 12 271 272 270 273
767 12 271 272 270 274
768 12 264 270 272 275
769 12 264 270 272 276
770 12 294 295 293 296
771 12 294 295 293 297
772 12 286 293 295 298
773 12 286 293 295 299
774 12 301 302 300 303
775 12 301 302 300 304
776 12 294 300 302 305
777 12 294 300 302 306
778 12 308 309 307 310
779 12 308 309 307 311
780 12 301 307 309 312
781 12 301 307 309 313
782 12 315 316 314 317
783 12 315 316 314 318
784 12 308 314 316 319
785 12 308 314 316 320
786 12 322 323 321 324
787 12 322 323 321 325
788 12 315 321 323 326
789 12 315 321 323 327
790 12 329 330 328 331
791 12 329 330 328 332
792 12 322 328 330 333
793 12 322 328 330 334
794 12 336 337 335 338
795 12 336 337 335 339
796 12 329 335 337 340
797 12 329 335 337 341
798 12 343 344 342 345
799 12 343 344 342 346
800 12 336 342 344 347
801 12 336 342 344 348
802 12 350 351 349 352
803 12 350 351 349 353
804 12 343 349 351 354
805 12 343 349 351 355
806 12 357 358 356 359
807 12 357 358 356 360
808 12 350 356 358 361
809 12 350 356 358 362
810 12 364 365 363 366
811 12 364 365 363 367
812 12 357 363 365 368
813 12 357 363 365 369
814 12 371 372 370 373
815 12 371 372 370 374
816 12 364 370 372 375
817 12 364 370 372 376
818 12 378 379 377 380
819 12 378 379 377 381
820 12 371 377 379 382
821 12 371 377 379 383
822 12 385 386 384 387
823 12 385 386 384 388
824 12 378 384 386 389
825 12 378 384 386 390
826 12 392 393 391 394
827 12 392 393 391 395
828 12 385 391 393 396
829 12 385 391 393 397
830 12 399 400 398 401
831 12 399 400 398 402
832 12 392 398 400 403
833 12 392 398 400 404
834 12 406 407 405 408
835 12 406 407 405 409
836 12 399 405 407 410
837 12 399 405 407 411
838 12 413 414 412 415
839 12 413 414 412 416
840 12 406 412 414 417
841 12 406 412 414 418
842 12 436 437 435 438
843 12 436 437 435 439
844 12 428 435 437 440
845 12 428 435 437 441
846 12 443 444 442 445
847 12 443 444 442 446
848 12 436 442 444 447
849 12 436 442 444 448
850 12 450 451 449 452
851 12 450 451 449 453
852 12 443 449 451 454
853 12 443 449 451 455
854 12 457 458 456 459
855 12 457 458 456 460
856 12 450 456 458 461
857 12 450 456 458 462
858 12 464 465 463 466
859 12 464 465 463 467
860 12 457 463 465 468
861 12 457 463 465 469
862 12 471 472 470 473
863 12 471 472 470 474
864 12 464 470 472 475
865 12 464 470 472 476
866 12 478 479 477 480
867 12 478 479 477 481
868 12 471 477 479 482
869 12 471 477 479 483
870 12 485 486 484 487
871 12 485 486 484 488
872 12 478 484 486 489
873 12 478 484 486 490
874 12 492 493 491 494
875 12 492 493 491 495
876 12 485 491 493 496
877 12 485 491 493 497
878 12 499 500 498 501
879 12 499 500 498 502
880 12 492 498 500 503
881 12 492 498 500 504
882 12 506 507 505 508
883 12 506 507 505 509
884 12 499 505 507 510
885 12 499 505 507 511
886 12 513 514 512 515
887 12 513 514 512 516
888 12 506 512 514 517
889 12 506 512 514 518
890 12 520 521 519 522
891 12 520 521 519 523
892 12 513 519 521 524
893 12 513 519 521 525
894 12 527 528 526 529
895 12 527 528 526 530
896 12 520 526 528 531
897 12 520 526 528 532
898 12 534 535 533 536
899 12 534 535 533 537
900 12 527 533 535 538
901 12 527 533 535 539
902 12 541 542 540 543
903 12 541 542 540 544
904 12 534 540 542 545
905 12 534 540 542 546
906 12 548 549 547 550
907 12 548 549 547 551
908 12 541 547 549 552
909 12 541 547 549 553
910 12 555 556 554 557
911 12 555 556 554 558
912 12 548 554 556 559
913 12 548 554 556 560
914 12 578 579 577 580
915 12 578 579 577 581
916 12 570 577 579 582
917 12 570 577 579 583
918 12 585 586 584 587
919 12 585 586 584 588
920 12 578 584 586 589
921 12 578 584 586 590
922 12 592 593 591 594
923 12 592 593 591 595
924 12 585 591 593 596
925 12 585 591 593 597
926 12 599 600 598 601
927 12 599 600 598 602
928 12 592 598 600 603
929 12 592 598 600 604
930 12 606 607 605 608
931 12 606 607 605 609
932 12 599 605 607 610
933 12 599 605 607 611
934 12 613 614 612 615
935 12 613 614 612 616
936 12 606 612 614 617
937 12 606 612 614 618
938 12 620 621 619 622
939 12 620 621 619 623
940 12 613 619 621 624
941 12 613 619 621 625
942 12 627 628 626 629
943 12 627 628 626 630
944 12 620 626 628 631
945 12 620 626 628 632
946 12 634 635 633 636
947 12 634 635 633 637
948 12 627 633 635 638
949 12 627 633 635 639
950 12 641 642 640 643
951 12 641 642 640 644
952 12 634 640 642 645
953 12 634 640 642 646
954 12 648 649 647 650
955 12 648 649 647 651
956 12 641 647 649 652
957 12 641 647 649 653
958 12 655 656 654 657
959 12 655 656 654 658
960 12 648 654 656 659
961 12 648 654 656 660
962 12 662 663 661 664
963 12 662 663 661 665
964 12 655 661 663 666
965 12 655 661 663 667
966 12 669 670 668 671
967 12 669 670 668 672
968 12 662 668 670 673
969 12 662 668 670 674
970 12 676 677 675 678
971 12 676 677 675 679
972 12 669 675 677 680
973 12 669 675 677 681
974 12 683 684 682 685
975 12 683 684 682 686
976 12 676 682 684 687
977 12 676 682 684 688
978 12 690 691 689 692
979 12 690 691 689 693
980 12 683 689 691 694
981 12 683 689 691 695
982 12 697 698 696 699
983 12 697 698 696 700
984 12 690 696 698 701
985 12 690 696 698 702
986 12 129 135 136 140
987 12 129 135 136 141
988 12 271 277 278 282
989 12 271 277 278 283
990 12 413 419 420 424
991 12 413 419 420 425
992 12 555 561 562 566
993 12 555 561 562 567
994 12 697 703 704 708
995 12 697 703 704 709
996 15 140 136 137 142
997 15 141 136 137 142
998 15 282 278 279 284
999 15 283 278 279 284
1000 15 424 420 421 426
1001 15 425 420 421 426
1002 15 566 562 563 568
1003 15 567 562 563 568
1004 15 708 704 705 710
1005 15 709 704 705 710
1006 16 135 136 137 142
1007 16 277 278 279 284
1008 16 419 420 421 426
1009 16 561 562 563 568
1010 16 703 704 705 710
1011 20 129 135 136 137
1012 20 271 277 278 279
1013 20 413 419 420 421
1014 20 555 561 562 563
1015 20 697 703 704 705
1016 21 2 9 11 10
1017 21 10 16 18 17
1018 21 17 23 25 24
1019 21 24 30 32 31
1020 21 31 37 39 38
1021 21 38 44 46 45
1022 21 45 51 53 52
1023 21 52 58 60 59
1024 21 59 65 67 66
1025 21 66 72 74 73
1026 21 73 79 81 80
1027 21 80 86 88 87
1028 21 87 93 95 94
1029 21 94 100 102 101
1030 21 101 107 109 108
1031 21 108 114 116 115
1032 21 115 121 123 122
1033 21 122 128 130 129
1034 21 144 151 153 152
1035 21 152 158 160 159
1036 21 159 165 167 166
1037 21 166 172 174 173
1038 21 173 179 181 180
1039 21 180 186 188 187
1040 21 187 193 195 194
1041 21 194 200 202 201
1042 21 201 207 209 208
1043 21 208 214 216 215
1044 21 215 221 223 222
1045 21 222 228 230 229
1046 21 229 235 237 236
1047 21 236 242 244 243
1048 21 243 249 251 250
1049 21 250 256 258 257
1050 21 257 263 265 264
1051 21 264 270 272 271
1052 21 286 293 295 294
1053 21 294 300 302 301
1054 21 301 307 309 308
1055 21 308 314 316 315
1056 21 315 321 323 322
1057 21 322 328 330 329
1058 21 329 335 337 336
1059 21 336 342 344 343
1060 21 343 349 351 350
1061 21 350 356 358 357
1062 21 357 363 365 364
1063 21 364 370 372 371
1064 21 371 377 379 378
1065 21 378 384 386 385
1066 21 385 391 393 392
1067 21 392 398 400 399
1068 21 399 405 407 406
1069 21 406 412 414 413
1070 21 428 435 437 436
1071 21 436 442 444 443
1072 21 443 449 451 450
1073 21 450 456 458 457
1074 21 457 463 465 464
1075 21 464 470 472 471
1076 21 471 477 479 478
1077 21 478 484 486 485
1078 21 485 491 493 492
1079 21 492 498 500 499
1080 21 499 505 507 506
1081 21 506 512 514 513
1082 21 513 519 521 520
1083 21 520 526 528 527
1084 21 527 533 535 534
1085 21 534 540 542 541
1086 21 541 547 549 548
1087 21 548 554 556 555
1088 21 570 577 579 578
1089 21 578 584 586 585
1090 21 585 591 593 592
1091 21 592 598 600 599
1092 21 599 605 607 606
1093 21 606 612 614 613
1094 21 613 619 621 620
1095 21 620 626 628 627
1096 21 627 633 635 634
1097 21 634 640 642 641
1098 21 641 647 649 648
1099 21 648 654 656 655
1100 21 655 661 663 662
1101 21 662 668 670 669
1102 21 669 675 677 676
1103 21 676 682 684 683
1104 21 683 689 691 690
1105 21 690 696 698 697

