    pair_coeff 1 1 0.175 3.905 
    pair_coeff 2 2 0.118 3.905 
    pair_coeff 3 3 0.08 3.85 
    pair_coeff 4 4 0.066 3.5 
    pair_coeff 5 5 0.066 3.5 
    pair_coeff 6 6 0.03 2.5 
    bond_coeff 1 harmonic 260.0 1.526
    bond_coeff 2 harmonic 260.0 1.526
    bond_coeff 3 harmonic 260.0 1.526
    bond_coeff 4 harmonic 260.0 1.526
    bond_coeff 5 harmonic 260.0 1.526
    bond_coeff 6 harmonic 260.0 1.526
    bond_coeff 7 harmonic 260.0 1.526
    bond_coeff 8 harmonic 260.0 1.526
    bond_coeff 9 harmonic 260.0 1.526
    bond_coeff 10 harmonic 260.0 1.526
    bond_coeff 11 harmonic 268.0 1.529
    bond_coeff 12 harmonic 268.0 1.529
    bond_coeff 13 harmonic 268.0 1.529
    bond_coeff 14 harmonic 268.0 1.529
    bond_coeff 15 harmonic 340.0 1.09
    bond_coeff 16 harmonic 340.0 1.09
    angle_coeff 1 harmonic 63.0 112.4
    angle_coeff 2 harmonic 63.0 112.4
    angle_coeff 3 harmonic 63.0 112.4
    angle_coeff 4 harmonic 63.0 112.4
    angle_coeff 5 harmonic 63.0 112.4
    angle_coeff 6 harmonic 63.0 112.4
    angle_coeff 7 harmonic 63.0 112.4
    angle_coeff 8 harmonic 63.0 112.4
    angle_coeff 9 harmonic 63.0 112.4
    angle_coeff 10 harmonic 63.0 111.5
    angle_coeff 11 harmonic 63.0 112.4
    angle_coeff 12 harmonic 63.0 111.5
    angle_coeff 13 harmonic 63.0 111.5
    angle_coeff 14 harmonic 63.0 111.5
    angle_coeff 15 harmonic 40.0 109.5
    angle_coeff 16 harmonic 40.0 109.5
    angle_coeff 17 harmonic 40.0 109.5
    angle_coeff 18 harmonic 40.0 109.5
    angle_coeff 19 harmonic 40.0 109.5
    angle_coeff 20 harmonic 40.0 109.5
    angle_coeff 21 harmonic 58.35 112.7
    angle_coeff 22 harmonic 58.35 112.7
    angle_coeff 23 harmonic 58.35 112.7
    angle_coeff 24 harmonic 58.35 112.7
    angle_coeff 25 harmonic 58.35 112.7
    angle_coeff 26 harmonic 58.35 112.7
    angle_coeff 27 harmonic 58.35 112.7
    angle_coeff 28 harmonic 58.35 112.7
    angle_coeff 29 harmonic 33.0 107.8
    angle_coeff 30 harmonic 33.0 107.8
    angle_coeff 31 harmonic 35.0 109.5
    angle_coeff 32 harmonic 35.0 109.5
    angle_coeff 33 harmonic 37.5 110.7
    angle_coeff 34 harmonic 37.5 110.7
    angle_coeff 35 harmonic 37.5 110.7
    angle_coeff 36 harmonic 37.5 110.7
    dihedral_coeff 1 opls -2.5 1.25 3.1 0.0
    dihedral_coeff 2 opls -2.5 1.25 3.1 0.0
    dihedral_coeff 3 opls -3.4 1.25 3.1 0.0
    dihedral_coeff 4 opls -3.4 1.25 3.1 0.0
    dihedral_coeff 5 opls -3.4 1.25 3.1 0.0
    dihedral_coeff 6 opls -3.4 1.25 3.1 0.0
    dihedral_coeff 7 opls -3.4 1.25 3.1 0.0
    dihedral_coeff 8 opls -3.4 1.25 3.1 0.0
    dihedral_coeff 9 opls -3.4 1.25 3.1 0.0
    dihedral_coeff 10 opls -2.5 1.25 3.1 0.0
    dihedral_coeff 11 opls -3.4 1.25 3.1 0.0
    dihedral_coeff 12 opls -3.4 1.25 3.1 0.0
    dihedral_coeff 13 opls -3.4 1.25 3.1 0.0
    dihedral_coeff 14 opls 1.711 -0.5 0.663 0.0
    dihedral_coeff 15 opls 1.711 -0.5 0.663 0.0
    dihedral_coeff 16 opls 1.711 -0.5 0.663 0.0
    dihedral_coeff 17 opls 1.711 -0.5 0.663 0.0
    dihedral_coeff 18 opls 1.711 -0.5 0.663 0.0
    dihedral_coeff 19 opls 1.711 -0.5 0.663 0.0
    dihedral_coeff 20 opls 1.711 -0.5 0.663 0.0
    dihedral_coeff 21 opls 1.711 -0.5 0.663 0.0
    dihedral_coeff 22 opls 1.3 -0.05 0.2 0.0
    dihedral_coeff 23 opls 1.3 -0.05 0.2 0.0
    dihedral_coeff 24 opls 1.3 -0.05 0.2 0.0
    dihedral_coeff 25 opls 1.3 -0.05 0.2 0.0
    dihedral_coeff 26 opls 1.3 -0.05 0.2 0.0
    dihedral_coeff 27 opls 1.3 -0.05 0.2 0.0
    dihedral_coeff 28 opls 1.3 -0.05 0.2 0.0
    dihedral_coeff 29 opls 1.3 -0.05 0.2 0.0
    dihedral_coeff 30 opls 1.3 -0.05 0.2 0.0
    dihedral_coeff 31 opls 1.3 -0.05 0.2 0.0
    dihedral_coeff 32 opls 1.3 -0.05 0.2 0.0
    dihedral_coeff 33 opls 1.3 -0.05 0.2 0.0
    dihedral_coeff 34 opls 1.3 -0.05 0.2 0.0
    dihedral_coeff 35 opls 1.3 -0.05 0.2 0.0
    dihedral_coeff 36 opls 1.3 -0.05 0.2 0.0
    dihedral_coeff 37 opls 1.3 -0.05 0.2 0.0
    dihedral_coeff 38 opls 0.0 0.0 0.3 0.0
    dihedral_coeff 39 opls 0.0 0.0 0.3 0.0
    dihedral_coeff 40 opls 0.0 0.0 0.3 0.0
    dihedral_coeff 41 opls 0.0 0.0 0.3 0.0
    dihedral_coeff 42 opls 0.0 0.0 0.3 0.0
    dihedral_coeff 43 opls 0.0 0.0 0.3 0.0
    dihedral_coeff 44 opls 0.0 0.0 0.3 0.0
    dihedral_coeff 45 opls 0.0 0.0 0.3 0.0
    dihedral_coeff 46 opls 0.0 0.0 0.3 0.0
    dihedral_coeff 47 opls 0.0 0.0 0.3 0.0
    dihedral_coeff 48 opls 0.0 0.0 0.3 0.0
    dihedral_coeff 49 opls 0.0 0.0 0.3 0.0

