LAMMPS Description

     6020  atoms
     6010  bonds
     10020  angles
     9500  dihedrals
     0  impropers

     9  atom types
     34  bond types
     93  angle types
     156  dihedral types

  -433.6899 433.6899 xlo xhi
  -433.6899 433.6899 ylo yhi
  -433.6899 433.6899 zlo zhi

Masses

    1 12.011 #CT "Alkane CH3-" 6 partial charge=-0.18
    2 12.011 #CT "Alkane -CH2-" 6 partial charge=-0.12
    3 1.008 #HC "Alkane H-C" 1 partial charge=0.06
    4 12.011 #C "Ester -COOR" 6 partial charge=0.51
    5 15.999 #O "Ester C=O" 8 partial charge=-0.43
    6 15.999 #OS "Ester CO-O-R" 8 partial charge=-0.33
    7 1.008 #HC "Ester -OCH<" 1 partial charge=0.03
    8 12.011 #CT "Et Ester -OCH2R" 6 partial charge=0.19
    9 12.011 #CT "i-Pr Ester -OCHR2" 6 partial charge=0.22

Atoms # full

1 1 1 -0.1800 -0.763 0.0 0.0
2 1 9 0.2200 0.763 0.0 0.0
3 1 6 -0.3300 1.206 -0.493 1.254
4 1 4 0.5100 2.595 -0.561 1.426
5 1 5 -0.4300 3.385 -0.204 0.517
6 1 1 -0.1800 3.173 -1.064 2.705
7 1 3 0.0600 -1.129 -1.023 0.168
8 1 3 0.0600 -1.139 0.372 -0.973
9 1 3 0.0600 -1.073 0.65 0.832
10 1 7 0.0300 1.173 1.0 -0.146
11 1 3 0.0600 2.365 -1.452 3.336
12 1 3 0.0600 3.791 -0.284 3.204
13 1 3 0.0600 3.887 -1.875 2.397
14 1 2 -0.1200 2.772 0.0 0.0
15 1 9 0.2200 4.279999999999999 0.0 0.0
16 1 6 -0.3300 4.82 -0.49000000000000005 -1.196
17 1 4 0.5100 4.5809999999999995 0.08299999999999985 -2.426
18 1 5 -0.4300 3.8449999999999998 1.1069999999999998 -2.552
19 1 1 -0.1800 5.202 -0.5150000000000002 -3.63
20 1 3 0.0600 2.346 0.10999999999999995 -1.019
21 1 3 0.0600 2.3499999999999996 0.666 0.748
22 1 7 0.0300 4.68 -0.588 0.851
23 1 3 0.0600 4.574999999999999 -0.4570000000000003 -4.521
24 1 3 0.0600 5.521 -1.5610000000000002 -3.418
25 1 3 0.0600 6.144 0.025999999999999763 -3.859
26 1 2 -0.1200 6.279999999999999 0.0 0.0
27 1 9 0.2200 7.788 0.0 0.0
28 1 6 -0.3300 8.328 -1.196 -0.49
29 1 4 0.5100 8.089 -2.426 0.083
30 1 5 -0.4300 7.353 -2.552 1.107
31 1 1 -0.1800 8.709999999999999 -3.63 -0.515
32 1 3 0.0600 5.854 -1.019 0.11
33 1 3 0.0600 5.858 0.748 0.666
34 1 7 0.0300 8.187999999999999 0.851 -0.588
35 1 3 0.0600 8.083 -4.521 -0.457
36 1 3 0.0600 9.029 -3.418 -1.561
37 1 3 0.0600 9.652 -3.859 0.026
38 1 2 -0.1200 9.788 0.0 0.0
39 1 9 0.2200 11.296 0.0 0.0
40 1 6 -0.3300 11.836 -0.49000000000000005 -1.196
41 1 4 0.5100 11.597 0.08299999999999985 -2.426
42 1 5 -0.4300 10.861 1.1069999999999998 -2.552
43 1 1 -0.1800 12.218 -0.5150000000000002 -3.63
44 1 3 0.0600 9.362 0.10999999999999995 -1.019
45 1 3 0.0600 9.366 0.666 0.748
46 1 7 0.0300 11.696 -0.588 0.851
47 1 3 0.0600 11.591 -0.4570000000000003 -4.521
48 1 3 0.0600 12.536999999999999 -1.5610000000000002 -3.418
49 1 3 0.0600 13.16 0.025999999999999763 -3.859
50 1 2 -0.1200 13.296000000000001 0.0 0.0
51 1 9 0.2200 14.804 0.0 0.0
52 1 6 -0.3300 15.344000000000001 -1.196 0.49
53 1 4 0.5100 15.105 -2.426 -0.083
54 1 5 -0.4300 14.369000000000002 -2.552 -1.107
55 1 1 -0.1800 15.726 -3.63 0.515
56 1 3 0.0600 12.870000000000001 -1.019 -0.11
57 1 3 0.0600 12.874 0.748 -0.666
58 1 7 0.0300 15.204 0.851 0.588
59 1 3 0.0600 15.099 -4.521 0.457
60 1 3 0.0600 16.045 -3.418 1.561
61 1 3 0.0600 16.668 -3.859 -0.026
62 1 2 -0.1200 16.804 0.0 0.0
63 1 9 0.2200 18.312 0.0 0.0
64 1 6 -0.3300 18.852 -0.49000000000000005 -1.196
65 1 4 0.5100 18.613 0.08299999999999985 -2.426
66 1 5 -0.4300 17.877 1.1069999999999998 -2.552
67 1 1 -0.1800 19.233999999999998 -0.5150000000000002 -3.63
68 1 3 0.0600 16.378 0.10999999999999995 -1.019
69 1 3 0.0600 16.382 0.666 0.748
70 1 7 0.0300 18.712 -0.588 0.851
71 1 3 0.0600 18.607 -0.4570000000000003 -4.521
72 1 3 0.0600 19.553 -1.5610000000000002 -3.418
73 1 3 0.0600 20.176 0.025999999999999763 -3.859
74 1 2 -0.1200 20.311999999999998 0.0 0.0
75 1 9 0.2200 21.82 0.0 0.0
76 1 6 -0.3300 22.36 -1.196 -0.49
77 1 4 0.5100 22.121 -2.426 0.083
78 1 5 -0.4300 21.384999999999998 -2.552 1.107
79 1 1 -0.1800 22.741999999999997 -3.63 -0.515
80 1 3 0.0600 19.886 -1.019 0.11
81 1 3 0.0600 19.89 0.748 0.666
82 1 7 0.0300 22.22 0.851 -0.588
83 1 3 0.0600 22.115 -4.521 -0.457
84 1 3 0.0600 23.061 -3.418 -1.561
85 1 3 0.0600 23.683999999999997 -3.859 0.026
86 1 2 -0.1200 23.82 0.0 0.0
87 1 9 0.2200 25.328000000000003 0.0 0.0
88 1 6 -0.3300 25.868000000000002 -0.49000000000000005 -1.196
89 1 4 0.5100 25.629 0.08299999999999985 -2.426
90 1 5 -0.4300 24.893 1.1069999999999998 -2.552
91 1 1 -0.1800 26.25 -0.5150000000000002 -3.63
92 1 3 0.0600 23.394000000000002 0.10999999999999995 -1.019
93 1 3 0.0600 23.398000000000003 0.666 0.748
94 1 7 0.0300 25.728 -0.588 0.851
95 1 3 0.0600 25.623 -0.4570000000000003 -4.521
96 1 3 0.0600 26.569000000000003 -1.5610000000000002 -3.418
97 1 3 0.0600 27.192 0.025999999999999763 -3.859
98 1 2 -0.1200 27.328 0.0 0.0
99 1 9 0.2200 28.836000000000002 0.0 0.0
100 1 6 -0.3300 29.376 -1.196 -0.49
101 1 4 0.5100 29.137 -2.426 0.083
102 1 5 -0.4300 28.401 -2.552 1.107
103 1 1 -0.1800 29.758 -3.63 -0.515
104 1 3 0.0600 26.902 -1.019 0.11
105 1 3 0.0600 26.906000000000002 0.748 0.666
106 1 7 0.0300 29.236 0.851 -0.588
107 1 3 0.0600 29.131 -4.521 -0.457
108 1 3 0.0600 30.077 -3.418 -1.561
109 1 3 0.0600 30.7 -3.859 0.026
110 1 2 -0.1200 30.836 0.0 0.0
111 1 9 0.2200 32.344 0.0 0.0
112 1 6 -0.3300 32.884 -0.49000000000000005 -1.196
113 1 4 0.5100 32.645 0.08299999999999985 -2.426
114 1 5 -0.4300 31.909 1.1069999999999998 -2.552
115 1 1 -0.1800 33.266 -0.5150000000000002 -3.63
116 1 3 0.0600 30.41 0.10999999999999995 -1.019
117 1 3 0.0600 30.414 0.666 0.748
118 1 7 0.0300 32.744 -0.588 0.851
119 1 3 0.0600 32.639 -0.4570000000000003 -4.521
120 1 3 0.0600 33.585 -1.5610000000000002 -3.418
121 1 3 0.0600 34.208 0.025999999999999763 -3.859
122 1 2 -0.1200 34.344 0.0 0.0
123 1 9 0.2200 35.852 0.0 0.0
124 1 6 -0.3300 36.391999999999996 -1.196 -0.49
125 1 4 0.5100 36.153 -2.426 0.083
126 1 5 -0.4300 35.417 -2.552 1.107
127 1 1 -0.1800 36.774 -3.63 -0.515
128 1 3 0.0600 33.918 -1.019 0.11
129 1 3 0.0600 33.922 0.748 0.666
130 1 7 0.0300 36.251999999999995 0.851 -0.588
131 1 3 0.0600 36.147 -4.521 -0.457
132 1 3 0.0600 37.092999999999996 -3.418 -1.561
133 1 3 0.0600 37.716 -3.859 0.026
134 1 2 -0.1200 37.852000000000004 0.0 0.0
135 1 9 0.2200 39.36 0.0 0.0
136 1 6 -0.3300 39.9 0.48999999999999994 -1.196
137 1 4 0.5100 39.661 -0.08300000000000016 -2.426
138 1 5 -0.4300 38.925000000000004 -1.1070000000000002 -2.552
139 1 1 -0.1800 40.282000000000004 0.5149999999999998 -3.63
140 1 3 0.0600 37.426 -0.11000000000000006 -1.019
141 1 3 0.0600 37.43 -0.666 0.748
142 1 7 0.0300 39.760000000000005 0.588 0.851
143 1 3 0.0600 39.655 0.45699999999999974 -4.521
144 1 3 0.0600 40.601 1.5609999999999997 -3.418
145 1 3 0.0600 41.224000000000004 -0.026000000000000235 -3.859
146 1 2 -0.1200 41.36 0.0 0.0
147 1 9 0.2200 42.867999999999995 0.0 0.0
148 1 6 -0.3300 43.407999999999994 -1.196 0.49
149 1 4 0.5100 43.169 -2.426 -0.083
150 1 5 -0.4300 42.433 -2.552 -1.107
151 1 1 -0.1800 43.79 -3.63 0.515
152 1 3 0.0600 40.934 -1.019 -0.11
153 1 3 0.0600 40.937999999999995 0.748 -0.666
154 1 7 0.0300 43.268 0.851 0.588
155 1 3 0.0600 43.163 -4.521 0.457
156 1 3 0.0600 44.108999999999995 -3.418 1.561
157 1 3 0.0600 44.732 -3.859 -0.026
158 1 2 -0.1200 44.868 0.0 0.0
159 1 9 0.2200 46.376 0.0 0.0
160 1 6 -0.3300 46.916 0.48999999999999994 -1.196
161 1 4 0.5100 46.677 -0.08300000000000016 -2.426
162 1 5 -0.4300 45.941 -1.1070000000000002 -2.552
163 1 1 -0.1800 47.298 0.5149999999999998 -3.63
164 1 3 0.0600 44.442 -0.11000000000000006 -1.019
165 1 3 0.0600 44.446 -0.666 0.748
166 1 7 0.0300 46.775999999999996 0.588 0.851
167 1 3 0.0600 46.671 0.45699999999999974 -4.521
168 1 3 0.0600 47.617 1.5609999999999997 -3.418
169 1 3 0.0600 48.24 -0.026000000000000235 -3.859
170 1 2 -0.1200 48.376000000000005 0.0 0.0
171 1 9 0.2200 49.884 0.0 0.0
172 1 6 -0.3300 50.424 -1.196 -0.49
173 1 4 0.5100 50.185 -2.426 0.083
174 1 5 -0.4300 49.449000000000005 -2.552 1.107
175 1 1 -0.1800 50.806000000000004 -3.63 -0.515
176 1 3 0.0600 47.95 -1.019 0.11
177 1 3 0.0600 47.954 0.748 0.666
178 1 7 0.0300 50.284000000000006 0.851 -0.588
179 1 3 0.0600 50.179 -4.521 -0.457
180 1 3 0.0600 51.125 -3.418 -1.561
181 1 3 0.0600 51.748000000000005 -3.859 0.026
182 1 2 -0.1200 51.884 0.0 0.0
183 1 9 0.2200 53.391999999999996 0.0 0.0
184 1 6 -0.3300 53.931999999999995 -0.49000000000000005 -1.196
185 1 4 0.5100 53.693 0.08299999999999985 -2.426
186 1 5 -0.4300 52.957 1.1069999999999998 -2.552
187 1 1 -0.1800 54.314 -0.5150000000000002 -3.63
188 1 3 0.0600 51.458 0.10999999999999995 -1.019
189 1 3 0.0600 51.461999999999996 0.666 0.748
190 1 7 0.0300 53.792 -0.588 0.851
191 1 3 0.0600 53.687 -0.4570000000000003 -4.521
192 1 3 0.0600 54.632999999999996 -1.5610000000000002 -3.418
193 1 3 0.0600 55.256 0.025999999999999763 -3.859
194 1 2 -0.1200 55.392 0.0 0.0
195 1 9 0.2200 56.9 0.0 0.0
196 1 6 -0.3300 57.44 -1.196 0.49
197 1 4 0.5100 57.201 -2.426 -0.083
198 1 5 -0.4300 56.465 -2.552 -1.107
199 1 1 -0.1800 57.822 -3.63 0.515
200 1 3 0.0600 54.966 -1.019 -0.11
201 1 3 0.0600 54.97 0.748 -0.666
202 1 7 0.0300 57.3 0.851 0.588
203 1 3 0.0600 57.195 -4.521 0.457
204 1 3 0.0600 58.141 -3.418 1.561
205 1 3 0.0600 58.764 -3.859 -0.026
206 1 2 -0.1200 58.900000000000006 0.0 0.0
207 1 9 0.2200 60.408 0.0 0.0
208 1 6 -0.3300 60.948 -0.49000000000000005 -1.196
209 1 4 0.5100 60.709 0.08299999999999985 -2.426
210 1 5 -0.4300 59.973000000000006 1.1069999999999998 -2.552
211 1 1 -0.1800 61.330000000000005 -0.5150000000000002 -3.63
212 1 3 0.0600 58.474000000000004 0.10999999999999995 -1.019
213 1 3 0.0600 58.478 0.666 0.748
214 1 7 0.0300 60.80800000000001 -0.588 0.851
215 1 3 0.0600 60.703 -0.4570000000000003 -4.521
216 1 3 0.0600 61.649 -1.5610000000000002 -3.418
217 1 3 0.0600 62.272000000000006 0.025999999999999763 -3.859
218 1 2 -0.1200 62.408 0.0 0.0
219 1 9 0.2200 63.916 0.0 0.0
220 1 6 -0.3300 64.456 -1.196 0.49
221 1 4 0.5100 64.217 -2.426 -0.083
222 1 5 -0.4300 63.481 -2.552 -1.107
223 1 1 -0.1800 64.838 -3.63 0.515
224 1 3 0.0600 61.982 -1.019 -0.11
225 1 3 0.0600 61.986 0.748 -0.666
226 1 7 0.0300 64.316 0.851 0.588
227 1 3 0.0600 64.211 -4.521 0.457
228 1 3 0.0600 65.157 -3.418 1.561
229 1 3 0.0600 65.78 -3.859 -0.026
230 1 2 -0.1200 65.916 0.0 0.0
231 1 9 0.2200 67.424 0.0 0.0
232 1 6 -0.3300 67.964 -0.49000000000000005 -1.196
233 1 4 0.5100 67.72500000000001 0.08299999999999985 -2.426
234 1 5 -0.4300 66.989 1.1069999999999998 -2.552
235 1 1 -0.1800 68.346 -0.5150000000000002 -3.63
236 1 3 0.0600 65.49 0.10999999999999995 -1.019
237 1 3 0.0600 65.494 0.666 0.748
238 1 7 0.0300 67.824 -0.588 0.851
239 1 3 0.0600 67.71900000000001 -0.4570000000000003 -4.521
240 1 3 0.0600 68.665 -1.5610000000000002 -3.418
241 1 3 0.0600 69.288 0.025999999999999763 -3.859
242 1 2 -0.1200 69.42399999999999 0.0 0.0
243 1 9 0.2200 70.932 0.0 0.0
244 1 6 -0.3300 71.472 -1.196 0.49
245 1 4 0.5100 71.233 -2.426 -0.083
246 1 5 -0.4300 70.497 -2.552 -1.107
247 1 1 -0.1800 71.854 -3.63 0.515
248 1 3 0.0600 68.99799999999999 -1.019 -0.11
249 1 3 0.0600 69.002 0.748 -0.666
250 1 7 0.0300 71.332 0.851 0.588
251 1 3 0.0600 71.227 -4.521 0.457
252 1 3 0.0600 72.173 -3.418 1.561
253 1 3 0.0600 72.79599999999999 -3.859 -0.026
254 1 2 -0.1200 72.932 0.0 0.0
255 1 9 0.2200 74.44000000000001 0.0 0.0
256 1 6 -0.3300 74.98 0.48999999999999994 -1.196
257 1 4 0.5100 74.74100000000001 -0.08300000000000016 -2.426
258 1 5 -0.4300 74.00500000000001 -1.1070000000000002 -2.552
259 1 1 -0.1800 75.36200000000001 0.5149999999999998 -3.63
260 1 3 0.0600 72.506 -0.11000000000000006 -1.019
261 1 3 0.0600 72.51 -0.666 0.748
262 1 7 0.0300 74.84 0.588 0.851
263 1 3 0.0600 74.73500000000001 0.45699999999999974 -4.521
264 1 3 0.0600 75.68100000000001 1.5609999999999997 -3.418
265 1 3 0.0600 76.304 -0.026000000000000235 -3.859
266 1 2 -0.1200 76.44 0.0 0.0
267 1 9 0.2200 77.94800000000001 0.0 0.0
268 1 6 -0.3300 78.488 -1.196 -0.49
269 1 4 0.5100 78.24900000000001 -2.426 0.083
270 1 5 -0.4300 77.513 -2.552 1.107
271 1 1 -0.1800 78.87 -3.63 -0.515
272 1 3 0.0600 76.014 -1.019 0.11
273 1 3 0.0600 76.018 0.748 0.666
274 1 7 0.0300 78.348 0.851 -0.588
275 1 3 0.0600 78.24300000000001 -4.521 -0.457
276 1 3 0.0600 79.18900000000001 -3.418 -1.561
277 1 3 0.0600 79.812 -3.859 0.026
278 1 2 -0.1200 79.948 0.0 0.0
279 1 9 0.2200 81.456 0.0 0.0
280 1 6 -0.3300 81.996 0.48999999999999994 -1.196
281 1 4 0.5100 81.757 -0.08300000000000016 -2.426
282 1 5 -0.4300 81.021 -1.1070000000000002 -2.552
283 1 1 -0.1800 82.378 0.5149999999999998 -3.63
284 1 3 0.0600 79.52199999999999 -0.11000000000000006 -1.019
285 1 3 0.0600 79.526 -0.666 0.748
286 1 7 0.0300 81.856 0.588 0.851
287 1 3 0.0600 81.751 0.45699999999999974 -4.521
288 1 3 0.0600 82.697 1.5609999999999997 -3.418
289 1 3 0.0600 83.32 -0.026000000000000235 -3.859
290 1 2 -0.1200 83.45599999999999 0.0 0.0
291 1 9 0.2200 84.964 0.0 0.0
292 1 6 -0.3300 85.50399999999999 -1.196 -0.49
293 1 4 0.5100 85.265 -2.426 0.083
294 1 5 -0.4300 84.529 -2.552 1.107
295 1 1 -0.1800 85.886 -3.63 -0.515
296 1 3 0.0600 83.02999999999999 -1.019 0.11
297 1 3 0.0600 83.03399999999999 0.748 0.666
298 1 7 0.0300 85.36399999999999 0.851 -0.588
299 1 3 0.0600 85.259 -4.521 -0.457
300 1 3 0.0600 86.205 -3.418 -1.561
301 1 3 0.0600 86.82799999999999 -3.859 0.026
302 1 2 -0.1200 86.964 0.0 0.0
303 1 9 0.2200 88.47200000000001 0.0 0.0
304 1 6 -0.3300 89.012 0.48999999999999994 -1.196
305 1 4 0.5100 88.77300000000001 -0.08300000000000016 -2.426
306 1 5 -0.4300 88.037 -1.1070000000000002 -2.552
307 1 1 -0.1800 89.394 0.5149999999999998 -3.63
308 1 3 0.0600 86.538 -0.11000000000000006 -1.019
309 1 3 0.0600 86.542 -0.666 0.748
310 1 7 0.0300 88.872 0.588 0.851
311 1 3 0.0600 88.76700000000001 0.45699999999999974 -4.521
312 1 3 0.0600 89.71300000000001 1.5609999999999997 -3.418
313 1 3 0.0600 90.336 -0.026000000000000235 -3.859
314 1 2 -0.1200 90.472 0.0 0.0
315 1 9 0.2200 91.98 0.0 0.0
316 1 6 -0.3300 92.52 -1.196 -0.49
317 1 4 0.5100 92.281 -2.426 0.083
318 1 5 -0.4300 91.545 -2.552 1.107
319 1 1 -0.1800 92.902 -3.63 -0.515
320 1 3 0.0600 90.04599999999999 -1.019 0.11
321 1 3 0.0600 90.05 0.748 0.666
322 1 7 0.0300 92.38 0.851 -0.588
323 1 3 0.0600 92.275 -4.521 -0.457
324 1 3 0.0600 93.221 -3.418 -1.561
325 1 3 0.0600 93.844 -3.859 0.026
326 1 2 -0.1200 93.97999999999999 0.0 0.0
327 1 9 0.2200 95.488 0.0 0.0
328 1 6 -0.3300 96.02799999999999 -0.49000000000000005 -1.196
329 1 4 0.5100 95.789 0.08299999999999985 -2.426
330 1 5 -0.4300 95.053 1.1069999999999998 -2.552
331 1 1 -0.1800 96.41 -0.5150000000000002 -3.63
332 1 3 0.0600 93.55399999999999 0.10999999999999995 -1.019
333 1 3 0.0600 93.55799999999999 0.666 0.748
334 1 7 0.0300 95.88799999999999 -0.588 0.851
335 1 3 0.0600 95.783 -0.4570000000000003 -4.521
336 1 3 0.0600 96.729 -1.5610000000000002 -3.418
337 1 3 0.0600 97.35199999999999 0.025999999999999763 -3.859
338 1 2 -0.1200 97.488 0.0 0.0
339 1 9 0.2200 98.99600000000001 0.0 0.0
340 1 6 -0.3300 99.536 -1.196 -0.49
341 1 4 0.5100 99.29700000000001 -2.426 0.083
342 1 5 -0.4300 98.561 -2.552 1.107
343 1 1 -0.1800 99.918 -3.63 -0.515
344 1 3 0.0600 97.062 -1.019 0.11
345 1 3 0.0600 97.066 0.748 0.666
346 1 7 0.0300 99.396 0.851 -0.588
347 1 3 0.0600 99.29100000000001 -4.521 -0.457
348 1 3 0.0600 100.23700000000001 -3.418 -1.561
349 1 3 0.0600 100.86 -3.859 0.026
350 1 2 -0.1200 100.996 0.0 0.0
351 1 9 0.2200 102.504 0.0 0.0
352 1 6 -0.3300 103.044 -0.49000000000000005 -1.196
353 1 4 0.5100 102.805 0.08299999999999985 -2.426
354 1 5 -0.4300 102.069 1.1069999999999998 -2.552
355 1 1 -0.1800 103.426 -0.5150000000000002 -3.63
356 1 3 0.0600 100.57 0.10999999999999995 -1.019
357 1 3 0.0600 100.574 0.666 0.748
358 1 7 0.0300 102.904 -0.588 0.851
359 1 3 0.0600 102.799 -0.4570000000000003 -4.521
360 1 3 0.0600 103.745 -1.5610000000000002 -3.418
361 1 3 0.0600 104.368 0.025999999999999763 -3.859
362 1 2 -0.1200 104.50399999999999 0.0 0.0
363 1 9 0.2200 106.012 0.0 0.0
364 1 6 -0.3300 106.55199999999999 -1.196 0.49
365 1 4 0.5100 106.313 -2.426 -0.083
366 1 5 -0.4300 105.577 -2.552 -1.107
367 1 1 -0.1800 106.934 -3.63 0.515
368 1 3 0.0600 104.07799999999999 -1.019 -0.11
369 1 3 0.0600 104.082 0.748 -0.666
370 1 7 0.0300 106.41199999999999 0.851 0.588
371 1 3 0.0600 106.307 -4.521 0.457
372 1 3 0.0600 107.253 -3.418 1.561
373 1 3 0.0600 107.87599999999999 -3.859 -0.026
374 1 2 -0.1200 108.012 0.0 0.0
375 1 9 0.2200 109.52000000000001 0.0 0.0
376 1 6 -0.3300 110.06 0.48999999999999994 -1.196
377 1 4 0.5100 109.82100000000001 -0.08300000000000016 -2.426
378 1 5 -0.4300 109.08500000000001 -1.1070000000000002 -2.552
379 1 1 -0.1800 110.44200000000001 0.5149999999999998 -3.63
380 1 3 0.0600 107.586 -0.11000000000000006 -1.019
381 1 3 0.0600 107.59 -0.666 0.748
382 1 7 0.0300 109.92 0.588 0.851
383 1 3 0.0600 109.81500000000001 0.45699999999999974 -4.521
384 1 3 0.0600 110.76100000000001 1.5609999999999997 -3.418
385 1 3 0.0600 111.384 -0.026000000000000235 -3.859
386 1 2 -0.1200 111.52 0.0 0.0
387 1 9 0.2200 113.028 0.0 0.0
388 1 6 -0.3300 113.568 -1.196 -0.49
389 1 4 0.5100 113.32900000000001 -2.426 0.083
390 1 5 -0.4300 112.593 -2.552 1.107
391 1 1 -0.1800 113.95 -3.63 -0.515
392 1 3 0.0600 111.094 -1.019 0.11
393 1 3 0.0600 111.098 0.748 0.666
394 1 7 0.0300 113.428 0.851 -0.588
395 1 3 0.0600 113.32300000000001 -4.521 -0.457
396 1 3 0.0600 114.269 -3.418 -1.561
397 1 3 0.0600 114.892 -3.859 0.026
398 1 2 -0.1200 115.02799999999999 0.0 0.0
399 1 9 0.2200 116.536 0.0 0.0
400 1 6 -0.3300 117.076 0.48999999999999994 -1.196
401 1 4 0.5100 116.837 -0.08300000000000016 -2.426
402 1 5 -0.4300 116.101 -1.1070000000000002 -2.552
403 1 1 -0.1800 117.458 0.5149999999999998 -3.63
404 1 3 0.0600 114.60199999999999 -0.11000000000000006 -1.019
405 1 3 0.0600 114.606 -0.666 0.748
406 1 7 0.0300 116.93599999999999 0.588 0.851
407 1 3 0.0600 116.831 0.45699999999999974 -4.521
408 1 3 0.0600 117.777 1.5609999999999997 -3.418
409 1 3 0.0600 118.39999999999999 -0.026000000000000235 -3.859
410 1 2 -0.1200 118.536 0.0 0.0
411 1 9 0.2200 120.04400000000001 0.0 0.0
412 1 6 -0.3300 120.584 -1.196 -0.49
413 1 4 0.5100 120.34500000000001 -2.426 0.083
414 1 5 -0.4300 119.60900000000001 -2.552 1.107
415 1 1 -0.1800 120.96600000000001 -3.63 -0.515
416 1 3 0.0600 118.11 -1.019 0.11
417 1 3 0.0600 118.114 0.748 0.666
418 1 7 0.0300 120.444 0.851 -0.588
419 1 3 0.0600 120.33900000000001 -4.521 -0.457
420 1 3 0.0600 121.28500000000001 -3.418 -1.561
421 1 3 0.0600 121.908 -3.859 0.026
422 1 2 -0.1200 122.044 0.0 0.0
423 1 9 0.2200 123.552 0.0 0.0
424 1 6 -0.3300 124.092 -0.49000000000000005 -1.196
425 1 4 0.5100 123.85300000000001 0.08299999999999985 -2.426
426 1 5 -0.4300 123.117 1.1069999999999998 -2.552
427 1 1 -0.1800 124.474 -0.5150000000000002 -3.63
428 1 3 0.0600 121.618 0.10999999999999995 -1.019
429 1 3 0.0600 121.622 0.666 0.748
430 1 7 0.0300 123.952 -0.588 0.851
431 1 3 0.0600 123.84700000000001 -0.4570000000000003 -4.521
432 1 3 0.0600 124.793 -1.5610000000000002 -3.418
433 1 3 0.0600 125.416 0.025999999999999763 -3.859
434 1 2 -0.1200 125.55199999999999 0.0 0.0
435 1 9 0.2200 127.06 0.0 0.0
436 1 6 -0.3300 127.6 -1.196 -0.49
437 1 4 0.5100 127.361 -2.426 0.083
438 1 5 -0.4300 126.625 -2.552 1.107
439 1 1 -0.1800 127.982 -3.63 -0.515
440 1 3 0.0600 125.12599999999999 -1.019 0.11
441 1 3 0.0600 125.13 0.748 0.666
442 1 7 0.0300 127.46 0.851 -0.588
443 1 3 0.0600 127.355 -4.521 -0.457
444 1 3 0.0600 128.301 -3.418 -1.561
445 1 3 0.0600 128.924 -3.859 0.026
446 1 2 -0.1200 129.06 0.0 0.0
447 1 9 0.2200 130.56799999999998 0.0 0.0
448 1 6 -0.3300 131.108 0.48999999999999994 -1.196
449 1 4 0.5100 130.869 -0.08300000000000016 -2.426
450 1 5 -0.4300 130.13299999999998 -1.1070000000000002 -2.552
451 1 1 -0.1800 131.48999999999998 0.5149999999999998 -3.63
452 1 3 0.0600 128.634 -0.11000000000000006 -1.019
453 1 3 0.0600 128.638 -0.666 0.748
454 1 7 0.0300 130.968 0.588 0.851
455 1 3 0.0600 130.863 0.45699999999999974 -4.521
456 1 3 0.0600 131.809 1.5609999999999997 -3.418
457 1 3 0.0600 132.432 -0.026000000000000235 -3.859
458 1 2 -0.1200 132.568 0.0 0.0
459 1 9 0.2200 134.076 0.0 0.0
460 1 6 -0.3300 134.616 -1.196 0.49
461 1 4 0.5100 134.377 -2.426 -0.083
462 1 5 -0.4300 133.641 -2.552 -1.107
463 1 1 -0.1800 134.998 -3.63 0.515
464 1 3 0.0600 132.142 -1.019 -0.11
465 1 3 0.0600 132.14600000000002 0.748 -0.666
466 1 7 0.0300 134.476 0.851 0.588
467 1 3 0.0600 134.371 -4.521 0.457
468 1 3 0.0600 135.317 -3.418 1.561
469 1 3 0.0600 135.94 -3.859 -0.026
470 1 2 -0.1200 136.07600000000002 0.0 0.0
471 1 9 0.2200 137.584 0.0 0.0
472 1 6 -0.3300 138.12400000000002 0.48999999999999994 -1.196
473 1 4 0.5100 137.88500000000002 -0.08300000000000016 -2.426
474 1 5 -0.4300 137.149 -1.1070000000000002 -2.552
475 1 1 -0.1800 138.506 0.5149999999999998 -3.63
476 1 3 0.0600 135.65 -0.11000000000000006 -1.019
477 1 3 0.0600 135.65400000000002 -0.666 0.748
478 1 7 0.0300 137.984 0.588 0.851
479 1 3 0.0600 137.87900000000002 0.45699999999999974 -4.521
480 1 3 0.0600 138.82500000000002 1.5609999999999997 -3.418
481 1 3 0.0600 139.448 -0.026000000000000235 -3.859
482 1 2 -0.1200 139.584 0.0 0.0
483 1 9 0.2200 141.09199999999998 0.0 0.0
484 1 6 -0.3300 141.632 -1.196 -0.49
485 1 4 0.5100 141.393 -2.426 0.083
486 1 5 -0.4300 140.65699999999998 -2.552 1.107
487 1 1 -0.1800 142.01399999999998 -3.63 -0.515
488 1 3 0.0600 139.158 -1.019 0.11
489 1 3 0.0600 139.162 0.748 0.666
490 1 7 0.0300 141.492 0.851 -0.588
491 1 3 0.0600 141.387 -4.521 -0.457
492 1 3 0.0600 142.333 -3.418 -1.561
493 1 3 0.0600 142.956 -3.859 0.026
494 1 2 -0.1200 143.092 0.0 0.0
495 1 9 0.2200 144.6 0.0 0.0
496 1 6 -0.3300 145.14000000000001 0.48999999999999994 -1.196
497 1 4 0.5100 144.901 -0.08300000000000016 -2.426
498 1 5 -0.4300 144.165 -1.1070000000000002 -2.552
499 1 1 -0.1800 145.522 0.5149999999999998 -3.63
500 1 3 0.0600 142.666 -0.11000000000000006 -1.019
501 1 3 0.0600 142.67000000000002 -0.666 0.748
502 1 7 0.0300 145.0 0.588 0.851
503 1 3 0.0600 144.895 0.45699999999999974 -4.521
504 1 3 0.0600 145.841 1.5609999999999997 -3.418
505 1 3 0.0600 146.464 -0.026000000000000235 -3.859
506 1 2 -0.1200 146.60000000000002 0.0 0.0
507 1 9 0.2200 148.108 0.0 0.0
508 1 6 -0.3300 148.64800000000002 -1.196 0.49
509 1 4 0.5100 148.40900000000002 -2.426 -0.083
510 1 5 -0.4300 147.673 -2.552 -1.107
511 1 1 -0.1800 149.03 -3.63 0.515
512 1 3 0.0600 146.174 -1.019 -0.11
513 1 3 0.0600 146.17800000000003 0.748 -0.666
514 1 7 0.0300 148.508 0.851 0.588
515 1 3 0.0600 148.40300000000002 -4.521 0.457
516 1 3 0.0600 149.34900000000002 -3.418 1.561
517 1 3 0.0600 149.972 -3.859 -0.026
518 1 2 -0.1200 150.108 0.0 0.0
519 1 9 0.2200 151.61599999999999 0.0 0.0
520 1 6 -0.3300 152.156 -0.49000000000000005 -1.196
521 1 4 0.5100 151.917 0.08299999999999985 -2.426
522 1 5 -0.4300 151.18099999999998 1.1069999999999998 -2.552
523 1 1 -0.1800 152.53799999999998 -0.5150000000000002 -3.63
524 1 3 0.0600 149.682 0.10999999999999995 -1.019
525 1 3 0.0600 149.686 0.666 0.748
526 1 7 0.0300 152.016 -0.588 0.851
527 1 3 0.0600 151.911 -0.4570000000000003 -4.521
528 1 3 0.0600 152.857 -1.5610000000000002 -3.418
529 1 3 0.0600 153.48 0.025999999999999763 -3.859
530 1 2 -0.1200 153.616 0.0 0.0
531 1 9 0.2200 155.124 0.0 0.0
532 1 6 -0.3300 155.66400000000002 -1.196 0.49
533 1 4 0.5100 155.425 -2.426 -0.083
534 1 5 -0.4300 154.689 -2.552 -1.107
535 1 1 -0.1800 156.046 -3.63 0.515
536 1 3 0.0600 153.19 -1.019 -0.11
537 1 3 0.0600 153.19400000000002 0.748 -0.666
538 1 7 0.0300 155.524 0.851 0.588
539 1 3 0.0600 155.419 -4.521 0.457
540 1 3 0.0600 156.365 -3.418 1.561
541 1 3 0.0600 156.988 -3.859 -0.026
542 1 2 -0.1200 157.124 0.0 0.0
543 1 9 0.2200 158.63199999999998 0.0 0.0
544 1 6 -0.3300 159.172 -0.49000000000000005 -1.196
545 1 4 0.5100 158.933 0.08299999999999985 -2.426
546 1 5 -0.4300 158.19699999999997 1.1069999999999998 -2.552
547 1 1 -0.1800 159.55399999999997 -0.5150000000000002 -3.63
548 1 3 0.0600 156.69799999999998 0.10999999999999995 -1.019
549 1 3 0.0600 156.702 0.666 0.748
550 1 7 0.0300 159.03199999999998 -0.588 0.851
551 1 3 0.0600 158.927 -0.4570000000000003 -4.521
552 1 3 0.0600 159.873 -1.5610000000000002 -3.418
553 1 3 0.0600 160.49599999999998 0.025999999999999763 -3.859
554 1 2 -0.1200 160.632 0.0 0.0
555 1 9 0.2200 162.14 0.0 0.0
556 1 6 -0.3300 162.68 -1.196 -0.49
557 1 4 0.5100 162.441 -2.426 0.083
558 1 5 -0.4300 161.70499999999998 -2.552 1.107
559 1 1 -0.1800 163.06199999999998 -3.63 -0.515
560 1 3 0.0600 160.206 -1.019 0.11
561 1 3 0.0600 160.21 0.748 0.666
562 1 7 0.0300 162.54 0.851 -0.588
563 1 3 0.0600 162.435 -4.521 -0.457
564 1 3 0.0600 163.381 -3.418 -1.561
565 1 3 0.0600 164.004 -3.859 0.026
566 1 2 -0.1200 164.14000000000001 0.0 0.0
567 1 9 0.2200 165.648 0.0 0.0
568 1 6 -0.3300 166.18800000000002 -0.49000000000000005 -1.196
569 1 4 0.5100 165.949 0.08299999999999985 -2.426
570 1 5 -0.4300 165.213 1.1069999999999998 -2.552
571 1 1 -0.1800 166.57 -0.5150000000000002 -3.63
572 1 3 0.0600 163.714 0.10999999999999995 -1.019
573 1 3 0.0600 163.71800000000002 0.666 0.748
574 1 7 0.0300 166.048 -0.588 0.851
575 1 3 0.0600 165.943 -0.4570000000000003 -4.521
576 1 3 0.0600 166.889 -1.5610000000000002 -3.418
577 1 3 0.0600 167.512 0.025999999999999763 -3.859
578 1 2 -0.1200 167.648 0.0 0.0
579 1 9 0.2200 169.15599999999998 0.0 0.0
580 1 6 -0.3300 169.696 -1.196 -0.49
581 1 4 0.5100 169.457 -2.426 0.083
582 1 5 -0.4300 168.72099999999998 -2.552 1.107
583 1 1 -0.1800 170.07799999999997 -3.63 -0.515
584 1 3 0.0600 167.22199999999998 -1.019 0.11
585 1 3 0.0600 167.226 0.748 0.666
586 1 7 0.0300 169.55599999999998 0.851 -0.588
587 1 3 0.0600 169.451 -4.521 -0.457
588 1 3 0.0600 170.397 -3.418 -1.561
589 1 3 0.0600 171.01999999999998 -3.859 0.026
590 1 2 -0.1200 169.43 0.0 0.0
591 1 8 0.1900 170.003 0.48700000000000004 1.269
592 1 6 -0.3300 171.335 0.8970000000000001 1.192
593 1 4 0.5100 172.383 0.06400000000000006 0.807
594 1 5 -0.4300 172.147 -1.143 0.5040000000000001
595 1 1 -0.1800 173.79 0.577 0.748
596 1 3 0.0600 169.243 -1.049 -0.11599999999999994
597 1 3 0.0600 169.179 0.709 -0.759
598 1 7 0.0300 169.404 1.377 1.587
599 1 7 0.0300 169.864 -0.2569999999999999 2.079
600 1 3 0.0600 174.263 0.5530000000000002 1.738
601 1 3 0.0600 173.767 1.652 0.4329999999999999
602 1 3 0.0600 174.39 0.0 0.0
603 2 1 -0.1800 179.9411 0.0 0.0
604 2 9 0.2200 181.46710000000002 0.0 0.0
605 2 6 -0.3300 181.9101 -0.493 -1.254
606 2 4 0.5100 183.2991 -0.561 -1.426
607 2 5 -0.4300 184.0891 -0.204 -0.517
608 2 1 -0.1800 183.8771 -1.064 -2.705
609 2 3 0.0600 179.57510000000002 -1.023 -0.168
610 2 3 0.0600 179.5651 0.372 0.973
611 2 3 0.0600 179.6311 0.65 -0.832
612 2 7 0.0300 181.8771 1.0 0.146
613 2 3 0.0600 183.06910000000002 -1.452 -3.336
614 2 3 0.0600 184.4951 -0.284 -3.204
615 2 3 0.0600 184.5911 -1.875 -2.397
616 2 2 -0.1200 183.47610000000003 0.0 0.0
617 2 9 0.2200 184.9841 0.0 0.0
618 2 6 -0.3300 185.52410000000003 -0.49000000000000005 -1.196
619 2 4 0.5100 185.28510000000003 0.08299999999999985 -2.426
620 2 5 -0.4300 184.5491 1.1069999999999998 -2.552
621 2 1 -0.1800 185.9061 -0.5150000000000002 -3.63
622 2 3 0.0600 183.05010000000001 0.10999999999999995 -1.019
623 2 3 0.0600 183.05410000000003 0.666 0.748
624 2 7 0.0300 185.38410000000002 -0.588 0.851
625 2 3 0.0600 185.27910000000003 -0.4570000000000003 -4.521
626 2 3 0.0600 186.22510000000003 -1.5610000000000002 -3.418
627 2 3 0.0600 186.84810000000002 0.025999999999999763 -3.859
628 2 2 -0.1200 186.9841 0.0 0.0
629 2 9 0.2200 188.4921 0.0 0.0
630 2 6 -0.3300 189.0321 -1.196 0.49
631 2 4 0.5100 188.7931 -2.426 -0.083
632 2 5 -0.4300 188.0571 -2.552 -1.107
633 2 1 -0.1800 189.4141 -3.63 0.515
634 2 3 0.0600 186.5581 -1.019 -0.11
635 2 3 0.0600 186.56210000000002 0.748 -0.666
636 2 7 0.0300 188.8921 0.851 0.588
637 2 3 0.0600 188.7871 -4.521 0.457
638 2 3 0.0600 189.7331 -3.418 1.561
639 2 3 0.0600 190.3561 -3.859 -0.026
640 2 2 -0.1200 190.49210000000002 0.0 0.0
641 2 9 0.2200 192.0001 0.0 0.0
642 2 6 -0.3300 192.54010000000002 -0.49000000000000005 -1.196
643 2 4 0.5100 192.30110000000002 0.08299999999999985 -2.426
644 2 5 -0.4300 191.5651 1.1069999999999998 -2.552
645 2 1 -0.1800 192.9221 -0.5150000000000002 -3.63
646 2 3 0.0600 190.0661 0.10999999999999995 -1.019
647 2 3 0.0600 190.07010000000002 0.666 0.748
648 2 7 0.0300 192.4001 -0.588 0.851
649 2 3 0.0600 192.29510000000002 -0.4570000000000003 -4.521
650 2 3 0.0600 193.24110000000002 -1.5610000000000002 -3.418
651 2 3 0.0600 193.8641 0.025999999999999763 -3.859
652 2 2 -0.1200 194.00010000000003 0.0 0.0
653 2 9 0.2200 195.5081 0.0 0.0
654 2 6 -0.3300 196.04810000000003 -1.196 -0.49
655 2 4 0.5100 195.80910000000003 -2.426 0.083
656 2 5 -0.4300 195.0731 -2.552 1.107
657 2 1 -0.1800 196.4301 -3.63 -0.515
658 2 3 0.0600 193.57410000000002 -1.019 0.11
659 2 3 0.0600 193.57810000000003 0.748 0.666
660 2 7 0.0300 195.90810000000002 0.851 -0.588
661 2 3 0.0600 195.80310000000003 -4.521 -0.457
662 2 3 0.0600 196.74910000000003 -3.418 -1.561
663 2 3 0.0600 197.37210000000002 -3.859 0.026
664 2 2 -0.1200 197.5081 0.0 0.0
665 2 9 0.2200 199.0161 0.0 0.0
666 2 6 -0.3300 199.55610000000001 -0.49000000000000005 -1.196
667 2 4 0.5100 199.3171 0.08299999999999985 -2.426
668 2 5 -0.4300 198.5811 1.1069999999999998 -2.552
669 2 1 -0.1800 199.9381 -0.5150000000000002 -3.63
670 2 3 0.0600 197.0821 0.10999999999999995 -1.019
671 2 3 0.0600 197.08610000000002 0.666 0.748
672 2 7 0.0300 199.4161 -0.588 0.851
673 2 3 0.0600 199.3111 -0.4570000000000003 -4.521
674 2 3 0.0600 200.2571 -1.5610000000000002 -3.418
675 2 3 0.0600 200.8801 0.025999999999999763 -3.859
676 2 2 -0.1200 201.01610000000002 0.0 0.0
677 2 9 0.2200 202.5241 0.0 0.0
678 2 6 -0.3300 203.06410000000002 -1.196 -0.49
679 2 4 0.5100 202.82510000000002 -2.426 0.083
680 2 5 -0.4300 202.0891 -2.552 1.107
681 2 1 -0.1800 203.4461 -3.63 -0.515
682 2 3 0.0600 200.5901 -1.019 0.11
683 2 3 0.0600 200.59410000000003 0.748 0.666
684 2 7 0.0300 202.9241 0.851 -0.588
685 2 3 0.0600 202.81910000000002 -4.521 -0.457
686 2 3 0.0600 203.76510000000002 -3.418 -1.561
687 2 3 0.0600 204.3881 -3.859 0.026
688 2 2 -0.1200 204.52410000000003 0.0 0.0
689 2 9 0.2200 206.0321 0.0 0.0
690 2 6 -0.3300 206.57210000000003 -0.49000000000000005 -1.196
691 2 4 0.5100 206.33310000000003 0.08299999999999985 -2.426
692 2 5 -0.4300 205.5971 1.1069999999999998 -2.552
693 2 1 -0.1800 206.9541 -0.5150000000000002 -3.63
694 2 3 0.0600 204.09810000000002 0.10999999999999995 -1.019
695 2 3 0.0600 204.10210000000004 0.666 0.748
696 2 7 0.0300 206.43210000000002 -0.588 0.851
697 2 3 0.0600 206.32710000000003 -0.4570000000000003 -4.521
698 2 3 0.0600 207.27310000000003 -1.5610000000000002 -3.418
699 2 3 0.0600 207.89610000000002 0.025999999999999763 -3.859
700 2 2 -0.1200 208.0321 0.0 0.0
701 2 9 0.2200 209.5401 0.0 0.0
702 2 6 -0.3300 210.08010000000002 -1.196 -0.49
703 2 4 0.5100 209.8411 -2.426 0.083
704 2 5 -0.4300 209.1051 -2.552 1.107
705 2 1 -0.1800 210.4621 -3.63 -0.515
706 2 3 0.0600 207.6061 -1.019 0.11
707 2 3 0.0600 207.61010000000002 0.748 0.666
708 2 7 0.0300 209.9401 0.851 -0.588
709 2 3 0.0600 209.8351 -4.521 -0.457
710 2 3 0.0600 210.7811 -3.418 -1.561
711 2 3 0.0600 211.4041 -3.859 0.026
712 2 2 -0.1200 211.54010000000002 0.0 0.0
713 2 9 0.2200 213.0481 0.0 0.0
714 2 6 -0.3300 213.58810000000003 0.48999999999999994 -1.196
715 2 4 0.5100 213.34910000000002 -0.08300000000000016 -2.426
716 2 5 -0.4300 212.6131 -1.1070000000000002 -2.552
717 2 1 -0.1800 213.9701 0.5149999999999998 -3.63
718 2 3 0.0600 211.1141 -0.11000000000000006 -1.019
719 2 3 0.0600 211.11810000000003 -0.666 0.748
720 2 7 0.0300 213.4481 0.588 0.851
721 2 3 0.0600 213.34310000000002 0.45699999999999974 -4.521
722 2 3 0.0600 214.28910000000002 1.5609999999999997 -3.418
723 2 3 0.0600 214.9121 -0.026000000000000235 -3.859
724 2 2 -0.1200 215.0481 0.0 0.0
725 2 9 0.2200 216.5561 0.0 0.0
726 2 6 -0.3300 217.0961 -1.196 0.49
727 2 4 0.5100 216.8571 -2.426 -0.083
728 2 5 -0.4300 216.12109999999998 -2.552 -1.107
729 2 1 -0.1800 217.47809999999998 -3.63 0.515
730 2 3 0.0600 214.6221 -1.019 -0.11
731 2 3 0.0600 214.6261 0.748 -0.666
732 2 7 0.0300 216.9561 0.851 0.588
733 2 3 0.0600 216.8511 -4.521 0.457
734 2 3 0.0600 217.7971 -3.418 1.561
735 2 3 0.0600 218.4201 -3.859 -0.026
736 2 2 -0.1200 218.55610000000001 0.0 0.0
737 2 9 0.2200 220.0641 0.0 0.0
738 2 6 -0.3300 220.60410000000002 0.48999999999999994 -1.196
739 2 4 0.5100 220.3651 -0.08300000000000016 -2.426
740 2 5 -0.4300 219.6291 -1.1070000000000002 -2.552
741 2 1 -0.1800 220.9861 0.5149999999999998 -3.63
742 2 3 0.0600 218.1301 -0.11000000000000006 -1.019
743 2 3 0.0600 218.13410000000002 -0.666 0.748
744 2 7 0.0300 220.4641 0.588 0.851
745 2 3 0.0600 220.3591 0.45699999999999974 -4.521
746 2 3 0.0600 221.3051 1.5609999999999997 -3.418
747 2 3 0.0600 221.9281 -0.026000000000000235 -3.859
748 2 2 -0.1200 222.06410000000002 0.0 0.0
749 2 9 0.2200 223.5721 0.0 0.0
750 2 6 -0.3300 224.11210000000003 -1.196 0.49
751 2 4 0.5100 223.87310000000002 -2.426 -0.083
752 2 5 -0.4300 223.1371 -2.552 -1.107
753 2 1 -0.1800 224.4941 -3.63 0.515
754 2 3 0.0600 221.6381 -1.019 -0.11
755 2 3 0.0600 221.64210000000003 0.748 -0.666
756 2 7 0.0300 223.9721 0.851 0.588
757 2 3 0.0600 223.86710000000002 -4.521 0.457
758 2 3 0.0600 224.81310000000002 -3.418 1.561
759 2 3 0.0600 225.4361 -3.859 -0.026
760 2 2 -0.1200 225.5721 0.0 0.0
761 2 9 0.2200 227.0801 0.0 0.0
762 2 6 -0.3300 227.6201 0.48999999999999994 -1.196
763 2 4 0.5100 227.3811 -0.08300000000000016 -2.426
764 2 5 -0.4300 226.64509999999999 -1.1070000000000002 -2.552
765 2 1 -0.1800 228.00209999999998 0.5149999999999998 -3.63
766 2 3 0.0600 225.1461 -0.11000000000000006 -1.019
767 2 3 0.0600 225.1501 -0.666 0.748
768 2 7 0.0300 227.4801 0.588 0.851
769 2 3 0.0600 227.3751 0.45699999999999974 -4.521
770 2 3 0.0600 228.3211 1.5609999999999997 -3.418
771 2 3 0.0600 228.9441 -0.026000000000000235 -3.859
772 2 2 -0.1200 229.08010000000002 0.0 0.0
773 2 9 0.2200 230.5881 0.0 0.0
774 2 6 -0.3300 231.12810000000002 -1.196 0.49
775 2 4 0.5100 230.8891 -2.426 -0.083
776 2 5 -0.4300 230.1531 -2.552 -1.107
777 2 1 -0.1800 231.5101 -3.63 0.515
778 2 3 0.0600 228.6541 -1.019 -0.11
779 2 3 0.0600 228.65810000000002 0.748 -0.666
780 2 7 0.0300 230.9881 0.851 0.588
781 2 3 0.0600 230.8831 -4.521 0.457
782 2 3 0.0600 231.8291 -3.418 1.561
783 2 3 0.0600 232.4521 -3.859 -0.026
784 2 2 -0.1200 232.58810000000003 0.0 0.0
785 2 9 0.2200 234.0961 0.0 0.0
786 2 6 -0.3300 234.63610000000003 0.48999999999999994 -1.196
787 2 4 0.5100 234.39710000000002 -0.08300000000000016 -2.426
788 2 5 -0.4300 233.6611 -1.1070000000000002 -2.552
789 2 1 -0.1800 235.0181 0.5149999999999998 -3.63
790 2 3 0.0600 232.1621 -0.11000000000000006 -1.019
791 2 3 0.0600 232.16610000000003 -0.666 0.748
792 2 7 0.0300 234.4961 0.588 0.851
793 2 3 0.0600 234.39110000000002 0.45699999999999974 -4.521
794 2 3 0.0600 235.33710000000002 1.5609999999999997 -3.418
795 2 3 0.0600 235.9601 -0.026000000000000235 -3.859
796 2 2 -0.1200 236.0961 0.0 0.0
797 2 9 0.2200 237.6041 0.0 0.0
798 2 6 -0.3300 238.1441 -1.196 -0.49
799 2 4 0.5100 237.9051 -2.426 0.083
800 2 5 -0.4300 237.1691 -2.552 1.107
801 2 1 -0.1800 238.52609999999999 -3.63 -0.515
802 2 3 0.0600 235.6701 -1.019 0.11
803 2 3 0.0600 235.6741 0.748 0.666
804 2 7 0.0300 238.0041 0.851 -0.588
805 2 3 0.0600 237.8991 -4.521 -0.457
806 2 3 0.0600 238.8451 -3.418 -1.561
807 2 3 0.0600 239.4681 -3.859 0.026
808 2 2 -0.1200 239.60410000000002 0.0 0.0
809 2 9 0.2200 241.1121 0.0 0.0
810 2 6 -0.3300 241.65210000000002 -0.49000000000000005 -1.196
811 2 4 0.5100 241.41310000000001 0.08299999999999985 -2.426
812 2 5 -0.4300 240.6771 1.1069999999999998 -2.552
813 2 1 -0.1800 242.0341 -0.5150000000000002 -3.63
814 2 3 0.0600 239.1781 0.10999999999999995 -1.019
815 2 3 0.0600 239.18210000000002 0.666 0.748
816 2 7 0.0300 241.5121 -0.588 0.851
817 2 3 0.0600 241.4071 -0.4570000000000003 -4.521
818 2 3 0.0600 242.3531 -1.5610000000000002 -3.418
819 2 3 0.0600 242.9761 0.025999999999999763 -3.859
820 2 2 -0.1200 243.11210000000003 0.0 0.0
821 2 9 0.2200 244.6201 0.0 0.0
822 2 6 -0.3300 245.16010000000003 -1.196 0.49
823 2 4 0.5100 244.92110000000002 -2.426 -0.083
824 2 5 -0.4300 244.1851 -2.552 -1.107
825 2 1 -0.1800 245.5421 -3.63 0.515
826 2 3 0.0600 242.6861 -1.019 -0.11
827 2 3 0.0600 242.69010000000003 0.748 -0.666
828 2 7 0.0300 245.0201 0.851 0.588
829 2 3 0.0600 244.91510000000002 -4.521 0.457
830 2 3 0.0600 245.86110000000002 -3.418 1.561
831 2 3 0.0600 246.4841 -3.859 -0.026
832 2 2 -0.1200 246.6201 0.0 0.0
833 2 9 0.2200 248.1281 0.0 0.0
834 2 6 -0.3300 248.6681 -0.49000000000000005 -1.196
835 2 4 0.5100 248.4291 0.08299999999999985 -2.426
836 2 5 -0.4300 247.6931 1.1069999999999998 -2.552
837 2 1 -0.1800 249.0501 -0.5150000000000002 -3.63
838 2 3 0.0600 246.1941 0.10999999999999995 -1.019
839 2 3 0.0600 246.1981 0.666 0.748
840 2 7 0.0300 248.5281 -0.588 0.851
841 2 3 0.0600 248.4231 -0.4570000000000003 -4.521
842 2 3 0.0600 249.3691 -1.5610000000000002 -3.418
843 2 3 0.0600 249.9921 0.025999999999999763 -3.859
844 2 2 -0.1200 250.12810000000002 0.0 0.0
845 2 9 0.2200 251.6361 0.0 0.0
846 2 6 -0.3300 252.17610000000002 -1.196 -0.49
847 2 4 0.5100 251.93710000000002 -2.426 0.083
848 2 5 -0.4300 251.2011 -2.552 1.107
849 2 1 -0.1800 252.5581 -3.63 -0.515
850 2 3 0.0600 249.7021 -1.019 0.11
851 2 3 0.0600 249.70610000000002 0.748 0.666
852 2 7 0.0300 252.0361 0.851 -0.588
853 2 3 0.0600 251.93110000000001 -4.521 -0.457
854 2 3 0.0600 252.8771 -3.418 -1.561
855 2 3 0.0600 253.5001 -3.859 0.026
856 2 2 -0.1200 253.63610000000003 0.0 0.0
857 2 9 0.2200 255.1441 0.0 0.0
858 2 6 -0.3300 255.68410000000003 0.48999999999999994 -1.196
859 2 4 0.5100 255.44510000000002 -0.08300000000000016 -2.426
860 2 5 -0.4300 254.7091 -1.1070000000000002 -2.552
861 2 1 -0.1800 256.0661 0.5149999999999998 -3.63
862 2 3 0.0600 253.2101 -0.11000000000000006 -1.019
863 2 3 0.0600 253.21410000000003 -0.666 0.748
864 2 7 0.0300 255.54410000000001 0.588 0.851
865 2 3 0.0600 255.43910000000002 0.45699999999999974 -4.521
866 2 3 0.0600 256.3851 1.5609999999999997 -3.418
867 2 3 0.0600 257.0081 -0.026000000000000235 -3.859
868 2 2 -0.1200 257.1441 0.0 0.0
869 2 9 0.2200 258.6521 0.0 0.0
870 2 6 -0.3300 259.1921 -1.196 -0.49
871 2 4 0.5100 258.9531 -2.426 0.083
872 2 5 -0.4300 258.2171 -2.552 1.107
873 2 1 -0.1800 259.5741 -3.63 -0.515
874 2 3 0.0600 256.7181 -1.019 0.11
875 2 3 0.0600 256.7221 0.748 0.666
876 2 7 0.0300 259.0521 0.851 -0.588
877 2 3 0.0600 258.9471 -4.521 -0.457
878 2 3 0.0600 259.8931 -3.418 -1.561
879 2 3 0.0600 260.5161 -3.859 0.026
880 2 2 -0.1200 260.6521 0.0 0.0
881 2 9 0.2200 262.16010000000006 0.0 0.0
882 2 6 -0.3300 262.7001 -0.49000000000000005 -1.196
883 2 4 0.5100 262.46110000000004 0.08299999999999985 -2.426
884 2 5 -0.4300 261.72510000000005 1.1069999999999998 -2.552
885 2 1 -0.1800 263.0821 -0.5150000000000002 -3.63
886 2 3 0.0600 260.22610000000003 0.10999999999999995 -1.019
887 2 3 0.0600 260.23010000000005 0.666 0.748
888 2 7 0.0300 262.56010000000003 -0.588 0.851
889 2 3 0.0600 262.4551 -0.4570000000000003 -4.521
890 2 3 0.0600 263.40110000000004 -1.5610000000000002 -3.418
891 2 3 0.0600 264.02410000000003 0.025999999999999763 -3.859
892 2 2 -0.1200 264.1601 0.0 0.0
893 2 9 0.2200 265.66810000000004 0.0 0.0
894 2 6 -0.3300 266.2081 -1.196 -0.49
895 2 4 0.5100 265.9691 -2.426 0.083
896 2 5 -0.4300 265.23310000000004 -2.552 1.107
897 2 1 -0.1800 266.5901 -3.63 -0.515
898 2 3 0.0600 263.7341 -1.019 0.11
899 2 3 0.0600 263.73810000000003 0.748 0.666
900 2 7 0.0300 266.0681 0.851 -0.588
901 2 3 0.0600 265.9631 -4.521 -0.457
902 2 3 0.0600 266.9091 -3.418 -1.561
903 2 3 0.0600 267.5321 -3.859 0.026
904 2 2 -0.1200 267.6681 0.0 0.0
905 2 9 0.2200 269.1761 0.0 0.0
906 2 6 -0.3300 269.7161 0.48999999999999994 -1.196
907 2 4 0.5100 269.4771 -0.08300000000000016 -2.426
908 2 5 -0.4300 268.7411 -1.1070000000000002 -2.552
909 2 1 -0.1800 270.0981 0.5149999999999998 -3.63
910 2 3 0.0600 267.2421 -0.11000000000000006 -1.019
911 2 3 0.0600 267.2461 -0.666 0.748
912 2 7 0.0300 269.5761 0.588 0.851
913 2 3 0.0600 269.4711 0.45699999999999974 -4.521
914 2 3 0.0600 270.4171 1.5609999999999997 -3.418
915 2 3 0.0600 271.0401 -0.026000000000000235 -3.859
916 2 2 -0.1200 271.1761 0.0 0.0
917 2 9 0.2200 272.68410000000006 0.0 0.0
918 2 6 -0.3300 273.2241 -1.196 -0.49
919 2 4 0.5100 272.98510000000005 -2.426 0.083
920 2 5 -0.4300 272.24910000000006 -2.552 1.107
921 2 1 -0.1800 273.6061 -3.63 -0.515
922 2 3 0.0600 270.75010000000003 -1.019 0.11
923 2 3 0.0600 270.75410000000005 0.748 0.666
924 2 7 0.0300 273.08410000000003 0.851 -0.588
925 2 3 0.0600 272.9791 -4.521 -0.457
926 2 3 0.0600 273.92510000000004 -3.418 -1.561
927 2 3 0.0600 274.54810000000003 -3.859 0.026
928 2 2 -0.1200 274.6841 0.0 0.0
929 2 9 0.2200 276.19210000000004 0.0 0.0
930 2 6 -0.3300 276.7321 0.48999999999999994 -1.196
931 2 4 0.5100 276.4931 -0.08300000000000016 -2.426
932 2 5 -0.4300 275.75710000000004 -1.1070000000000002 -2.552
933 2 1 -0.1800 277.1141 0.5149999999999998 -3.63
934 2 3 0.0600 274.2581 -0.11000000000000006 -1.019
935 2 3 0.0600 274.26210000000003 -0.666 0.748
936 2 7 0.0300 276.5921 0.588 0.851
937 2 3 0.0600 276.4871 0.45699999999999974 -4.521
938 2 3 0.0600 277.4331 1.5609999999999997 -3.418
939 2 3 0.0600 278.0561 -0.026000000000000235 -3.859
940 2 2 -0.1200 278.1921 0.0 0.0
941 2 9 0.2200 279.7001 0.0 0.0
942 2 6 -0.3300 280.2401 -1.196 -0.49
943 2 4 0.5100 280.0011 -2.426 0.083
944 2 5 -0.4300 279.2651 -2.552 1.107
945 2 1 -0.1800 280.6221 -3.63 -0.515
946 2 3 0.0600 277.7661 -1.019 0.11
947 2 3 0.0600 277.7701 0.748 0.666
948 2 7 0.0300 280.1001 0.851 -0.588
949 2 3 0.0600 279.9951 -4.521 -0.457
950 2 3 0.0600 280.9411 -3.418 -1.561
951 2 3 0.0600 281.5641 -3.859 0.026
952 2 2 -0.1200 281.7001 0.0 0.0
953 2 9 0.2200 283.20810000000006 0.0 0.0
954 2 6 -0.3300 283.7481 0.48999999999999994 -1.196
955 2 4 0.5100 283.50910000000005 -0.08300000000000016 -2.426
956 2 5 -0.4300 282.77310000000006 -1.1070000000000002 -2.552
957 2 1 -0.1800 284.1301 0.5149999999999998 -3.63
958 2 3 0.0600 281.27410000000003 -0.11000000000000006 -1.019
959 2 3 0.0600 281.27810000000005 -0.666 0.748
960 2 7 0.0300 283.60810000000004 0.588 0.851
961 2 3 0.0600 283.5031 0.45699999999999974 -4.521
962 2 3 0.0600 284.44910000000004 1.5609999999999997 -3.418
963 2 3 0.0600 285.07210000000003 -0.026000000000000235 -3.859
964 2 2 -0.1200 285.2081 0.0 0.0
965 2 9 0.2200 286.71610000000004 0.0 0.0
966 2 6 -0.3300 287.2561 -1.196 -0.49
967 2 4 0.5100 287.0171 -2.426 0.083
968 2 5 -0.4300 286.28110000000004 -2.552 1.107
969 2 1 -0.1800 287.6381 -3.63 -0.515
970 2 3 0.0600 284.7821 -1.019 0.11
971 2 3 0.0600 284.78610000000003 0.748 0.666
972 2 7 0.0300 287.1161 0.851 -0.588
973 2 3 0.0600 287.0111 -4.521 -0.457
974 2 3 0.0600 287.9571 -3.418 -1.561
975 2 3 0.0600 288.5801 -3.859 0.026
976 2 2 -0.1200 288.7161 0.0 0.0
977 2 9 0.2200 290.2241 0.0 0.0
978 2 6 -0.3300 290.7641 0.48999999999999994 -1.196
979 2 4 0.5100 290.5251 -0.08300000000000016 -2.426
980 2 5 -0.4300 289.7891 -1.1070000000000002 -2.552
981 2 1 -0.1800 291.1461 0.5149999999999998 -3.63
982 2 3 0.0600 288.2901 -0.11000000000000006 -1.019
983 2 3 0.0600 288.2941 -0.666 0.748
984 2 7 0.0300 290.6241 0.588 0.851
985 2 3 0.0600 290.5191 0.45699999999999974 -4.521
986 2 3 0.0600 291.4651 1.5609999999999997 -3.418
987 2 3 0.0600 292.0881 -0.026000000000000235 -3.859
988 2 2 -0.1200 292.2241 0.0 0.0
989 2 9 0.2200 293.73210000000006 0.0 0.0
990 2 6 -0.3300 294.2721 -1.196 -0.49
991 2 4 0.5100 294.03310000000005 -2.426 0.083
992 2 5 -0.4300 293.29710000000006 -2.552 1.107
993 2 1 -0.1800 294.6541 -3.63 -0.515
994 2 3 0.0600 291.79810000000003 -1.019 0.11
995 2 3 0.0600 291.80210000000005 0.748 0.666
996 2 7 0.0300 294.13210000000004 0.851 -0.588
997 2 3 0.0600 294.0271 -4.521 -0.457
998 2 3 0.0600 294.97310000000004 -3.418 -1.561
999 2 3 0.0600 295.59610000000004 -3.859 0.026
1000 2 2 -0.1200 295.7321 0.0 0.0
1001 2 9 0.2200 297.24010000000004 0.0 0.0
1002 2 6 -0.3300 297.7801 0.48999999999999994 -1.196
1003 2 4 0.5100 297.54110000000003 -0.08300000000000016 -2.426
1004 2 5 -0.4300 296.80510000000004 -1.1070000000000002 -2.552
1005 2 1 -0.1800 298.1621 0.5149999999999998 -3.63
1006 2 3 0.0600 295.3061 -0.11000000000000006 -1.019
1007 2 3 0.0600 295.31010000000003 -0.666 0.748
1008 2 7 0.0300 297.6401 0.588 0.851
1009 2 3 0.0600 297.5351 0.45699999999999974 -4.521
1010 2 3 0.0600 298.4811 1.5609999999999997 -3.418
1011 2 3 0.0600 299.1041 -0.026000000000000235 -3.859
1012 2 2 -0.1200 299.2401 0.0 0.0
1013 2 9 0.2200 300.7481 0.0 0.0
1014 2 6 -0.3300 301.2881 -1.196 -0.49
1015 2 4 0.5100 301.0491 -2.426 0.083
1016 2 5 -0.4300 300.3131 -2.552 1.107
1017 2 1 -0.1800 301.6701 -3.63 -0.515
1018 2 3 0.0600 298.8141 -1.019 0.11
1019 2 3 0.0600 298.8181 0.748 0.666
1020 2 7 0.0300 301.1481 0.851 -0.588
1021 2 3 0.0600 301.0431 -4.521 -0.457
1022 2 3 0.0600 301.9891 -3.418 -1.561
1023 2 3 0.0600 302.6121 -3.859 0.026
1024 2 2 -0.1200 302.7481 0.0 0.0
1025 2 9 0.2200 304.25610000000006 0.0 0.0
1026 2 6 -0.3300 304.7961 -0.49000000000000005 -1.196
1027 2 4 0.5100 304.55710000000005 0.08299999999999985 -2.426
1028 2 5 -0.4300 303.82110000000006 1.1069999999999998 -2.552
1029 2 1 -0.1800 305.17810000000003 -0.5150000000000002 -3.63
1030 2 3 0.0600 302.32210000000003 0.10999999999999995 -1.019
1031 2 3 0.0600 302.32610000000005 0.666 0.748
1032 2 7 0.0300 304.65610000000004 -0.588 0.851
1033 2 3 0.0600 304.5511 -0.4570000000000003 -4.521
1034 2 3 0.0600 305.49710000000005 -1.5610000000000002 -3.418
1035 2 3 0.0600 306.12010000000004 0.025999999999999763 -3.859
1036 2 2 -0.1200 306.2561 0.0 0.0
1037 2 9 0.2200 307.76410000000004 0.0 0.0
1038 2 6 -0.3300 308.3041 -1.196 0.49
1039 2 4 0.5100 308.06510000000003 -2.426 -0.083
1040 2 5 -0.4300 307.32910000000004 -2.552 -1.107
1041 2 1 -0.1800 308.6861 -3.63 0.515
1042 2 3 0.0600 305.8301 -1.019 -0.11
1043 2 3 0.0600 305.83410000000003 0.748 -0.666
1044 2 7 0.0300 308.1641 0.851 0.588
1045 2 3 0.0600 308.0591 -4.521 0.457
1046 2 3 0.0600 309.0051 -3.418 1.561
1047 2 3 0.0600 309.6281 -3.859 -0.026
1048 2 2 -0.1200 309.7641 0.0 0.0
1049 2 9 0.2200 311.2721 0.0 0.0
1050 2 6 -0.3300 311.8121 0.48999999999999994 -1.196
1051 2 4 0.5100 311.5731 -0.08300000000000016 -2.426
1052 2 5 -0.4300 310.8371 -1.1070000000000002 -2.552
1053 2 1 -0.1800 312.1941 0.5149999999999998 -3.63
1054 2 3 0.0600 309.3381 -0.11000000000000006 -1.019
1055 2 3 0.0600 309.3421 -0.666 0.748
1056 2 7 0.0300 311.6721 0.588 0.851
1057 2 3 0.0600 311.5671 0.45699999999999974 -4.521
1058 2 3 0.0600 312.5131 1.5609999999999997 -3.418
1059 2 3 0.0600 313.1361 -0.026000000000000235 -3.859
1060 2 2 -0.1200 313.2721 0.0 0.0
1061 2 9 0.2200 314.78010000000006 0.0 0.0
1062 2 6 -0.3300 315.3201 -1.196 0.49
1063 2 4 0.5100 315.08110000000005 -2.426 -0.083
1064 2 5 -0.4300 314.34510000000006 -2.552 -1.107
1065 2 1 -0.1800 315.70210000000003 -3.63 0.515
1066 2 3 0.0600 312.84610000000004 -1.019 -0.11
1067 2 3 0.0600 312.85010000000005 0.748 -0.666
1068 2 7 0.0300 315.18010000000004 0.851 0.588
1069 2 3 0.0600 315.0751 -4.521 0.457
1070 2 3 0.0600 316.02110000000005 -3.418 1.561
1071 2 3 0.0600 316.64410000000004 -3.859 -0.026
1072 2 2 -0.1200 316.7801 0.0 0.0
1073 2 9 0.2200 318.28810000000004 0.0 0.0
1074 2 6 -0.3300 318.8281 -0.49000000000000005 -1.196
1075 2 4 0.5100 318.58910000000003 0.08299999999999985 -2.426
1076 2 5 -0.4300 317.85310000000004 1.1069999999999998 -2.552
1077 2 1 -0.1800 319.2101 -0.5150000000000002 -3.63
1078 2 3 0.0600 316.3541 0.10999999999999995 -1.019
1079 2 3 0.0600 316.35810000000004 0.666 0.748
1080 2 7 0.0300 318.6881 -0.588 0.851
1081 2 3 0.0600 318.5831 -0.4570000000000003 -4.521
1082 2 3 0.0600 319.5291 -1.5610000000000002 -3.418
1083 2 3 0.0600 320.1521 0.025999999999999763 -3.859
1084 2 2 -0.1200 320.2881 0.0 0.0
1085 2 9 0.2200 321.7961 0.0 0.0
1086 2 6 -0.3300 322.3361 -1.196 -0.49
1087 2 4 0.5100 322.0971 -2.426 0.083
1088 2 5 -0.4300 321.3611 -2.552 1.107
1089 2 1 -0.1800 322.7181 -3.63 -0.515
1090 2 3 0.0600 319.8621 -1.019 0.11
1091 2 3 0.0600 319.8661 0.748 0.666
1092 2 7 0.0300 322.1961 0.851 -0.588
1093 2 3 0.0600 322.0911 -4.521 -0.457
1094 2 3 0.0600 323.0371 -3.418 -1.561
1095 2 3 0.0600 323.6601 -3.859 0.026
1096 2 2 -0.1200 323.7961 0.0 0.0
1097 2 9 0.2200 325.30410000000006 0.0 0.0
1098 2 6 -0.3300 325.8441 -0.49000000000000005 -1.196
1099 2 4 0.5100 325.60510000000005 0.08299999999999985 -2.426
1100 2 5 -0.4300 324.86910000000006 1.1069999999999998 -2.552
1101 2 1 -0.1800 326.22610000000003 -0.5150000000000002 -3.63
1102 2 3 0.0600 323.37010000000004 0.10999999999999995 -1.019
1103 2 3 0.0600 323.37410000000006 0.666 0.748
1104 2 7 0.0300 325.70410000000004 -0.588 0.851
1105 2 3 0.0600 325.5991 -0.4570000000000003 -4.521
1106 2 3 0.0600 326.54510000000005 -1.5610000000000002 -3.418
1107 2 3 0.0600 327.16810000000004 0.025999999999999763 -3.859
1108 2 2 -0.1200 327.3041 0.0 0.0
1109 2 9 0.2200 328.81210000000004 0.0 0.0
1110 2 6 -0.3300 329.3521 -1.196 0.49
1111 2 4 0.5100 329.11310000000003 -2.426 -0.083
1112 2 5 -0.4300 328.37710000000004 -2.552 -1.107
1113 2 1 -0.1800 329.7341 -3.63 0.515
1114 2 3 0.0600 326.8781 -1.019 -0.11
1115 2 3 0.0600 326.88210000000004 0.748 -0.666
1116 2 7 0.0300 329.2121 0.851 0.588
1117 2 3 0.0600 329.1071 -4.521 0.457
1118 2 3 0.0600 330.05310000000003 -3.418 1.561
1119 2 3 0.0600 330.6761 -3.859 -0.026
1120 2 2 -0.1200 330.8121 0.0 0.0
1121 2 9 0.2200 332.3201 0.0 0.0
1122 2 6 -0.3300 332.8601 0.48999999999999994 -1.196
1123 2 4 0.5100 332.6211 -0.08300000000000016 -2.426
1124 2 5 -0.4300 331.8851 -1.1070000000000002 -2.552
1125 2 1 -0.1800 333.2421 0.5149999999999998 -3.63
1126 2 3 0.0600 330.3861 -0.11000000000000006 -1.019
1127 2 3 0.0600 330.3901 -0.666 0.748
1128 2 7 0.0300 332.7201 0.588 0.851
1129 2 3 0.0600 332.6151 0.45699999999999974 -4.521
1130 2 3 0.0600 333.5611 1.5609999999999997 -3.418
1131 2 3 0.0600 334.1841 -0.026000000000000235 -3.859
1132 2 2 -0.1200 334.3201 0.0 0.0
1133 2 9 0.2200 335.82810000000006 0.0 0.0
1134 2 6 -0.3300 336.3681 -1.196 0.49
1135 2 4 0.5100 336.12910000000005 -2.426 -0.083
1136 2 5 -0.4300 335.39310000000006 -2.552 -1.107
1137 2 1 -0.1800 336.75010000000003 -3.63 0.515
1138 2 3 0.0600 333.89410000000004 -1.019 -0.11
1139 2 3 0.0600 333.89810000000006 0.748 -0.666
1140 2 7 0.0300 336.22810000000004 0.851 0.588
1141 2 3 0.0600 336.1231 -4.521 0.457
1142 2 3 0.0600 337.06910000000005 -3.418 1.561
1143 2 3 0.0600 337.69210000000004 -3.859 -0.026
1144 2 2 -0.1200 337.82809999999995 0.0 0.0
1145 2 9 0.2200 339.3361 0.0 0.0
1146 2 6 -0.3300 339.87609999999995 0.48999999999999994 -1.196
1147 2 4 0.5100 339.6371 -0.08300000000000016 -2.426
1148 2 5 -0.4300 338.9011 -1.1070000000000002 -2.552
1149 2 1 -0.1800 340.25809999999996 0.5149999999999998 -3.63
1150 2 3 0.0600 337.40209999999996 -0.11000000000000006 -1.019
1151 2 3 0.0600 337.4061 -0.666 0.748
1152 2 7 0.0300 339.73609999999996 0.588 0.851
1153 2 3 0.0600 339.63109999999995 0.45699999999999974 -4.521
1154 2 3 0.0600 340.5771 1.5609999999999997 -3.418
1155 2 3 0.0600 341.20009999999996 -0.026000000000000235 -3.859
1156 2 2 -0.1200 341.3361 0.0 0.0
1157 2 9 0.2200 342.8441 0.0 0.0
1158 2 6 -0.3300 343.3841 -1.196 -0.49
1159 2 4 0.5100 343.1451 -2.426 0.083
1160 2 5 -0.4300 342.4091 -2.552 1.107
1161 2 1 -0.1800 343.7661 -3.63 -0.515
1162 2 3 0.0600 340.9101 -1.019 0.11
1163 2 3 0.0600 340.9141 0.748 0.666
1164 2 7 0.0300 343.2441 0.851 -0.588
1165 2 3 0.0600 343.1391 -4.521 -0.457
1166 2 3 0.0600 344.0851 -3.418 -1.561
1167 2 3 0.0600 344.7081 -3.859 0.026
1168 2 2 -0.1200 344.8441 0.0 0.0
1169 2 9 0.2200 346.35210000000006 0.0 0.0
1170 2 6 -0.3300 346.8921 0.48999999999999994 -1.196
1171 2 4 0.5100 346.65310000000005 -0.08300000000000016 -2.426
1172 2 5 -0.4300 345.91710000000006 -1.1070000000000002 -2.552
1173 2 1 -0.1800 347.27410000000003 0.5149999999999998 -3.63
1174 2 3 0.0600 344.41810000000004 -0.11000000000000006 -1.019
1175 2 3 0.0600 344.42210000000006 -0.666 0.748
1176 2 7 0.0300 346.75210000000004 0.588 0.851
1177 2 3 0.0600 346.6471 0.45699999999999974 -4.521
1178 2 3 0.0600 347.59310000000005 1.5609999999999997 -3.418
1179 2 3 0.0600 348.21610000000004 -0.026000000000000235 -3.859
1180 2 2 -0.1200 348.35209999999995 0.0 0.0
1181 2 9 0.2200 349.8601 0.0 0.0
1182 2 6 -0.3300 350.40009999999995 -1.196 -0.49
1183 2 4 0.5100 350.1611 -2.426 0.083
1184 2 5 -0.4300 349.4251 -2.552 1.107
1185 2 1 -0.1800 350.78209999999996 -3.63 -0.515
1186 2 3 0.0600 347.92609999999996 -1.019 0.11
1187 2 3 0.0600 347.9301 0.748 0.666
1188 2 7 0.0300 350.26009999999997 0.851 -0.588
1189 2 3 0.0600 350.15509999999995 -4.521 -0.457
1190 2 3 0.0600 351.1011 -3.418 -1.561
1191 2 3 0.0600 351.72409999999996 -3.859 0.026
1192 2 2 -0.1200 350.1341 0.0 0.0
1193 2 8 0.1900 350.7071 0.48700000000000004 1.269
1194 2 6 -0.3300 352.0391 0.8970000000000001 1.192
1195 2 4 0.5100 353.0871 0.06400000000000006 0.807
1196 2 5 -0.4300 352.85110000000003 -1.143 0.5040000000000001
1197 2 1 -0.1800 354.4941 0.577 0.748
1198 2 3 0.0600 349.94710000000003 -1.049 -0.11599999999999994
1199 2 3 0.0600 349.8831 0.709 -0.759
1200 2 7 0.0300 350.10810000000004 1.377 1.587
1201 2 7 0.0300 350.5681 -0.2569999999999999 2.079
1202 2 3 0.0600 354.9671 0.5530000000000002 1.738
1203 2 3 0.0600 354.47110000000004 1.652 0.4329999999999999
1204 2 3 0.0600 355.0941 0.0 0.0
1205 3 1 -0.1800 360.64520000000005 0.0 0.0
1206 3 9 0.2200 362.1712 0.0 0.0
1207 3 6 -0.3300 362.61420000000004 -0.493 1.254
1208 3 4 0.5100 364.00320000000005 -0.561 1.426
1209 3 5 -0.4300 364.7932 -0.204 0.517
1210 3 1 -0.1800 364.5812 -1.064 2.705
1211 3 3 0.0600 360.2792 -1.023 0.168
1212 3 3 0.0600 360.2692 0.372 -0.973
1213 3 3 0.0600 360.33520000000004 0.65 0.832
1214 3 7 0.0300 362.5812 1.0 -0.146
1215 3 3 0.0600 363.77320000000003 -1.452 3.336
1216 3 3 0.0600 365.1992 -0.284 3.204
1217 3 3 0.0600 365.2952 -1.875 2.397
1218 3 2 -0.1200 364.1802 0.0 0.0
1219 3 9 0.2200 365.68820000000005 0.0 0.0
1220 3 6 -0.3300 366.2282 -0.49000000000000005 -1.196
1221 3 4 0.5100 365.98920000000004 0.08299999999999985 -2.426
1222 3 5 -0.4300 365.25320000000005 1.1069999999999998 -2.552
1223 3 1 -0.1800 366.6102 -0.5150000000000002 -3.63
1224 3 3 0.0600 363.7542 0.10999999999999995 -1.019
1225 3 3 0.0600 363.75820000000004 0.666 0.748
1226 3 7 0.0300 366.08820000000003 -0.588 0.851
1227 3 3 0.0600 365.9832 -0.4570000000000003 -4.521
1228 3 3 0.0600 366.92920000000004 -1.5610000000000002 -3.418
1229 3 3 0.0600 367.5522 0.025999999999999763 -3.859
1230 3 2 -0.1200 367.6882 0.0 0.0
1231 3 9 0.2200 369.19620000000003 0.0 0.0
1232 3 6 -0.3300 369.7362 -1.196 0.49
1233 3 4 0.5100 369.4972 -2.426 -0.083
1234 3 5 -0.4300 368.76120000000003 -2.552 -1.107
1235 3 1 -0.1800 370.1182 -3.63 0.515
1236 3 3 0.0600 367.2622 -1.019 -0.11
1237 3 3 0.0600 367.2662 0.748 -0.666
1238 3 7 0.0300 369.5962 0.851 0.588
1239 3 3 0.0600 369.4912 -4.521 0.457
1240 3 3 0.0600 370.4372 -3.418 1.561
1241 3 3 0.0600 371.0602 -3.859 -0.026
1242 3 2 -0.1200 371.1962 0.0 0.0
1243 3 9 0.2200 372.7042 0.0 0.0
1244 3 6 -0.3300 373.2442 0.48999999999999994 -1.196
1245 3 4 0.5100 373.0052 -0.08300000000000016 -2.426
1246 3 5 -0.4300 372.2692 -1.1070000000000002 -2.552
1247 3 1 -0.1800 373.6262 0.5149999999999998 -3.63
1248 3 3 0.0600 370.7702 -0.11000000000000006 -1.019
1249 3 3 0.0600 370.7742 -0.666 0.748
1250 3 7 0.0300 373.1042 0.588 0.851
1251 3 3 0.0600 372.9992 0.45699999999999974 -4.521
1252 3 3 0.0600 373.9452 1.5609999999999997 -3.418
1253 3 3 0.0600 374.5682 -0.026000000000000235 -3.859
1254 3 2 -0.1200 374.7042 0.0 0.0
1255 3 9 0.2200 376.21220000000005 0.0 0.0
1256 3 6 -0.3300 376.7522 -1.196 0.49
1257 3 4 0.5100 376.51320000000004 -2.426 -0.083
1258 3 5 -0.4300 375.77720000000005 -2.552 -1.107
1259 3 1 -0.1800 377.1342 -3.63 0.515
1260 3 3 0.0600 374.2782 -1.019 -0.11
1261 3 3 0.0600 374.28220000000005 0.748 -0.666
1262 3 7 0.0300 376.61220000000003 0.851 0.588
1263 3 3 0.0600 376.5072 -4.521 0.457
1264 3 3 0.0600 377.45320000000004 -3.418 1.561
1265 3 3 0.0600 378.07620000000003 -3.859 -0.026
1266 3 2 -0.1200 378.2122 0.0 0.0
1267 3 9 0.2200 379.72020000000003 0.0 0.0
1268 3 6 -0.3300 380.2602 0.48999999999999994 -1.196
1269 3 4 0.5100 380.0212 -0.08300000000000016 -2.426
1270 3 5 -0.4300 379.28520000000003 -1.1070000000000002 -2.552
1271 3 1 -0.1800 380.6422 0.5149999999999998 -3.63
1272 3 3 0.0600 377.7862 -0.11000000000000006 -1.019
1273 3 3 0.0600 377.7902 -0.666 0.748
1274 3 7 0.0300 380.1202 0.588 0.851
1275 3 3 0.0600 380.0152 0.45699999999999974 -4.521
1276 3 3 0.0600 380.9612 1.5609999999999997 -3.418
1277 3 3 0.0600 381.5842 -0.026000000000000235 -3.859
1278 3 2 -0.1200 381.7202 0.0 0.0
1279 3 9 0.2200 383.2282 0.0 0.0
1280 3 6 -0.3300 383.7682 -1.196 0.49
1281 3 4 0.5100 383.5292 -2.426 -0.083
1282 3 5 -0.4300 382.7932 -2.552 -1.107
1283 3 1 -0.1800 384.1502 -3.63 0.515
1284 3 3 0.0600 381.2942 -1.019 -0.11
1285 3 3 0.0600 381.2982 0.748 -0.666
1286 3 7 0.0300 383.6282 0.851 0.588
1287 3 3 0.0600 383.5232 -4.521 0.457
1288 3 3 0.0600 384.4692 -3.418 1.561
1289 3 3 0.0600 385.0922 -3.859 -0.026
1290 3 2 -0.1200 385.2282 0.0 0.0
1291 3 9 0.2200 386.73620000000005 0.0 0.0
1292 3 6 -0.3300 387.2762 -0.49000000000000005 -1.196
1293 3 4 0.5100 387.03720000000004 0.08299999999999985 -2.426
1294 3 5 -0.4300 386.30120000000005 1.1069999999999998 -2.552
1295 3 1 -0.1800 387.6582 -0.5150000000000002 -3.63
1296 3 3 0.0600 384.8022 0.10999999999999995 -1.019
1297 3 3 0.0600 384.80620000000005 0.666 0.748
1298 3 7 0.0300 387.13620000000003 -0.588 0.851
1299 3 3 0.0600 387.0312 -0.4570000000000003 -4.521
1300 3 3 0.0600 387.97720000000004 -1.5610000000000002 -3.418
1301 3 3 0.0600 388.60020000000003 0.025999999999999763 -3.859
1302 3 2 -0.1200 388.7362 0.0 0.0
1303 3 9 0.2200 390.24420000000003 0.0 0.0
1304 3 6 -0.3300 390.7842 -1.196 0.49
1305 3 4 0.5100 390.5452 -2.426 -0.083
1306 3 5 -0.4300 389.80920000000003 -2.552 -1.107
1307 3 1 -0.1800 391.1662 -3.63 0.515
1308 3 3 0.0600 388.3102 -1.019 -0.11
1309 3 3 0.0600 388.3142 0.748 -0.666
1310 3 7 0.0300 390.6442 0.851 0.588
1311 3 3 0.0600 390.5392 -4.521 0.457
1312 3 3 0.0600 391.4852 -3.418 1.561
1313 3 3 0.0600 392.1082 -3.859 -0.026
1314 3 2 -0.1200 392.2442 0.0 0.0
1315 3 9 0.2200 393.7522 0.0 0.0
1316 3 6 -0.3300 394.2922 0.48999999999999994 -1.196
1317 3 4 0.5100 394.0532 -0.08300000000000016 -2.426
1318 3 5 -0.4300 393.3172 -1.1070000000000002 -2.552
1319 3 1 -0.1800 394.6742 0.5149999999999998 -3.63
1320 3 3 0.0600 391.8182 -0.11000000000000006 -1.019
1321 3 3 0.0600 391.8222 -0.666 0.748
1322 3 7 0.0300 394.1522 0.588 0.851
1323 3 3 0.0600 394.0472 0.45699999999999974 -4.521
1324 3 3 0.0600 394.9932 1.5609999999999997 -3.418
1325 3 3 0.0600 395.6162 -0.026000000000000235 -3.859
1326 3 2 -0.1200 395.7522 0.0 0.0
1327 3 9 0.2200 397.26020000000005 0.0 0.0
1328 3 6 -0.3300 397.8002 -1.196 -0.49
1329 3 4 0.5100 397.56120000000004 -2.426 0.083
1330 3 5 -0.4300 396.82520000000005 -2.552 1.107
1331 3 1 -0.1800 398.1822 -3.63 -0.515
1332 3 3 0.0600 395.32620000000003 -1.019 0.11
1333 3 3 0.0600 395.33020000000005 0.748 0.666
1334 3 7 0.0300 397.66020000000003 0.851 -0.588
1335 3 3 0.0600 397.5552 -4.521 -0.457
1336 3 3 0.0600 398.50120000000004 -3.418 -1.561
1337 3 3 0.0600 399.12420000000003 -3.859 0.026
1338 3 2 -0.1200 399.2602 0.0 0.0
1339 3 9 0.2200 400.76820000000004 0.0 0.0
1340 3 6 -0.3300 401.3082 0.48999999999999994 -1.196
1341 3 4 0.5100 401.0692 -0.08300000000000016 -2.426
1342 3 5 -0.4300 400.33320000000003 -1.1070000000000002 -2.552
1343 3 1 -0.1800 401.6902 0.5149999999999998 -3.63
1344 3 3 0.0600 398.8342 -0.11000000000000006 -1.019
1345 3 3 0.0600 398.83820000000003 -0.666 0.748
1346 3 7 0.0300 401.1682 0.588 0.851
1347 3 3 0.0600 401.0632 0.45699999999999974 -4.521
1348 3 3 0.0600 402.0092 1.5609999999999997 -3.418
1349 3 3 0.0600 402.6322 -0.026000000000000235 -3.859
1350 3 2 -0.1200 402.7682 0.0 0.0
1351 3 9 0.2200 404.2762 0.0 0.0
1352 3 6 -0.3300 404.8162 -1.196 0.49
1353 3 4 0.5100 404.5772 -2.426 -0.083
1354 3 5 -0.4300 403.8412 -2.552 -1.107
1355 3 1 -0.1800 405.1982 -3.63 0.515
1356 3 3 0.0600 402.3422 -1.019 -0.11
1357 3 3 0.0600 402.3462 0.748 -0.666
1358 3 7 0.0300 404.6762 0.851 0.588
1359 3 3 0.0600 404.5712 -4.521 0.457
1360 3 3 0.0600 405.5172 -3.418 1.561
1361 3 3 0.0600 406.1402 -3.859 -0.026
1362 3 2 -0.1200 406.2762 0.0 0.0
1363 3 9 0.2200 407.78420000000006 0.0 0.0
1364 3 6 -0.3300 408.3242 0.48999999999999994 -1.196
1365 3 4 0.5100 408.08520000000004 -0.08300000000000016 -2.426
1366 3 5 -0.4300 407.34920000000005 -1.1070000000000002 -2.552
1367 3 1 -0.1800 408.7062 0.5149999999999998 -3.63
1368 3 3 0.0600 405.85020000000003 -0.11000000000000006 -1.019
1369 3 3 0.0600 405.85420000000005 -0.666 0.748
1370 3 7 0.0300 408.18420000000003 0.588 0.851
1371 3 3 0.0600 408.0792 0.45699999999999974 -4.521
1372 3 3 0.0600 409.02520000000004 1.5609999999999997 -3.418
1373 3 3 0.0600 409.64820000000003 -0.026000000000000235 -3.859
1374 3 2 -0.1200 409.7842 0.0 0.0
1375 3 9 0.2200 411.29220000000004 0.0 0.0
1376 3 6 -0.3300 411.8322 -1.196 -0.49
1377 3 4 0.5100 411.5932 -2.426 0.083
1378 3 5 -0.4300 410.85720000000003 -2.552 1.107
1379 3 1 -0.1800 412.2142 -3.63 -0.515
1380 3 3 0.0600 409.3582 -1.019 0.11
1381 3 3 0.0600 409.36220000000003 0.748 0.666
1382 3 7 0.0300 411.6922 0.851 -0.588
1383 3 3 0.0600 411.5872 -4.521 -0.457
1384 3 3 0.0600 412.5332 -3.418 -1.561
1385 3 3 0.0600 413.1562 -3.859 0.026
1386 3 2 -0.1200 413.2922 0.0 0.0
1387 3 9 0.2200 414.8002 0.0 0.0
1388 3 6 -0.3300 415.3402 0.48999999999999994 -1.196
1389 3 4 0.5100 415.1012 -0.08300000000000016 -2.426
1390 3 5 -0.4300 414.3652 -1.1070000000000002 -2.552
1391 3 1 -0.1800 415.7222 0.5149999999999998 -3.63
1392 3 3 0.0600 412.8662 -0.11000000000000006 -1.019
1393 3 3 0.0600 412.8702 -0.666 0.748
1394 3 7 0.0300 415.2002 0.588 0.851
1395 3 3 0.0600 415.0952 0.45699999999999974 -4.521
1396 3 3 0.0600 416.0412 1.5609999999999997 -3.418
1397 3 3 0.0600 416.6642 -0.026000000000000235 -3.859
1398 3 2 -0.1200 416.8002 0.0 0.0
1399 3 9 0.2200 418.30820000000006 0.0 0.0
1400 3 6 -0.3300 418.8482 -1.196 -0.49
1401 3 4 0.5100 418.60920000000004 -2.426 0.083
1402 3 5 -0.4300 417.87320000000005 -2.552 1.107
1403 3 1 -0.1800 419.2302 -3.63 -0.515
1404 3 3 0.0600 416.37420000000003 -1.019 0.11
1405 3 3 0.0600 416.37820000000005 0.748 0.666
1406 3 7 0.0300 418.70820000000003 0.851 -0.588
1407 3 3 0.0600 418.6032 -4.521 -0.457
1408 3 3 0.0600 419.54920000000004 -3.418 -1.561
1409 3 3 0.0600 420.17220000000003 -3.859 0.026
1410 3 2 -0.1200 420.3082 0.0 0.0
1411 3 9 0.2200 421.81620000000004 0.0 0.0
1412 3 6 -0.3300 422.3562 -0.49000000000000005 -1.196
1413 3 4 0.5100 422.1172 0.08299999999999985 -2.426
1414 3 5 -0.4300 421.38120000000004 1.1069999999999998 -2.552
1415 3 1 -0.1800 422.7382 -0.5150000000000002 -3.63
1416 3 3 0.0600 419.8822 0.10999999999999995 -1.019
1417 3 3 0.0600 419.88620000000003 0.666 0.748
1418 3 7 0.0300 422.2162 -0.588 0.851
1419 3 3 0.0600 422.1112 -0.4570000000000003 -4.521
1420 3 3 0.0600 423.0572 -1.5610000000000002 -3.418
1421 3 3 0.0600 423.6802 0.025999999999999763 -3.859
1422 3 2 -0.1200 423.8162 0.0 0.0
1423 3 9 0.2200 425.3242 0.0 0.0
1424 3 6 -0.3300 425.8642 -1.196 -0.49
1425 3 4 0.5100 425.6252 -2.426 0.083
1426 3 5 -0.4300 424.8892 -2.552 1.107
1427 3 1 -0.1800 426.2462 -3.63 -0.515
1428 3 3 0.0600 423.3902 -1.019 0.11
1429 3 3 0.0600 423.3942 0.748 0.666
1430 3 7 0.0300 425.7242 0.851 -0.588
1431 3 3 0.0600 425.6192 -4.521 -0.457
1432 3 3 0.0600 426.5652 -3.418 -1.561
1433 3 3 0.0600 427.1882 -3.859 0.026
1434 3 2 -0.1200 427.3242 0.0 0.0
1435 3 9 0.2200 428.83220000000006 0.0 0.0
1436 3 6 -0.3300 429.3722 -0.49000000000000005 -1.196
1437 3 4 0.5100 429.13320000000004 0.08299999999999985 -2.426
1438 3 5 -0.4300 428.39720000000005 1.1069999999999998 -2.552
1439 3 1 -0.1800 429.7542 -0.5150000000000002 -3.63
1440 3 3 0.0600 426.89820000000003 0.10999999999999995 -1.019
1441 3 3 0.0600 426.90220000000005 0.666 0.748
1442 3 7 0.0300 429.23220000000003 -0.588 0.851
1443 3 3 0.0600 429.1272 -0.4570000000000003 -4.521
1444 3 3 0.0600 430.07320000000004 -1.5610000000000002 -3.418
1445 3 3 0.0600 430.69620000000003 0.025999999999999763 -3.859
1446 3 2 -0.1200 430.8322 0.0 0.0
1447 3 9 0.2200 432.34020000000004 0.0 0.0
1448 3 6 -0.3300 432.8802 -1.196 -0.49
1449 3 4 0.5100 432.6412 -2.426 0.083
1450 3 5 -0.4300 431.90520000000004 -2.552 1.107
1451 3 1 -0.1800 433.2622 -3.63 -0.515
1452 3 3 0.0600 430.4062 -1.019 0.11
1453 3 3 0.0600 430.41020000000003 0.748 0.666
1454 3 7 0.0300 432.7402 0.851 -0.588
1455 3 3 0.0600 432.6352 -4.521 -0.457
1456 3 3 0.0600 433.5812 -3.418 -1.561
1457 3 3 0.0600 434.2042 -3.859 0.026
1458 3 2 -0.1200 434.3402 0.0 0.0
1459 3 9 0.2200 435.8482 0.0 0.0
1460 3 6 -0.3300 436.3882 0.48999999999999994 -1.196
1461 3 4 0.5100 436.1492 -0.08300000000000016 -2.426
1462 3 5 -0.4300 435.4132 -1.1070000000000002 -2.552
1463 3 1 -0.1800 436.7702 0.5149999999999998 -3.63
1464 3 3 0.0600 433.9142 -0.11000000000000006 -1.019
1465 3 3 0.0600 433.9182 -0.666 0.748
1466 3 7 0.0300 436.2482 0.588 0.851
1467 3 3 0.0600 436.1432 0.45699999999999974 -4.521
1468 3 3 0.0600 437.0892 1.5609999999999997 -3.418
1469 3 3 0.0600 437.7122 -0.026000000000000235 -3.859
1470 3 2 -0.1200 437.8482 0.0 0.0
1471 3 9 0.2200 439.35620000000006 0.0 0.0
1472 3 6 -0.3300 439.8962 -1.196 0.49
1473 3 4 0.5100 439.65720000000005 -2.426 -0.083
1474 3 5 -0.4300 438.92120000000006 -2.552 -1.107
1475 3 1 -0.1800 440.2782 -3.63 0.515
1476 3 3 0.0600 437.42220000000003 -1.019 -0.11
1477 3 3 0.0600 437.42620000000005 0.748 -0.666
1478 3 7 0.0300 439.75620000000004 0.851 0.588
1479 3 3 0.0600 439.6512 -4.521 0.457
1480 3 3 0.0600 440.59720000000004 -3.418 1.561
1481 3 3 0.0600 441.22020000000003 -3.859 -0.026
1482 3 2 -0.1200 441.3562 0.0 0.0
1483 3 9 0.2200 442.86420000000004 0.0 0.0
1484 3 6 -0.3300 443.4042 -0.49000000000000005 -1.196
1485 3 4 0.5100 443.1652 0.08299999999999985 -2.426
1486 3 5 -0.4300 442.42920000000004 1.1069999999999998 -2.552
1487 3 1 -0.1800 443.7862 -0.5150000000000002 -3.63
1488 3 3 0.0600 440.9302 0.10999999999999995 -1.019
1489 3 3 0.0600 440.93420000000003 0.666 0.748
1490 3 7 0.0300 443.2642 -0.588 0.851
1491 3 3 0.0600 443.1592 -0.4570000000000003 -4.521
1492 3 3 0.0600 444.1052 -1.5610000000000002 -3.418
1493 3 3 0.0600 444.7282 0.025999999999999763 -3.859
1494 3 2 -0.1200 444.8642 0.0 0.0
1495 3 9 0.2200 446.3722 0.0 0.0
1496 3 6 -0.3300 446.9122 -1.196 0.49
1497 3 4 0.5100 446.6732 -2.426 -0.083
1498 3 5 -0.4300 445.9372 -2.552 -1.107
1499 3 1 -0.1800 447.2942 -3.63 0.515
1500 3 3 0.0600 444.4382 -1.019 -0.11
1501 3 3 0.0600 444.4422 0.748 -0.666
1502 3 7 0.0300 446.7722 0.851 0.588
1503 3 3 0.0600 446.6672 -4.521 0.457
1504 3 3 0.0600 447.6132 -3.418 1.561
1505 3 3 0.0600 448.2362 -3.859 -0.026
1506 3 2 -0.1200 448.3722 0.0 0.0
1507 3 9 0.2200 449.88020000000006 0.0 0.0
1508 3 6 -0.3300 450.4202 0.48999999999999994 -1.196
1509 3 4 0.5100 450.18120000000005 -0.08300000000000016 -2.426
1510 3 5 -0.4300 449.44520000000006 -1.1070000000000002 -2.552
1511 3 1 -0.1800 450.8022 0.5149999999999998 -3.63
1512 3 3 0.0600 447.94620000000003 -0.11000000000000006 -1.019
1513 3 3 0.0600 447.95020000000005 -0.666 0.748
1514 3 7 0.0300 450.28020000000004 0.588 0.851
1515 3 3 0.0600 450.1752 0.45699999999999974 -4.521
1516 3 3 0.0600 451.12120000000004 1.5609999999999997 -3.418
1517 3 3 0.0600 451.74420000000003 -0.026000000000000235 -3.859
1518 3 2 -0.1200 451.8802 0.0 0.0
1519 3 9 0.2200 453.38820000000004 0.0 0.0
1520 3 6 -0.3300 453.9282 -1.196 0.49
1521 3 4 0.5100 453.6892 -2.426 -0.083
1522 3 5 -0.4300 452.95320000000004 -2.552 -1.107
1523 3 1 -0.1800 454.3102 -3.63 0.515
1524 3 3 0.0600 451.4542 -1.019 -0.11
1525 3 3 0.0600 451.45820000000003 0.748 -0.666
1526 3 7 0.0300 453.7882 0.851 0.588
1527 3 3 0.0600 453.6832 -4.521 0.457
1528 3 3 0.0600 454.6292 -3.418 1.561
1529 3 3 0.0600 455.2522 -3.859 -0.026
1530 3 2 -0.1200 455.3882 0.0 0.0
1531 3 9 0.2200 456.8962 0.0 0.0
1532 3 6 -0.3300 457.4362 -0.49000000000000005 -1.196
1533 3 4 0.5100 457.1972 0.08299999999999985 -2.426
1534 3 5 -0.4300 456.4612 1.1069999999999998 -2.552
1535 3 1 -0.1800 457.8182 -0.5150000000000002 -3.63
1536 3 3 0.0600 454.9622 0.10999999999999995 -1.019
1537 3 3 0.0600 454.9662 0.666 0.748
1538 3 7 0.0300 457.2962 -0.588 0.851
1539 3 3 0.0600 457.1912 -0.4570000000000003 -4.521
1540 3 3 0.0600 458.1372 -1.5610000000000002 -3.418
1541 3 3 0.0600 458.7602 0.025999999999999763 -3.859
1542 3 2 -0.1200 458.8962 0.0 0.0
1543 3 9 0.2200 460.40420000000006 0.0 0.0
1544 3 6 -0.3300 460.9442 -1.196 -0.49
1545 3 4 0.5100 460.70520000000005 -2.426 0.083
1546 3 5 -0.4300 459.96920000000006 -2.552 1.107
1547 3 1 -0.1800 461.32620000000003 -3.63 -0.515
1548 3 3 0.0600 458.47020000000003 -1.019 0.11
1549 3 3 0.0600 458.47420000000005 0.748 0.666
1550 3 7 0.0300 460.80420000000004 0.851 -0.588
1551 3 3 0.0600 460.6992 -4.521 -0.457
1552 3 3 0.0600 461.64520000000005 -3.418 -1.561
1553 3 3 0.0600 462.26820000000004 -3.859 0.026
1554 3 2 -0.1200 462.4042 0.0 0.0
1555 3 9 0.2200 463.91220000000004 0.0 0.0
1556 3 6 -0.3300 464.4522 -0.49000000000000005 -1.196
1557 3 4 0.5100 464.21320000000003 0.08299999999999985 -2.426
1558 3 5 -0.4300 463.47720000000004 1.1069999999999998 -2.552
1559 3 1 -0.1800 464.8342 -0.5150000000000002 -3.63
1560 3 3 0.0600 461.9782 0.10999999999999995 -1.019
1561 3 3 0.0600 461.98220000000003 0.666 0.748
1562 3 7 0.0300 464.3122 -0.588 0.851
1563 3 3 0.0600 464.2072 -0.4570000000000003 -4.521
1564 3 3 0.0600 465.1532 -1.5610000000000002 -3.418
1565 3 3 0.0600 465.7762 0.025999999999999763 -3.859
1566 3 2 -0.1200 465.9122 0.0 0.0
1567 3 9 0.2200 467.4202 0.0 0.0
1568 3 6 -0.3300 467.9602 -1.196 -0.49
1569 3 4 0.5100 467.7212 -2.426 0.083
1570 3 5 -0.4300 466.9852 -2.552 1.107
1571 3 1 -0.1800 468.3422 -3.63 -0.515
1572 3 3 0.0600 465.4862 -1.019 0.11
1573 3 3 0.0600 465.4902 0.748 0.666
1574 3 7 0.0300 467.8202 0.851 -0.588
1575 3 3 0.0600 467.7152 -4.521 -0.457
1576 3 3 0.0600 468.6612 -3.418 -1.561
1577 3 3 0.0600 469.2842 -3.859 0.026
1578 3 2 -0.1200 469.4202 0.0 0.0
1579 3 9 0.2200 470.92820000000006 0.0 0.0
1580 3 6 -0.3300 471.4682 -0.49000000000000005 -1.196
1581 3 4 0.5100 471.22920000000005 0.08299999999999985 -2.426
1582 3 5 -0.4300 470.49320000000006 1.1069999999999998 -2.552
1583 3 1 -0.1800 471.85020000000003 -0.5150000000000002 -3.63
1584 3 3 0.0600 468.99420000000003 0.10999999999999995 -1.019
1585 3 3 0.0600 468.99820000000005 0.666 0.748
1586 3 7 0.0300 471.32820000000004 -0.588 0.851
1587 3 3 0.0600 471.2232 -0.4570000000000003 -4.521
1588 3 3 0.0600 472.16920000000005 -1.5610000000000002 -3.418
1589 3 3 0.0600 472.79220000000004 0.025999999999999763 -3.859
1590 3 2 -0.1200 472.9282 0.0 0.0
1591 3 9 0.2200 474.43620000000004 0.0 0.0
1592 3 6 -0.3300 474.9762 -1.196 -0.49
1593 3 4 0.5100 474.73720000000003 -2.426 0.083
1594 3 5 -0.4300 474.00120000000004 -2.552 1.107
1595 3 1 -0.1800 475.3582 -3.63 -0.515
1596 3 3 0.0600 472.5022 -1.019 0.11
1597 3 3 0.0600 472.50620000000004 0.748 0.666
1598 3 7 0.0300 474.8362 0.851 -0.588
1599 3 3 0.0600 474.7312 -4.521 -0.457
1600 3 3 0.0600 475.6772 -3.418 -1.561
1601 3 3 0.0600 476.3002 -3.859 0.026
1602 3 2 -0.1200 476.4362 0.0 0.0
1603 3 9 0.2200 477.9442 0.0 0.0
1604 3 6 -0.3300 478.4842 -0.49000000000000005 -1.196
1605 3 4 0.5100 478.2452 0.08299999999999985 -2.426
1606 3 5 -0.4300 477.5092 1.1069999999999998 -2.552
1607 3 1 -0.1800 478.8662 -0.5150000000000002 -3.63
1608 3 3 0.0600 476.0102 0.10999999999999995 -1.019
1609 3 3 0.0600 476.0142 0.666 0.748
1610 3 7 0.0300 478.3442 -0.588 0.851
1611 3 3 0.0600 478.2392 -0.4570000000000003 -4.521
1612 3 3 0.0600 479.1852 -1.5610000000000002 -3.418
1613 3 3 0.0600 479.8082 0.025999999999999763 -3.859
1614 3 2 -0.1200 479.9442 0.0 0.0
1615 3 9 0.2200 481.45220000000006 0.0 0.0
1616 3 6 -0.3300 481.9922 -1.196 -0.49
1617 3 4 0.5100 481.75320000000005 -2.426 0.083
1618 3 5 -0.4300 481.01720000000006 -2.552 1.107
1619 3 1 -0.1800 482.37420000000003 -3.63 -0.515
1620 3 3 0.0600 479.51820000000004 -1.019 0.11
1621 3 3 0.0600 479.52220000000005 0.748 0.666
1622 3 7 0.0300 481.85220000000004 0.851 -0.588
1623 3 3 0.0600 481.7472 -4.521 -0.457
1624 3 3 0.0600 482.69320000000005 -3.418 -1.561
1625 3 3 0.0600 483.31620000000004 -3.859 0.026
1626 3 2 -0.1200 483.4522 0.0 0.0
1627 3 9 0.2200 484.96020000000004 0.0 0.0
1628 3 6 -0.3300 485.5002 0.48999999999999994 -1.196
1629 3 4 0.5100 485.26120000000003 -0.08300000000000016 -2.426
1630 3 5 -0.4300 484.52520000000004 -1.1070000000000002 -2.552
1631 3 1 -0.1800 485.8822 0.5149999999999998 -3.63
1632 3 3 0.0600 483.0262 -0.11000000000000006 -1.019
1633 3 3 0.0600 483.03020000000004 -0.666 0.748
1634 3 7 0.0300 485.3602 0.588 0.851
1635 3 3 0.0600 485.2552 0.45699999999999974 -4.521
1636 3 3 0.0600 486.20120000000003 1.5609999999999997 -3.418
1637 3 3 0.0600 486.8242 -0.026000000000000235 -3.859
1638 3 2 -0.1200 486.9602 0.0 0.0
1639 3 9 0.2200 488.4682 0.0 0.0
1640 3 6 -0.3300 489.0082 -1.196 0.49
1641 3 4 0.5100 488.7692 -2.426 -0.083
1642 3 5 -0.4300 488.0332 -2.552 -1.107
1643 3 1 -0.1800 489.3902 -3.63 0.515
1644 3 3 0.0600 486.5342 -1.019 -0.11
1645 3 3 0.0600 486.5382 0.748 -0.666
1646 3 7 0.0300 488.8682 0.851 0.588
1647 3 3 0.0600 488.7632 -4.521 0.457
1648 3 3 0.0600 489.7092 -3.418 1.561
1649 3 3 0.0600 490.3322 -3.859 -0.026
1650 3 2 -0.1200 490.4682 0.0 0.0
1651 3 9 0.2200 491.97620000000006 0.0 0.0
1652 3 6 -0.3300 492.5162 0.48999999999999994 -1.196
1653 3 4 0.5100 492.27720000000005 -0.08300000000000016 -2.426
1654 3 5 -0.4300 491.54120000000006 -1.1070000000000002 -2.552
1655 3 1 -0.1800 492.89820000000003 0.5149999999999998 -3.63
1656 3 3 0.0600 490.04220000000004 -0.11000000000000006 -1.019
1657 3 3 0.0600 490.04620000000006 -0.666 0.748
1658 3 7 0.0300 492.37620000000004 0.588 0.851
1659 3 3 0.0600 492.2712 0.45699999999999974 -4.521
1660 3 3 0.0600 493.21720000000005 1.5609999999999997 -3.418
1661 3 3 0.0600 493.84020000000004 -0.026000000000000235 -3.859
1662 3 2 -0.1200 493.9762 0.0 0.0
1663 3 9 0.2200 495.48420000000004 0.0 0.0
1664 3 6 -0.3300 496.0242 -1.196 0.49
1665 3 4 0.5100 495.78520000000003 -2.426 -0.083
1666 3 5 -0.4300 495.04920000000004 -2.552 -1.107
1667 3 1 -0.1800 496.4062 -3.63 0.515
1668 3 3 0.0600 493.5502 -1.019 -0.11
1669 3 3 0.0600 493.55420000000004 0.748 -0.666
1670 3 7 0.0300 495.8842 0.851 0.588
1671 3 3 0.0600 495.7792 -4.521 0.457
1672 3 3 0.0600 496.72520000000003 -3.418 1.561
1673 3 3 0.0600 497.3482 -3.859 -0.026
1674 3 2 -0.1200 497.4842 0.0 0.0
1675 3 9 0.2200 498.9922 0.0 0.0
1676 3 6 -0.3300 499.5322 0.48999999999999994 -1.196
1677 3 4 0.5100 499.2932 -0.08300000000000016 -2.426
1678 3 5 -0.4300 498.5572 -1.1070000000000002 -2.552
1679 3 1 -0.1800 499.9142 0.5149999999999998 -3.63
1680 3 3 0.0600 497.0582 -0.11000000000000006 -1.019
1681 3 3 0.0600 497.0622 -0.666 0.748
1682 3 7 0.0300 499.3922 0.588 0.851
1683 3 3 0.0600 499.2872 0.45699999999999974 -4.521
1684 3 3 0.0600 500.2332 1.5609999999999997 -3.418
1685 3 3 0.0600 500.8562 -0.026000000000000235 -3.859
1686 3 2 -0.1200 500.9922 0.0 0.0
1687 3 9 0.2200 502.50020000000006 0.0 0.0
1688 3 6 -0.3300 503.0402 -1.196 -0.49
1689 3 4 0.5100 502.80120000000005 -2.426 0.083
1690 3 5 -0.4300 502.06520000000006 -2.552 1.107
1691 3 1 -0.1800 503.42220000000003 -3.63 -0.515
1692 3 3 0.0600 500.56620000000004 -1.019 0.11
1693 3 3 0.0600 500.57020000000006 0.748 0.666
1694 3 7 0.0300 502.90020000000004 0.851 -0.588
1695 3 3 0.0600 502.7952 -4.521 -0.457
1696 3 3 0.0600 503.74120000000005 -3.418 -1.561
1697 3 3 0.0600 504.36420000000004 -3.859 0.026
1698 3 2 -0.1200 504.5002 0.0 0.0
1699 3 9 0.2200 506.00820000000004 0.0 0.0
1700 3 6 -0.3300 506.5482 0.48999999999999994 -1.196
1701 3 4 0.5100 506.30920000000003 -0.08300000000000016 -2.426
1702 3 5 -0.4300 505.57320000000004 -1.1070000000000002 -2.552
1703 3 1 -0.1800 506.9302 0.5149999999999998 -3.63
1704 3 3 0.0600 504.0742 -0.11000000000000006 -1.019
1705 3 3 0.0600 504.07820000000004 -0.666 0.748
1706 3 7 0.0300 506.4082 0.588 0.851
1707 3 3 0.0600 506.3032 0.45699999999999974 -4.521
1708 3 3 0.0600 507.24920000000003 1.5609999999999997 -3.418
1709 3 3 0.0600 507.8722 -0.026000000000000235 -3.859
1710 3 2 -0.1200 508.0082 0.0 0.0
1711 3 9 0.2200 509.5162 0.0 0.0
1712 3 6 -0.3300 510.0562 -1.196 -0.49
1713 3 4 0.5100 509.8172 -2.426 0.083
1714 3 5 -0.4300 509.0812 -2.552 1.107
1715 3 1 -0.1800 510.4382 -3.63 -0.515
1716 3 3 0.0600 507.5822 -1.019 0.11
1717 3 3 0.0600 507.5862 0.748 0.666
1718 3 7 0.0300 509.9162 0.851 -0.588
1719 3 3 0.0600 509.8112 -4.521 -0.457
1720 3 3 0.0600 510.7572 -3.418 -1.561
1721 3 3 0.0600 511.3802 -3.859 0.026
1722 3 2 -0.1200 511.5162 0.0 0.0
1723 3 9 0.2200 513.0242000000001 0.0 0.0
1724 3 6 -0.3300 513.5642 0.48999999999999994 -1.196
1725 3 4 0.5100 513.3252 -0.08300000000000016 -2.426
1726 3 5 -0.4300 512.5892 -1.1070000000000002 -2.552
1727 3 1 -0.1800 513.9462000000001 0.5149999999999998 -3.63
1728 3 3 0.0600 511.09020000000004 -0.11000000000000006 -1.019
1729 3 3 0.0600 511.09420000000006 -0.666 0.748
1730 3 7 0.0300 513.4242 0.588 0.851
1731 3 3 0.0600 513.3192 0.45699999999999974 -4.521
1732 3 3 0.0600 514.2652 1.5609999999999997 -3.418
1733 3 3 0.0600 514.8882000000001 -0.026000000000000235 -3.859
1734 3 2 -0.1200 515.0242 0.0 0.0
1735 3 9 0.2200 516.5322 0.0 0.0
1736 3 6 -0.3300 517.0722 -1.196 -0.49
1737 3 4 0.5100 516.8331999999999 -2.426 0.083
1738 3 5 -0.4300 516.0971999999999 -2.552 1.107
1739 3 1 -0.1800 517.4542 -3.63 -0.515
1740 3 3 0.0600 514.5982 -1.019 0.11
1741 3 3 0.0600 514.6021999999999 0.748 0.666
1742 3 7 0.0300 516.9322 0.851 -0.588
1743 3 3 0.0600 516.8272 -4.521 -0.457
1744 3 3 0.0600 517.7732 -3.418 -1.561
1745 3 3 0.0600 518.3962 -3.859 0.026
1746 3 2 -0.1200 518.5322 0.0 0.0
1747 3 9 0.2200 520.0402 0.0 0.0
1748 3 6 -0.3300 520.5802 -0.49000000000000005 -1.196
1749 3 4 0.5100 520.3412 0.08299999999999985 -2.426
1750 3 5 -0.4300 519.6052 1.1069999999999998 -2.552
1751 3 1 -0.1800 520.9622 -0.5150000000000002 -3.63
1752 3 3 0.0600 518.1062000000001 0.10999999999999995 -1.019
1753 3 3 0.0600 518.1102 0.666 0.748
1754 3 7 0.0300 520.4402 -0.588 0.851
1755 3 3 0.0600 520.3352 -0.4570000000000003 -4.521
1756 3 3 0.0600 521.2812 -1.5610000000000002 -3.418
1757 3 3 0.0600 521.9042000000001 0.025999999999999763 -3.859
1758 3 2 -0.1200 522.0402 0.0 0.0
1759 3 9 0.2200 523.5482000000001 0.0 0.0
1760 3 6 -0.3300 524.0882 -1.196 -0.49
1761 3 4 0.5100 523.8492 -2.426 0.083
1762 3 5 -0.4300 523.1132 -2.552 1.107
1763 3 1 -0.1800 524.4702000000001 -3.63 -0.515
1764 3 3 0.0600 521.6142000000001 -1.019 0.11
1765 3 3 0.0600 521.6182 0.748 0.666
1766 3 7 0.0300 523.9482 0.851 -0.588
1767 3 3 0.0600 523.8432 -4.521 -0.457
1768 3 3 0.0600 524.7892 -3.418 -1.561
1769 3 3 0.0600 525.4122000000001 -3.859 0.026
1770 3 2 -0.1200 525.5482000000001 0.0 0.0
1771 3 9 0.2200 527.0562000000001 0.0 0.0
1772 3 6 -0.3300 527.5962000000001 -0.49000000000000005 -1.196
1773 3 4 0.5100 527.3572 0.08299999999999985 -2.426
1774 3 5 -0.4300 526.6212 1.1069999999999998 -2.552
1775 3 1 -0.1800 527.9782000000001 -0.5150000000000002 -3.63
1776 3 3 0.0600 525.1222000000001 0.10999999999999995 -1.019
1777 3 3 0.0600 525.1262 0.666 0.748
1778 3 7 0.0300 527.4562000000001 -0.588 0.851
1779 3 3 0.0600 527.3512000000001 -0.4570000000000003 -4.521
1780 3 3 0.0600 528.2972000000001 -1.5610000000000002 -3.418
1781 3 3 0.0600 528.9202000000001 0.025999999999999763 -3.859
1782 3 2 -0.1200 529.0562 0.0 0.0
1783 3 9 0.2200 530.5642 0.0 0.0
1784 3 6 -0.3300 531.1042 -1.196 -0.49
1785 3 4 0.5100 530.8652 -2.426 0.083
1786 3 5 -0.4300 530.1292 -2.552 1.107
1787 3 1 -0.1800 531.4862 -3.63 -0.515
1788 3 3 0.0600 528.6302000000001 -1.019 0.11
1789 3 3 0.0600 528.6342 0.748 0.666
1790 3 7 0.0300 530.9642 0.851 -0.588
1791 3 3 0.0600 530.8592 -4.521 -0.457
1792 3 3 0.0600 531.8052 -3.418 -1.561
1793 3 3 0.0600 532.4282000000001 -3.859 0.026
1794 3 2 -0.1200 530.8382 0.0 0.0
1795 3 8 0.1900 531.4112 0.48700000000000004 1.269
1796 3 6 -0.3300 532.7432 0.8970000000000001 1.192
1797 3 4 0.5100 533.7912 0.06400000000000006 0.807
1798 3 5 -0.4300 533.5552 -1.143 0.5040000000000001
1799 3 1 -0.1800 535.1982 0.577 0.748
1800 3 3 0.0600 530.6512 -1.049 -0.11599999999999994
1801 3 3 0.0600 530.5872 0.709 -0.759
1802 3 7 0.0300 530.8122000000001 1.377 1.587
1803 3 7 0.0300 531.2722 -0.2569999999999999 2.079
1804 3 3 0.0600 535.6712 0.5530000000000002 1.738
1805 3 3 0.0600 535.1752 1.652 0.4329999999999999
1806 3 3 0.0600 535.7982000000001 0.0 0.0
1807 4 1 -0.1800 541.3494 0.0 0.0
1808 4 9 0.2200 542.8754 0.0 0.0
1809 4 6 -0.3300 543.3184 -0.493 1.254
1810 4 4 0.5100 544.7074 -0.561 1.426
1811 4 5 -0.4300 545.4974 -0.204 0.517
1812 4 1 -0.1800 545.2854 -1.064 2.705
1813 4 3 0.0600 540.9834 -1.023 0.168
1814 4 3 0.0600 540.9734 0.372 -0.973
1815 4 3 0.0600 541.0394 0.65 0.832
1816 4 7 0.0300 543.2854 1.0 -0.146
1817 4 3 0.0600 544.4774 -1.452 3.336
1818 4 3 0.0600 545.9034 -0.284 3.204
1819 4 3 0.0600 545.9993999999999 -1.875 2.397
1820 4 2 -0.1200 544.8843999999999 0.0 0.0
1821 4 9 0.2200 546.3924 0.0 0.0
1822 4 6 -0.3300 546.9323999999999 -0.49000000000000005 -1.196
1823 4 4 0.5100 546.6933999999999 0.08299999999999985 -2.426
1824 4 5 -0.4300 545.9573999999999 1.1069999999999998 -2.552
1825 4 1 -0.1800 547.3144 -0.5150000000000002 -3.63
1826 4 3 0.0600 544.4584 0.10999999999999995 -1.019
1827 4 3 0.0600 544.4623999999999 0.666 0.748
1828 4 7 0.0300 546.7923999999999 -0.588 0.851
1829 4 3 0.0600 546.6873999999999 -0.4570000000000003 -4.521
1830 4 3 0.0600 547.6333999999999 -1.5610000000000002 -3.418
1831 4 3 0.0600 548.2564 0.025999999999999763 -3.859
1832 4 2 -0.1200 548.3924 0.0 0.0
1833 4 9 0.2200 549.9004 0.0 0.0
1834 4 6 -0.3300 550.4404 -1.196 0.49
1835 4 4 0.5100 550.2013999999999 -2.426 -0.083
1836 4 5 -0.4300 549.4653999999999 -2.552 -1.107
1837 4 1 -0.1800 550.8224 -3.63 0.515
1838 4 3 0.0600 547.9664 -1.019 -0.11
1839 4 3 0.0600 547.9703999999999 0.748 -0.666
1840 4 7 0.0300 550.3004 0.851 0.588
1841 4 3 0.0600 550.1954 -4.521 0.457
1842 4 3 0.0600 551.1414 -3.418 1.561
1843 4 3 0.0600 551.7644 -3.859 -0.026
1844 4 2 -0.1200 551.9004 0.0 0.0
1845 4 9 0.2200 553.4084 0.0 0.0
1846 4 6 -0.3300 553.9484 0.48999999999999994 -1.196
1847 4 4 0.5100 553.7094 -0.08300000000000016 -2.426
1848 4 5 -0.4300 552.9734 -1.1070000000000002 -2.552
1849 4 1 -0.1800 554.3304 0.5149999999999998 -3.63
1850 4 3 0.0600 551.4744000000001 -0.11000000000000006 -1.019
1851 4 3 0.0600 551.4784 -0.666 0.748
1852 4 7 0.0300 553.8084 0.588 0.851
1853 4 3 0.0600 553.7034 0.45699999999999974 -4.521
1854 4 3 0.0600 554.6494 1.5609999999999997 -3.418
1855 4 3 0.0600 555.2724000000001 -0.026000000000000235 -3.859
1856 4 2 -0.1200 555.4083999999999 0.0 0.0
1857 4 9 0.2200 556.9164 0.0 0.0
1858 4 6 -0.3300 557.4563999999999 -1.196 -0.49
1859 4 4 0.5100 557.2173999999999 -2.426 0.083
1860 4 5 -0.4300 556.4813999999999 -2.552 1.107
1861 4 1 -0.1800 557.8384 -3.63 -0.515
1862 4 3 0.0600 554.9824 -1.019 0.11
1863 4 3 0.0600 554.9863999999999 0.748 0.666
1864 4 7 0.0300 557.3163999999999 0.851 -0.588
1865 4 3 0.0600 557.2113999999999 -4.521 -0.457
1866 4 3 0.0600 558.1573999999999 -3.418 -1.561
1867 4 3 0.0600 558.7804 -3.859 0.026
1868 4 2 -0.1200 558.9164 0.0 0.0
1869 4 9 0.2200 560.4244 0.0 0.0
1870 4 6 -0.3300 560.9644 0.48999999999999994 -1.196
1871 4 4 0.5100 560.7253999999999 -0.08300000000000016 -2.426
1872 4 5 -0.4300 559.9893999999999 -1.1070000000000002 -2.552
1873 4 1 -0.1800 561.3464 0.5149999999999998 -3.63
1874 4 3 0.0600 558.4904 -0.11000000000000006 -1.019
1875 4 3 0.0600 558.4943999999999 -0.666 0.748
1876 4 7 0.0300 560.8244 0.588 0.851
1877 4 3 0.0600 560.7194 0.45699999999999974 -4.521
1878 4 3 0.0600 561.6654 1.5609999999999997 -3.418
1879 4 3 0.0600 562.2884 -0.026000000000000235 -3.859
1880 4 2 -0.1200 562.4244 0.0 0.0
1881 4 9 0.2200 563.9324 0.0 0.0
1882 4 6 -0.3300 564.4724 -1.196 -0.49
1883 4 4 0.5100 564.2334 -2.426 0.083
1884 4 5 -0.4300 563.4974 -2.552 1.107
1885 4 1 -0.1800 564.8544 -3.63 -0.515
1886 4 3 0.0600 561.9984000000001 -1.019 0.11
1887 4 3 0.0600 562.0024 0.748 0.666
1888 4 7 0.0300 564.3324 0.851 -0.588
1889 4 3 0.0600 564.2274 -4.521 -0.457
1890 4 3 0.0600 565.1734 -3.418 -1.561
1891 4 3 0.0600 565.7964000000001 -3.859 0.026
1892 4 2 -0.1200 565.9323999999999 0.0 0.0
1893 4 9 0.2200 567.4404 0.0 0.0
1894 4 6 -0.3300 567.9803999999999 -0.49000000000000005 -1.196
1895 4 4 0.5100 567.7413999999999 0.08299999999999985 -2.426
1896 4 5 -0.4300 567.0053999999999 1.1069999999999998 -2.552
1897 4 1 -0.1800 568.3624 -0.5150000000000002 -3.63
1898 4 3 0.0600 565.5064 0.10999999999999995 -1.019
1899 4 3 0.0600 565.5103999999999 0.666 0.748
1900 4 7 0.0300 567.8403999999999 -0.588 0.851
1901 4 3 0.0600 567.7353999999999 -0.4570000000000003 -4.521
1902 4 3 0.0600 568.6813999999999 -1.5610000000000002 -3.418
1903 4 3 0.0600 569.3044 0.025999999999999763 -3.859
1904 4 2 -0.1200 569.4404 0.0 0.0
1905 4 9 0.2200 570.9484 0.0 0.0
1906 4 6 -0.3300 571.4884 -1.196 -0.49
1907 4 4 0.5100 571.2493999999999 -2.426 0.083
1908 4 5 -0.4300 570.5133999999999 -2.552 1.107
1909 4 1 -0.1800 571.8704 -3.63 -0.515
1910 4 3 0.0600 569.0144 -1.019 0.11
1911 4 3 0.0600 569.0183999999999 0.748 0.666
1912 4 7 0.0300 571.3484 0.851 -0.588
1913 4 3 0.0600 571.2434 -4.521 -0.457
1914 4 3 0.0600 572.1894 -3.418 -1.561
1915 4 3 0.0600 572.8124 -3.859 0.026
1916 4 2 -0.1200 572.9484 0.0 0.0
1917 4 9 0.2200 574.4564 0.0 0.0
1918 4 6 -0.3300 574.9964 0.48999999999999994 -1.196
1919 4 4 0.5100 574.7574 -0.08300000000000016 -2.426
1920 4 5 -0.4300 574.0214 -1.1070000000000002 -2.552
1921 4 1 -0.1800 575.3784 0.5149999999999998 -3.63
1922 4 3 0.0600 572.5224000000001 -0.11000000000000006 -1.019
1923 4 3 0.0600 572.5264 -0.666 0.748
1924 4 7 0.0300 574.8564 0.588 0.851
1925 4 3 0.0600 574.7514 0.45699999999999974 -4.521
1926 4 3 0.0600 575.6974 1.5609999999999997 -3.418
1927 4 3 0.0600 576.3204000000001 -0.026000000000000235 -3.859
1928 4 2 -0.1200 576.4563999999999 0.0 0.0
1929 4 9 0.2200 577.9644 0.0 0.0
1930 4 6 -0.3300 578.5043999999999 -1.196 -0.49
1931 4 4 0.5100 578.2653999999999 -2.426 0.083
1932 4 5 -0.4300 577.5293999999999 -2.552 1.107
1933 4 1 -0.1800 578.8864 -3.63 -0.515
1934 4 3 0.0600 576.0304 -1.019 0.11
1935 4 3 0.0600 576.0343999999999 0.748 0.666
1936 4 7 0.0300 578.3643999999999 0.851 -0.588
1937 4 3 0.0600 578.2593999999999 -4.521 -0.457
1938 4 3 0.0600 579.2053999999999 -3.418 -1.561
1939 4 3 0.0600 579.8284 -3.859 0.026
1940 4 2 -0.1200 579.9644 0.0 0.0
1941 4 9 0.2200 581.4724 0.0 0.0
1942 4 6 -0.3300 582.0124 0.48999999999999994 -1.196
1943 4 4 0.5100 581.7733999999999 -0.08300000000000016 -2.426
1944 4 5 -0.4300 581.0373999999999 -1.1070000000000002 -2.552
1945 4 1 -0.1800 582.3944 0.5149999999999998 -3.63
1946 4 3 0.0600 579.5384 -0.11000000000000006 -1.019
1947 4 3 0.0600 579.5423999999999 -0.666 0.748
1948 4 7 0.0300 581.8724 0.588 0.851
1949 4 3 0.0600 581.7674 0.45699999999999974 -4.521
1950 4 3 0.0600 582.7134 1.5609999999999997 -3.418
1951 4 3 0.0600 583.3364 -0.026000000000000235 -3.859
1952 4 2 -0.1200 583.4724 0.0 0.0
1953 4 9 0.2200 584.9804 0.0 0.0
1954 4 6 -0.3300 585.5204 -1.196 0.49
1955 4 4 0.5100 585.2814 -2.426 -0.083
1956 4 5 -0.4300 584.5454 -2.552 -1.107
1957 4 1 -0.1800 585.9024000000001 -3.63 0.515
1958 4 3 0.0600 583.0464000000001 -1.019 -0.11
1959 4 3 0.0600 583.0504 0.748 -0.666
1960 4 7 0.0300 585.3804 0.851 0.588
1961 4 3 0.0600 585.2754 -4.521 0.457
1962 4 3 0.0600 586.2214 -3.418 1.561
1963 4 3 0.0600 586.8444000000001 -3.859 -0.026
1964 4 2 -0.1200 586.9803999999999 0.0 0.0
1965 4 9 0.2200 588.4884 0.0 0.0
1966 4 6 -0.3300 589.0283999999999 -0.49000000000000005 -1.196
1967 4 4 0.5100 588.7893999999999 0.08299999999999985 -2.426
1968 4 5 -0.4300 588.0533999999999 1.1069999999999998 -2.552
1969 4 1 -0.1800 589.4104 -0.5150000000000002 -3.63
1970 4 3 0.0600 586.5544 0.10999999999999995 -1.019
1971 4 3 0.0600 586.5583999999999 0.666 0.748
1972 4 7 0.0300 588.8883999999999 -0.588 0.851
1973 4 3 0.0600 588.7833999999999 -0.4570000000000003 -4.521
1974 4 3 0.0600 589.7293999999999 -1.5610000000000002 -3.418
1975 4 3 0.0600 590.3524 0.025999999999999763 -3.859
1976 4 2 -0.1200 590.4884 0.0 0.0
1977 4 9 0.2200 591.9964 0.0 0.0
1978 4 6 -0.3300 592.5364 -1.196 0.49
1979 4 4 0.5100 592.2973999999999 -2.426 -0.083
1980 4 5 -0.4300 591.5613999999999 -2.552 -1.107
1981 4 1 -0.1800 592.9184 -3.63 0.515
1982 4 3 0.0600 590.0624 -1.019 -0.11
1983 4 3 0.0600 590.0663999999999 0.748 -0.666
1984 4 7 0.0300 592.3964 0.851 0.588
1985 4 3 0.0600 592.2914 -4.521 0.457
1986 4 3 0.0600 593.2374 -3.418 1.561
1987 4 3 0.0600 593.8604 -3.859 -0.026
1988 4 2 -0.1200 593.9964 0.0 0.0
1989 4 9 0.2200 595.5044 0.0 0.0
1990 4 6 -0.3300 596.0444 0.48999999999999994 -1.196
1991 4 4 0.5100 595.8054 -0.08300000000000016 -2.426
1992 4 5 -0.4300 595.0694 -1.1070000000000002 -2.552
1993 4 1 -0.1800 596.4264000000001 0.5149999999999998 -3.63
1994 4 3 0.0600 593.5704000000001 -0.11000000000000006 -1.019
1995 4 3 0.0600 593.5744 -0.666 0.748
1996 4 7 0.0300 595.9044 0.588 0.851
1997 4 3 0.0600 595.7994 0.45699999999999974 -4.521
1998 4 3 0.0600 596.7454 1.5609999999999997 -3.418
1999 4 3 0.0600 597.3684000000001 -0.026000000000000235 -3.859
2000 4 2 -0.1200 597.5043999999999 0.0 0.0
2001 4 9 0.2200 599.0124 0.0 0.0
2002 4 6 -0.3300 599.5523999999999 -1.196 0.49
2003 4 4 0.5100 599.3133999999999 -2.426 -0.083
2004 4 5 -0.4300 598.5773999999999 -2.552 -1.107
2005 4 1 -0.1800 599.9344 -3.63 0.515
2006 4 3 0.0600 597.0784 -1.019 -0.11
2007 4 3 0.0600 597.0823999999999 0.748 -0.666
2008 4 7 0.0300 599.4123999999999 0.851 0.588
2009 4 3 0.0600 599.3073999999999 -4.521 0.457
2010 4 3 0.0600 600.2533999999999 -3.418 1.561
2011 4 3 0.0600 600.8764 -3.859 -0.026
2012 4 2 -0.1200 601.0124 0.0 0.0
2013 4 9 0.2200 602.5204 0.0 0.0
2014 4 6 -0.3300 603.0604 -0.49000000000000005 -1.196
2015 4 4 0.5100 602.8213999999999 0.08299999999999985 -2.426
2016 4 5 -0.4300 602.0853999999999 1.1069999999999998 -2.552
2017 4 1 -0.1800 603.4424 -0.5150000000000002 -3.63
2018 4 3 0.0600 600.5864 0.10999999999999995 -1.019
2019 4 3 0.0600 600.5903999999999 0.666 0.748
2020 4 7 0.0300 602.9204 -0.588 0.851
2021 4 3 0.0600 602.8154 -0.4570000000000003 -4.521
2022 4 3 0.0600 603.7614 -1.5610000000000002 -3.418
2023 4 3 0.0600 604.3844 0.025999999999999763 -3.859
2024 4 2 -0.1200 604.5204 0.0 0.0
2025 4 9 0.2200 606.0284 0.0 0.0
2026 4 6 -0.3300 606.5684 -1.196 -0.49
2027 4 4 0.5100 606.3294 -2.426 0.083
2028 4 5 -0.4300 605.5934 -2.552 1.107
2029 4 1 -0.1800 606.9504000000001 -3.63 -0.515
2030 4 3 0.0600 604.0944000000001 -1.019 0.11
2031 4 3 0.0600 604.0984 0.748 0.666
2032 4 7 0.0300 606.4284 0.851 -0.588
2033 4 3 0.0600 606.3234 -4.521 -0.457
2034 4 3 0.0600 607.2694 -3.418 -1.561
2035 4 3 0.0600 607.8924000000001 -3.859 0.026
2036 4 2 -0.1200 608.0283999999999 0.0 0.0
2037 4 9 0.2200 609.5364 0.0 0.0
2038 4 6 -0.3300 610.0763999999999 0.48999999999999994 -1.196
2039 4 4 0.5100 609.8373999999999 -0.08300000000000016 -2.426
2040 4 5 -0.4300 609.1013999999999 -1.1070000000000002 -2.552
2041 4 1 -0.1800 610.4584 0.5149999999999998 -3.63
2042 4 3 0.0600 607.6024 -0.11000000000000006 -1.019
2043 4 3 0.0600 607.6063999999999 -0.666 0.748
2044 4 7 0.0300 609.9363999999999 0.588 0.851
2045 4 3 0.0600 609.8313999999999 0.45699999999999974 -4.521
2046 4 3 0.0600 610.7774 1.5609999999999997 -3.418
2047 4 3 0.0600 611.4004 -0.026000000000000235 -3.859
2048 4 2 -0.1200 611.5364 0.0 0.0
2049 4 9 0.2200 613.0444 0.0 0.0
2050 4 6 -0.3300 613.5844 -1.196 -0.49
2051 4 4 0.5100 613.3453999999999 -2.426 0.083
2052 4 5 -0.4300 612.6093999999999 -2.552 1.107
2053 4 1 -0.1800 613.9664 -3.63 -0.515
2054 4 3 0.0600 611.1104 -1.019 0.11
2055 4 3 0.0600 611.1143999999999 0.748 0.666
2056 4 7 0.0300 613.4444 0.851 -0.588
2057 4 3 0.0600 613.3394 -4.521 -0.457
2058 4 3 0.0600 614.2854 -3.418 -1.561
2059 4 3 0.0600 614.9084 -3.859 0.026
2060 4 2 -0.1200 615.0444 0.0 0.0
2061 4 9 0.2200 616.5524 0.0 0.0
2062 4 6 -0.3300 617.0924 -0.49000000000000005 -1.196
2063 4 4 0.5100 616.8534 0.08299999999999985 -2.426
2064 4 5 -0.4300 616.1174 1.1069999999999998 -2.552
2065 4 1 -0.1800 617.4744000000001 -0.5150000000000002 -3.63
2066 4 3 0.0600 614.6184000000001 0.10999999999999995 -1.019
2067 4 3 0.0600 614.6224 0.666 0.748
2068 4 7 0.0300 616.9524 -0.588 0.851
2069 4 3 0.0600 616.8474 -0.4570000000000003 -4.521
2070 4 3 0.0600 617.7934 -1.5610000000000002 -3.418
2071 4 3 0.0600 618.4164000000001 0.025999999999999763 -3.859
2072 4 2 -0.1200 618.5523999999999 0.0 0.0
2073 4 9 0.2200 620.0604 0.0 0.0
2074 4 6 -0.3300 620.6003999999999 -1.196 -0.49
2075 4 4 0.5100 620.3613999999999 -2.426 0.083
2076 4 5 -0.4300 619.6253999999999 -2.552 1.107
2077 4 1 -0.1800 620.9824 -3.63 -0.515
2078 4 3 0.0600 618.1264 -1.019 0.11
2079 4 3 0.0600 618.1303999999999 0.748 0.666
2080 4 7 0.0300 620.4603999999999 0.851 -0.588
2081 4 3 0.0600 620.3553999999999 -4.521 -0.457
2082 4 3 0.0600 621.3014 -3.418 -1.561
2083 4 3 0.0600 621.9244 -3.859 0.026
2084 4 2 -0.1200 622.0604 0.0 0.0
2085 4 9 0.2200 623.5684 0.0 0.0
2086 4 6 -0.3300 624.1084 0.48999999999999994 -1.196
2087 4 4 0.5100 623.8693999999999 -0.08300000000000016 -2.426
2088 4 5 -0.4300 623.1333999999999 -1.1070000000000002 -2.552
2089 4 1 -0.1800 624.4904 0.5149999999999998 -3.63
2090 4 3 0.0600 621.6344 -0.11000000000000006 -1.019
2091 4 3 0.0600 621.6383999999999 -0.666 0.748
2092 4 7 0.0300 623.9684 0.588 0.851
2093 4 3 0.0600 623.8634 0.45699999999999974 -4.521
2094 4 3 0.0600 624.8094 1.5609999999999997 -3.418
2095 4 3 0.0600 625.4324 -0.026000000000000235 -3.859
2096 4 2 -0.1200 625.5684 0.0 0.0
2097 4 9 0.2200 627.0764 0.0 0.0
2098 4 6 -0.3300 627.6164 -1.196 0.49
2099 4 4 0.5100 627.3774 -2.426 -0.083
2100 4 5 -0.4300 626.6414 -2.552 -1.107
2101 4 1 -0.1800 627.9984000000001 -3.63 0.515
2102 4 3 0.0600 625.1424000000001 -1.019 -0.11
2103 4 3 0.0600 625.1464 0.748 -0.666
2104 4 7 0.0300 627.4764 0.851 0.588
2105 4 3 0.0600 627.3714 -4.521 0.457
2106 4 3 0.0600 628.3174 -3.418 1.561
2107 4 3 0.0600 628.9404000000001 -3.859 -0.026
2108 4 2 -0.1200 629.0763999999999 0.0 0.0
2109 4 9 0.2200 630.5844 0.0 0.0
2110 4 6 -0.3300 631.1243999999999 0.48999999999999994 -1.196
2111 4 4 0.5100 630.8853999999999 -0.08300000000000016 -2.426
2112 4 5 -0.4300 630.1493999999999 -1.1070000000000002 -2.552
2113 4 1 -0.1800 631.5064 0.5149999999999998 -3.63
2114 4 3 0.0600 628.6504 -0.11000000000000006 -1.019
2115 4 3 0.0600 628.6543999999999 -0.666 0.748
2116 4 7 0.0300 630.9843999999999 0.588 0.851
2117 4 3 0.0600 630.8793999999999 0.45699999999999974 -4.521
2118 4 3 0.0600 631.8254 1.5609999999999997 -3.418
2119 4 3 0.0600 632.4484 -0.026000000000000235 -3.859
2120 4 2 -0.1200 632.5844 0.0 0.0
2121 4 9 0.2200 634.0924 0.0 0.0
2122 4 6 -0.3300 634.6324 -1.196 0.49
2123 4 4 0.5100 634.3933999999999 -2.426 -0.083
2124 4 5 -0.4300 633.6573999999999 -2.552 -1.107
2125 4 1 -0.1800 635.0144 -3.63 0.515
2126 4 3 0.0600 632.1584 -1.019 -0.11
2127 4 3 0.0600 632.1623999999999 0.748 -0.666
2128 4 7 0.0300 634.4924 0.851 0.588
2129 4 3 0.0600 634.3874 -4.521 0.457
2130 4 3 0.0600 635.3334 -3.418 1.561
2131 4 3 0.0600 635.9564 -3.859 -0.026
2132 4 2 -0.1200 636.0924 0.0 0.0
2133 4 9 0.2200 637.6004 0.0 0.0
2134 4 6 -0.3300 638.1404 0.48999999999999994 -1.196
2135 4 4 0.5100 637.9014 -0.08300000000000016 -2.426
2136 4 5 -0.4300 637.1654 -1.1070000000000002 -2.552
2137 4 1 -0.1800 638.5224000000001 0.5149999999999998 -3.63
2138 4 3 0.0600 635.6664000000001 -0.11000000000000006 -1.019
2139 4 3 0.0600 635.6704 -0.666 0.748
2140 4 7 0.0300 638.0004 0.588 0.851
2141 4 3 0.0600 637.8954 0.45699999999999974 -4.521
2142 4 3 0.0600 638.8414 1.5609999999999997 -3.418
2143 4 3 0.0600 639.4644000000001 -0.026000000000000235 -3.859
2144 4 2 -0.1200 639.6003999999999 0.0 0.0
2145 4 9 0.2200 641.1084 0.0 0.0
2146 4 6 -0.3300 641.6483999999999 -1.196 0.49
2147 4 4 0.5100 641.4093999999999 -2.426 -0.083
2148 4 5 -0.4300 640.6733999999999 -2.552 -1.107
2149 4 1 -0.1800 642.0304 -3.63 0.515
2150 4 3 0.0600 639.1744 -1.019 -0.11
2151 4 3 0.0600 639.1783999999999 0.748 -0.666
2152 4 7 0.0300 641.5083999999999 0.851 0.588
2153 4 3 0.0600 641.4033999999999 -4.521 0.457
2154 4 3 0.0600 642.3494 -3.418 1.561
2155 4 3 0.0600 642.9724 -3.859 -0.026
2156 4 2 -0.1200 643.1084 0.0 0.0
2157 4 9 0.2200 644.6164 0.0 0.0
2158 4 6 -0.3300 645.1564 0.48999999999999994 -1.196
2159 4 4 0.5100 644.9173999999999 -0.08300000000000016 -2.426
2160 4 5 -0.4300 644.1813999999999 -1.1070000000000002 -2.552
2161 4 1 -0.1800 645.5384 0.5149999999999998 -3.63
2162 4 3 0.0600 642.6824 -0.11000000000000006 -1.019
2163 4 3 0.0600 642.6863999999999 -0.666 0.748
2164 4 7 0.0300 645.0164 0.588 0.851
2165 4 3 0.0600 644.9114 0.45699999999999974 -4.521
2166 4 3 0.0600 645.8574 1.5609999999999997 -3.418
2167 4 3 0.0600 646.4804 -0.026000000000000235 -3.859
2168 4 2 -0.1200 646.6164 0.0 0.0
2169 4 9 0.2200 648.1244 0.0 0.0
2170 4 6 -0.3300 648.6644 -1.196 0.49
2171 4 4 0.5100 648.4254 -2.426 -0.083
2172 4 5 -0.4300 647.6894 -2.552 -1.107
2173 4 1 -0.1800 649.0464000000001 -3.63 0.515
2174 4 3 0.0600 646.1904000000001 -1.019 -0.11
2175 4 3 0.0600 646.1944 0.748 -0.666
2176 4 7 0.0300 648.5244 0.851 0.588
2177 4 3 0.0600 648.4194 -4.521 0.457
2178 4 3 0.0600 649.3654 -3.418 1.561
2179 4 3 0.0600 649.9884000000001 -3.859 -0.026
2180 4 2 -0.1200 650.1243999999999 0.0 0.0
2181 4 9 0.2200 651.6324 0.0 0.0
2182 4 6 -0.3300 652.1723999999999 0.48999999999999994 -1.196
2183 4 4 0.5100 651.9333999999999 -0.08300000000000016 -2.426
2184 4 5 -0.4300 651.1973999999999 -1.1070000000000002 -2.552
2185 4 1 -0.1800 652.5544 0.5149999999999998 -3.63
2186 4 3 0.0600 649.6984 -0.11000000000000006 -1.019
2187 4 3 0.0600 649.7023999999999 -0.666 0.748
2188 4 7 0.0300 652.0323999999999 0.588 0.851
2189 4 3 0.0600 651.9273999999999 0.45699999999999974 -4.521
2190 4 3 0.0600 652.8734 1.5609999999999997 -3.418
2191 4 3 0.0600 653.4964 -0.026000000000000235 -3.859
2192 4 2 -0.1200 653.6324 0.0 0.0
2193 4 9 0.2200 655.1404 0.0 0.0
2194 4 6 -0.3300 655.6804 -1.196 0.49
2195 4 4 0.5100 655.4413999999999 -2.426 -0.083
2196 4 5 -0.4300 654.7053999999999 -2.552 -1.107
2197 4 1 -0.1800 656.0624 -3.63 0.515
2198 4 3 0.0600 653.2064 -1.019 -0.11
2199 4 3 0.0600 653.2103999999999 0.748 -0.666
2200 4 7 0.0300 655.5404 0.851 0.588
2201 4 3 0.0600 655.4354 -4.521 0.457
2202 4 3 0.0600 656.3814 -3.418 1.561
2203 4 3 0.0600 657.0044 -3.859 -0.026
2204 4 2 -0.1200 657.1404 0.0 0.0
2205 4 9 0.2200 658.6484 0.0 0.0
2206 4 6 -0.3300 659.1884 0.48999999999999994 -1.196
2207 4 4 0.5100 658.9494 -0.08300000000000016 -2.426
2208 4 5 -0.4300 658.2134 -1.1070000000000002 -2.552
2209 4 1 -0.1800 659.5704000000001 0.5149999999999998 -3.63
2210 4 3 0.0600 656.7144000000001 -0.11000000000000006 -1.019
2211 4 3 0.0600 656.7184 -0.666 0.748
2212 4 7 0.0300 659.0484 0.588 0.851
2213 4 3 0.0600 658.9434 0.45699999999999974 -4.521
2214 4 3 0.0600 659.8894 1.5609999999999997 -3.418
2215 4 3 0.0600 660.5124000000001 -0.026000000000000235 -3.859
2216 4 2 -0.1200 660.6483999999999 0.0 0.0
2217 4 9 0.2200 662.1564 0.0 0.0
2218 4 6 -0.3300 662.6963999999999 -1.196 -0.49
2219 4 4 0.5100 662.4573999999999 -2.426 0.083
2220 4 5 -0.4300 661.7213999999999 -2.552 1.107
2221 4 1 -0.1800 663.0784 -3.63 -0.515
2222 4 3 0.0600 660.2224 -1.019 0.11
2223 4 3 0.0600 660.2263999999999 0.748 0.666
2224 4 7 0.0300 662.5563999999999 0.851 -0.588
2225 4 3 0.0600 662.4513999999999 -4.521 -0.457
2226 4 3 0.0600 663.3974 -3.418 -1.561
2227 4 3 0.0600 664.0204 -3.859 0.026
2228 4 2 -0.1200 664.1564 0.0 0.0
2229 4 9 0.2200 665.6644 0.0 0.0
2230 4 6 -0.3300 666.2044 -0.49000000000000005 -1.196
2231 4 4 0.5100 665.9653999999999 0.08299999999999985 -2.426
2232 4 5 -0.4300 665.2293999999999 1.1069999999999998 -2.552
2233 4 1 -0.1800 666.5864 -0.5150000000000002 -3.63
2234 4 3 0.0600 663.7304 0.10999999999999995 -1.019
2235 4 3 0.0600 663.7343999999999 0.666 0.748
2236 4 7 0.0300 666.0644 -0.588 0.851
2237 4 3 0.0600 665.9594 -0.4570000000000003 -4.521
2238 4 3 0.0600 666.9054 -1.5610000000000002 -3.418
2239 4 3 0.0600 667.5284 0.025999999999999763 -3.859
2240 4 2 -0.1200 667.6644 0.0 0.0
2241 4 9 0.2200 669.1724 0.0 0.0
2242 4 6 -0.3300 669.7124 -1.196 -0.49
2243 4 4 0.5100 669.4734 -2.426 0.083
2244 4 5 -0.4300 668.7374 -2.552 1.107
2245 4 1 -0.1800 670.0944000000001 -3.63 -0.515
2246 4 3 0.0600 667.2384000000001 -1.019 0.11
2247 4 3 0.0600 667.2424 0.748 0.666
2248 4 7 0.0300 669.5724 0.851 -0.588
2249 4 3 0.0600 669.4674 -4.521 -0.457
2250 4 3 0.0600 670.4134 -3.418 -1.561
2251 4 3 0.0600 671.0364000000001 -3.859 0.026
2252 4 2 -0.1200 671.1723999999999 0.0 0.0
2253 4 9 0.2200 672.6804 0.0 0.0
2254 4 6 -0.3300 673.2203999999999 0.48999999999999994 -1.196
2255 4 4 0.5100 672.9813999999999 -0.08300000000000016 -2.426
2256 4 5 -0.4300 672.2453999999999 -1.1070000000000002 -2.552
2257 4 1 -0.1800 673.6024 0.5149999999999998 -3.63
2258 4 3 0.0600 670.7464 -0.11000000000000006 -1.019
2259 4 3 0.0600 670.7503999999999 -0.666 0.748
2260 4 7 0.0300 673.0803999999999 0.588 0.851
2261 4 3 0.0600 672.9753999999999 0.45699999999999974 -4.521
2262 4 3 0.0600 673.9214 1.5609999999999997 -3.418
2263 4 3 0.0600 674.5444 -0.026000000000000235 -3.859
2264 4 2 -0.1200 674.6804 0.0 0.0
2265 4 9 0.2200 676.1884 0.0 0.0
2266 4 6 -0.3300 676.7284 -1.196 0.49
2267 4 4 0.5100 676.4893999999999 -2.426 -0.083
2268 4 5 -0.4300 675.7533999999999 -2.552 -1.107
2269 4 1 -0.1800 677.1104 -3.63 0.515
2270 4 3 0.0600 674.2544 -1.019 -0.11
2271 4 3 0.0600 674.2583999999999 0.748 -0.666
2272 4 7 0.0300 676.5884 0.851 0.588
2273 4 3 0.0600 676.4834 -4.521 0.457
2274 4 3 0.0600 677.4294 -3.418 1.561
2275 4 3 0.0600 678.0524 -3.859 -0.026
2276 4 2 -0.1200 678.1884 0.0 0.0
2277 4 9 0.2200 679.6964 0.0 0.0
2278 4 6 -0.3300 680.2364 0.48999999999999994 -1.196
2279 4 4 0.5100 679.9974 -0.08300000000000016 -2.426
2280 4 5 -0.4300 679.2614 -1.1070000000000002 -2.552
2281 4 1 -0.1800 680.6184000000001 0.5149999999999998 -3.63
2282 4 3 0.0600 677.7624000000001 -0.11000000000000006 -1.019
2283 4 3 0.0600 677.7664 -0.666 0.748
2284 4 7 0.0300 680.0964 0.588 0.851
2285 4 3 0.0600 679.9914 0.45699999999999974 -4.521
2286 4 3 0.0600 680.9374 1.5609999999999997 -3.418
2287 4 3 0.0600 681.5604000000001 -0.026000000000000235 -3.859
2288 4 2 -0.1200 681.6963999999999 0.0 0.0
2289 4 9 0.2200 683.2044 0.0 0.0
2290 4 6 -0.3300 683.7443999999999 -1.196 0.49
2291 4 4 0.5100 683.5053999999999 -2.426 -0.083
2292 4 5 -0.4300 682.7693999999999 -2.552 -1.107
2293 4 1 -0.1800 684.1264 -3.63 0.515
2294 4 3 0.0600 681.2704 -1.019 -0.11
2295 4 3 0.0600 681.2743999999999 0.748 -0.666
2296 4 7 0.0300 683.6043999999999 0.851 0.588
2297 4 3 0.0600 683.4993999999999 -4.521 0.457
2298 4 3 0.0600 684.4454 -3.418 1.561
2299 4 3 0.0600 685.0684 -3.859 -0.026
2300 4 2 -0.1200 685.2044 0.0 0.0
2301 4 9 0.2200 686.7124 0.0 0.0
2302 4 6 -0.3300 687.2524 0.48999999999999994 -1.196
2303 4 4 0.5100 687.0133999999999 -0.08300000000000016 -2.426
2304 4 5 -0.4300 686.2774 -1.1070000000000002 -2.552
2305 4 1 -0.1800 687.6344 0.5149999999999998 -3.63
2306 4 3 0.0600 684.7784 -0.11000000000000006 -1.019
2307 4 3 0.0600 684.7823999999999 -0.666 0.748
2308 4 7 0.0300 687.1124 0.588 0.851
2309 4 3 0.0600 687.0074 0.45699999999999974 -4.521
2310 4 3 0.0600 687.9534 1.5609999999999997 -3.418
2311 4 3 0.0600 688.5764 -0.026000000000000235 -3.859
2312 4 2 -0.1200 688.7124 0.0 0.0
2313 4 9 0.2200 690.2204 0.0 0.0
2314 4 6 -0.3300 690.7604 -1.196 -0.49
2315 4 4 0.5100 690.5214 -2.426 0.083
2316 4 5 -0.4300 689.7854 -2.552 1.107
2317 4 1 -0.1800 691.1424000000001 -3.63 -0.515
2318 4 3 0.0600 688.2864000000001 -1.019 0.11
2319 4 3 0.0600 688.2904 0.748 0.666
2320 4 7 0.0300 690.6204 0.851 -0.588
2321 4 3 0.0600 690.5154 -4.521 -0.457
2322 4 3 0.0600 691.4614 -3.418 -1.561
2323 4 3 0.0600 692.0844000000001 -3.859 0.026
2324 4 2 -0.1200 692.2203999999999 0.0 0.0
2325 4 9 0.2200 693.7284 0.0 0.0
2326 4 6 -0.3300 694.2683999999999 0.48999999999999994 -1.196
2327 4 4 0.5100 694.0293999999999 -0.08300000000000016 -2.426
2328 4 5 -0.4300 693.2933999999999 -1.1070000000000002 -2.552
2329 4 1 -0.1800 694.6504 0.5149999999999998 -3.63
2330 4 3 0.0600 691.7944 -0.11000000000000006 -1.019
2331 4 3 0.0600 691.7983999999999 -0.666 0.748
2332 4 7 0.0300 694.1283999999999 0.588 0.851
2333 4 3 0.0600 694.0233999999999 0.45699999999999974 -4.521
2334 4 3 0.0600 694.9694 1.5609999999999997 -3.418
2335 4 3 0.0600 695.5924 -0.026000000000000235 -3.859
2336 4 2 -0.1200 695.7284 0.0 0.0
2337 4 9 0.2200 697.2364 0.0 0.0
2338 4 6 -0.3300 697.7764 -1.196 0.49
2339 4 4 0.5100 697.5373999999999 -2.426 -0.083
2340 4 5 -0.4300 696.8014 -2.552 -1.107
2341 4 1 -0.1800 698.1584 -3.63 0.515
2342 4 3 0.0600 695.3024 -1.019 -0.11
2343 4 3 0.0600 695.3063999999999 0.748 -0.666
2344 4 7 0.0300 697.6364 0.851 0.588
2345 4 3 0.0600 697.5314 -4.521 0.457
2346 4 3 0.0600 698.4774 -3.418 1.561
2347 4 3 0.0600 699.1004 -3.859 -0.026
2348 4 2 -0.1200 699.2363999999999 0.0 0.0
2349 4 9 0.2200 700.7443999999999 0.0 0.0
2350 4 6 -0.3300 701.2843999999999 0.48999999999999994 -1.196
2351 4 4 0.5100 701.0453999999999 -0.08300000000000016 -2.426
2352 4 5 -0.4300 700.3093999999999 -1.1070000000000002 -2.552
2353 4 1 -0.1800 701.6664 0.5149999999999998 -3.63
2354 4 3 0.0600 698.8104 -0.11000000000000006 -1.019
2355 4 3 0.0600 698.8143999999999 -0.666 0.748
2356 4 7 0.0300 701.1443999999999 0.588 0.851
2357 4 3 0.0600 701.0393999999999 0.45699999999999974 -4.521
2358 4 3 0.0600 701.9853999999999 1.5609999999999997 -3.418
2359 4 3 0.0600 702.6084 -0.026000000000000235 -3.859
2360 4 2 -0.1200 702.7443999999999 0.0 0.0
2361 4 9 0.2200 704.2524 0.0 0.0
2362 4 6 -0.3300 704.7923999999999 -1.196 0.49
2363 4 4 0.5100 704.5533999999999 -2.426 -0.083
2364 4 5 -0.4300 703.8173999999999 -2.552 -1.107
2365 4 1 -0.1800 705.1744 -3.63 0.515
2366 4 3 0.0600 702.3184 -1.019 -0.11
2367 4 3 0.0600 702.3223999999999 0.748 -0.666
2368 4 7 0.0300 704.6524 0.851 0.588
2369 4 3 0.0600 704.5473999999999 -4.521 0.457
2370 4 3 0.0600 705.4934 -3.418 1.561
2371 4 3 0.0600 706.1164 -3.859 -0.026
2372 4 2 -0.1200 706.2524 0.0 0.0
2373 4 9 0.2200 707.7604 0.0 0.0
2374 4 6 -0.3300 708.3004 0.48999999999999994 -1.196
2375 4 4 0.5100 708.0613999999999 -0.08300000000000016 -2.426
2376 4 5 -0.4300 707.3254 -1.1070000000000002 -2.552
2377 4 1 -0.1800 708.6824 0.5149999999999998 -3.63
2378 4 3 0.0600 705.8264 -0.11000000000000006 -1.019
2379 4 3 0.0600 705.8303999999999 -0.666 0.748
2380 4 7 0.0300 708.1604 0.588 0.851
2381 4 3 0.0600 708.0554 0.45699999999999974 -4.521
2382 4 3 0.0600 709.0014 1.5609999999999997 -3.418
2383 4 3 0.0600 709.6244 -0.026000000000000235 -3.859
2384 4 2 -0.1200 709.7604 0.0 0.0
2385 4 9 0.2200 711.2684 0.0 0.0
2386 4 6 -0.3300 711.8084 -1.196 -0.49
2387 4 4 0.5100 711.5694 -2.426 0.083
2388 4 5 -0.4300 710.8334 -2.552 1.107
2389 4 1 -0.1800 712.1904000000001 -3.63 -0.515
2390 4 3 0.0600 709.3344000000001 -1.019 0.11
2391 4 3 0.0600 709.3384 0.748 0.666
2392 4 7 0.0300 711.6684 0.851 -0.588
2393 4 3 0.0600 711.5634 -4.521 -0.457
2394 4 3 0.0600 712.5094 -3.418 -1.561
2395 4 3 0.0600 713.1324000000001 -3.859 0.026
2396 4 2 -0.1200 711.5423999999999 0.0 0.0
2397 4 8 0.1900 712.1153999999999 -0.48699999999999993 1.269
2398 4 6 -0.3300 713.4473999999999 -0.8969999999999999 1.192
2399 4 4 0.5100 714.4953999999999 -0.06399999999999995 0.807
2400 4 5 -0.4300 714.2593999999999 1.143 0.5039999999999999
2401 4 1 -0.1800 715.9024 -0.577 0.748
2402 4 3 0.0600 711.3553999999999 1.049 -0.11600000000000008
2403 4 3 0.0600 711.2914 -0.709 -0.759
2404 4 7 0.0300 711.5164 -1.377 1.587
2405 4 7 0.0300 711.9763999999999 0.2570000000000001 2.079
2406 4 3 0.0600 716.3753999999999 -0.5529999999999999 1.738
2407 4 3 0.0600 715.8793999999999 -1.652 0.4330000000000001
2408 4 3 0.0600 716.5024 0.0 0.0
2409 5 1 -0.1800 -0.763 180.7041 0.0
2410 5 9 0.2200 0.763 180.7041 0.0
2411 5 6 -0.3300 1.206 180.21110000000002 -1.254
2412 5 4 0.5100 2.595 180.1431 -1.426
2413 5 5 -0.4300 3.385 180.5001 -0.517
2414 5 1 -0.1800 3.173 179.64010000000002 -2.705
2415 5 3 0.0600 -1.129 179.68110000000001 -0.168
2416 5 3 0.0600 -1.139 181.07610000000003 0.973
2417 5 3 0.0600 -1.073 181.35410000000002 -0.832
2418 5 7 0.0300 1.173 181.7041 0.146
2419 5 3 0.0600 2.365 179.2521 -3.336
2420 5 3 0.0600 3.791 180.42010000000002 -3.204
2421 5 3 0.0600 3.887 178.8291 -2.397
2422 5 2 -0.1200 2.772 180.7041 0.0
2423 5 9 0.2200 4.279999999999999 180.7041 0.0
2424 5 6 -0.3300 4.82 180.2141 -1.196
2425 5 4 0.5100 4.5809999999999995 180.7871 -2.426
2426 5 5 -0.4300 3.8449999999999998 181.8111 -2.552
2427 5 1 -0.1800 5.202 180.18910000000002 -3.63
2428 5 3 0.0600 2.346 180.81410000000002 -1.019
2429 5 3 0.0600 2.3499999999999996 181.3701 0.748
2430 5 7 0.0300 4.68 180.11610000000002 0.851
2431 5 3 0.0600 4.574999999999999 180.24710000000002 -4.521
2432 5 3 0.0600 5.521 179.1431 -3.418
2433 5 3 0.0600 6.144 180.73010000000002 -3.859
2434 5 2 -0.1200 6.279999999999999 180.7041 0.0
2435 5 9 0.2200 7.788 180.7041 0.0
2436 5 6 -0.3300 8.328 179.5081 -0.49
2437 5 4 0.5100 8.089 178.27810000000002 0.083
2438 5 5 -0.4300 7.353 178.15210000000002 1.107
2439 5 1 -0.1800 8.709999999999999 177.07410000000002 -0.515
2440 5 3 0.0600 5.854 179.6851 0.11
2441 5 3 0.0600 5.858 181.4521 0.666
2442 5 7 0.0300 8.187999999999999 181.5551 -0.588
2443 5 3 0.0600 8.083 176.18310000000002 -0.457
2444 5 3 0.0600 9.029 177.2861 -1.561
2445 5 3 0.0600 9.652 176.8451 0.026
2446 5 2 -0.1200 9.788 180.7041 0.0
2447 5 9 0.2200 11.296 180.7041 0.0
2448 5 6 -0.3300 11.836 180.2141 -1.196
2449 5 4 0.5100 11.597 180.7871 -2.426
2450 5 5 -0.4300 10.861 181.8111 -2.552
2451 5 1 -0.1800 12.218 180.18910000000002 -3.63
2452 5 3 0.0600 9.362 180.81410000000002 -1.019
2453 5 3 0.0600 9.366 181.3701 0.748
2454 5 7 0.0300 11.696 180.11610000000002 0.851
2455 5 3 0.0600 11.591 180.24710000000002 -4.521
2456 5 3 0.0600 12.536999999999999 179.1431 -3.418
2457 5 3 0.0600 13.16 180.73010000000002 -3.859
2458 5 2 -0.1200 13.296000000000001 180.7041 0.0
2459 5 9 0.2200 14.804 180.7041 0.0
2460 5 6 -0.3300 15.344000000000001 179.5081 -0.49
2461 5 4 0.5100 15.105 178.27810000000002 0.083
2462 5 5 -0.4300 14.369000000000002 178.15210000000002 1.107
2463 5 1 -0.1800 15.726 177.07410000000002 -0.515
2464 5 3 0.0600 12.870000000000001 179.6851 0.11
2465 5 3 0.0600 12.874 181.4521 0.666
2466 5 7 0.0300 15.204 181.5551 -0.588
2467 5 3 0.0600 15.099 176.18310000000002 -0.457
2468 5 3 0.0600 16.045 177.2861 -1.561
2469 5 3 0.0600 16.668 176.8451 0.026
2470 5 2 -0.1200 16.804 180.7041 0.0
2471 5 9 0.2200 18.312 180.7041 0.0
2472 5 6 -0.3300 18.852 181.19410000000002 -1.196
2473 5 4 0.5100 18.613 180.6211 -2.426
2474 5 5 -0.4300 17.877 179.5971 -2.552
2475 5 1 -0.1800 19.233999999999998 181.2191 -3.63
2476 5 3 0.0600 16.378 180.5941 -1.019
2477 5 3 0.0600 16.382 180.03810000000001 0.748
2478 5 7 0.0300 18.712 181.2921 0.851
2479 5 3 0.0600 18.607 181.1611 -4.521
2480 5 3 0.0600 19.553 182.26510000000002 -3.418
2481 5 3 0.0600 20.176 180.6781 -3.859
2482 5 2 -0.1200 20.311999999999998 180.7041 0.0
2483 5 9 0.2200 21.82 180.7041 0.0
2484 5 6 -0.3300 22.36 179.5081 0.49
2485 5 4 0.5100 22.121 178.27810000000002 -0.083
2486 5 5 -0.4300 21.384999999999998 178.15210000000002 -1.107
2487 5 1 -0.1800 22.741999999999997 177.07410000000002 0.515
2488 5 3 0.0600 19.886 179.6851 -0.11
2489 5 3 0.0600 19.89 181.4521 -0.666
2490 5 7 0.0300 22.22 181.5551 0.588
2491 5 3 0.0600 22.115 176.18310000000002 0.457
2492 5 3 0.0600 23.061 177.2861 1.561
2493 5 3 0.0600 23.683999999999997 176.8451 -0.026
2494 5 2 -0.1200 23.82 180.7041 0.0
2495 5 9 0.2200 25.328000000000003 180.7041 0.0
2496 5 6 -0.3300 25.868000000000002 180.2141 -1.196
2497 5 4 0.5100 25.629 180.7871 -2.426
2498 5 5 -0.4300 24.893 181.8111 -2.552
2499 5 1 -0.1800 26.25 180.18910000000002 -3.63
2500 5 3 0.0600 23.394000000000002 180.81410000000002 -1.019
2501 5 3 0.0600 23.398000000000003 181.3701 0.748
2502 5 7 0.0300 25.728 180.11610000000002 0.851
2503 5 3 0.0600 25.623 180.24710000000002 -4.521
2504 5 3 0.0600 26.569000000000003 179.1431 -3.418
2505 5 3 0.0600 27.192 180.73010000000002 -3.859
2506 5 2 -0.1200 27.328 180.7041 0.0
2507 5 9 0.2200 28.836000000000002 180.7041 0.0
2508 5 6 -0.3300 29.376 179.5081 -0.49
2509 5 4 0.5100 29.137 178.27810000000002 0.083
2510 5 5 -0.4300 28.401 178.15210000000002 1.107
2511 5 1 -0.1800 29.758 177.07410000000002 -0.515
2512 5 3 0.0600 26.902 179.6851 0.11
2513 5 3 0.0600 26.906000000000002 181.4521 0.666
2514 5 7 0.0300 29.236 181.5551 -0.588
2515 5 3 0.0600 29.131 176.18310000000002 -0.457
2516 5 3 0.0600 30.077 177.2861 -1.561
2517 5 3 0.0600 30.7 176.8451 0.026
2518 5 2 -0.1200 30.836 180.7041 0.0
2519 5 9 0.2200 32.344 180.7041 0.0
2520 5 6 -0.3300 32.884 180.2141 -1.196
2521 5 4 0.5100 32.645 180.7871 -2.426
2522 5 5 -0.4300 31.909 181.8111 -2.552
2523 5 1 -0.1800 33.266 180.18910000000002 -3.63
2524 5 3 0.0600 30.41 180.81410000000002 -1.019
2525 5 3 0.0600 30.414 181.3701 0.748
2526 5 7 0.0300 32.744 180.11610000000002 0.851
2527 5 3 0.0600 32.639 180.24710000000002 -4.521
2528 5 3 0.0600 33.585 179.1431 -3.418
2529 5 3 0.0600 34.208 180.73010000000002 -3.859
2530 5 2 -0.1200 34.344 180.7041 0.0
2531 5 9 0.2200 35.852 180.7041 0.0
2532 5 6 -0.3300 36.391999999999996 179.5081 -0.49
2533 5 4 0.5100 36.153 178.27810000000002 0.083
2534 5 5 -0.4300 35.417 178.15210000000002 1.107
2535 5 1 -0.1800 36.774 177.07410000000002 -0.515
2536 5 3 0.0600 33.918 179.6851 0.11
2537 5 3 0.0600 33.922 181.4521 0.666
2538 5 7 0.0300 36.251999999999995 181.5551 -0.588
2539 5 3 0.0600 36.147 176.18310000000002 -0.457
2540 5 3 0.0600 37.092999999999996 177.2861 -1.561
2541 5 3 0.0600 37.716 176.8451 0.026
2542 5 2 -0.1200 37.852000000000004 180.7041 0.0
2543 5 9 0.2200 39.36 180.7041 0.0
2544 5 6 -0.3300 39.9 181.19410000000002 -1.196
2545 5 4 0.5100 39.661 180.6211 -2.426
2546 5 5 -0.4300 38.925000000000004 179.5971 -2.552
2547 5 1 -0.1800 40.282000000000004 181.2191 -3.63
2548 5 3 0.0600 37.426 180.5941 -1.019
2549 5 3 0.0600 37.43 180.03810000000001 0.748
2550 5 7 0.0300 39.760000000000005 181.2921 0.851
2551 5 3 0.0600 39.655 181.1611 -4.521
2552 5 3 0.0600 40.601 182.26510000000002 -3.418
2553 5 3 0.0600 41.224000000000004 180.6781 -3.859
2554 5 2 -0.1200 41.36 180.7041 0.0
2555 5 9 0.2200 42.867999999999995 180.7041 0.0
2556 5 6 -0.3300 43.407999999999994 179.5081 0.49
2557 5 4 0.5100 43.169 178.27810000000002 -0.083
2558 5 5 -0.4300 42.433 178.15210000000002 -1.107
2559 5 1 -0.1800 43.79 177.07410000000002 0.515
2560 5 3 0.0600 40.934 179.6851 -0.11
2561 5 3 0.0600 40.937999999999995 181.4521 -0.666
2562 5 7 0.0300 43.268 181.5551 0.588
2563 5 3 0.0600 43.163 176.18310000000002 0.457
2564 5 3 0.0600 44.108999999999995 177.2861 1.561
2565 5 3 0.0600 44.732 176.8451 -0.026
2566 5 2 -0.1200 44.868 180.7041 0.0
2567 5 9 0.2200 46.376 180.7041 0.0
2568 5 6 -0.3300 46.916 181.19410000000002 -1.196
2569 5 4 0.5100 46.677 180.6211 -2.426
2570 5 5 -0.4300 45.941 179.5971 -2.552
2571 5 1 -0.1800 47.298 181.2191 -3.63
2572 5 3 0.0600 44.442 180.5941 -1.019
2573 5 3 0.0600 44.446 180.03810000000001 0.748
2574 5 7 0.0300 46.775999999999996 181.2921 0.851
2575 5 3 0.0600 46.671 181.1611 -4.521
2576 5 3 0.0600 47.617 182.26510000000002 -3.418
2577 5 3 0.0600 48.24 180.6781 -3.859
2578 5 2 -0.1200 48.376000000000005 180.7041 0.0
2579 5 9 0.2200 49.884 180.7041 0.0
2580 5 6 -0.3300 50.424 179.5081 0.49
2581 5 4 0.5100 50.185 178.27810000000002 -0.083
2582 5 5 -0.4300 49.449000000000005 178.15210000000002 -1.107
2583 5 1 -0.1800 50.806000000000004 177.07410000000002 0.515
2584 5 3 0.0600 47.95 179.6851 -0.11
2585 5 3 0.0600 47.954 181.4521 -0.666
2586 5 7 0.0300 50.284000000000006 181.5551 0.588
2587 5 3 0.0600 50.179 176.18310000000002 0.457
2588 5 3 0.0600 51.125 177.2861 1.561
2589 5 3 0.0600 51.748000000000005 176.8451 -0.026
2590 5 2 -0.1200 51.884 180.7041 0.0
2591 5 9 0.2200 53.391999999999996 180.7041 0.0
2592 5 6 -0.3300 53.931999999999995 181.19410000000002 -1.196
2593 5 4 0.5100 53.693 180.6211 -2.426
2594 5 5 -0.4300 52.957 179.5971 -2.552
2595 5 1 -0.1800 54.314 181.2191 -3.63
2596 5 3 0.0600 51.458 180.5941 -1.019
2597 5 3 0.0600 51.461999999999996 180.03810000000001 0.748
2598 5 7 0.0300 53.792 181.2921 0.851
2599 5 3 0.0600 53.687 181.1611 -4.521
2600 5 3 0.0600 54.632999999999996 182.26510000000002 -3.418
2601 5 3 0.0600 55.256 180.6781 -3.859
2602 5 2 -0.1200 55.392 180.7041 0.0
2603 5 9 0.2200 56.9 180.7041 0.0
2604 5 6 -0.3300 57.44 179.5081 -0.49
2605 5 4 0.5100 57.201 178.27810000000002 0.083
2606 5 5 -0.4300 56.465 178.15210000000002 1.107
2607 5 1 -0.1800 57.822 177.07410000000002 -0.515
2608 5 3 0.0600 54.966 179.6851 0.11
2609 5 3 0.0600 54.97 181.4521 0.666
2610 5 7 0.0300 57.3 181.5551 -0.588
2611 5 3 0.0600 57.195 176.18310000000002 -0.457
2612 5 3 0.0600 58.141 177.2861 -1.561
2613 5 3 0.0600 58.764 176.8451 0.026
2614 5 2 -0.1200 58.900000000000006 180.7041 0.0
2615 5 9 0.2200 60.408 180.7041 0.0
2616 5 6 -0.3300 60.948 180.2141 -1.196
2617 5 4 0.5100 60.709 180.7871 -2.426
2618 5 5 -0.4300 59.973000000000006 181.8111 -2.552
2619 5 1 -0.1800 61.330000000000005 180.18910000000002 -3.63
2620 5 3 0.0600 58.474000000000004 180.81410000000002 -1.019
2621 5 3 0.0600 58.478 181.3701 0.748
2622 5 7 0.0300 60.80800000000001 180.11610000000002 0.851
2623 5 3 0.0600 60.703 180.24710000000002 -4.521
2624 5 3 0.0600 61.649 179.1431 -3.418
2625 5 3 0.0600 62.272000000000006 180.73010000000002 -3.859
2626 5 2 -0.1200 62.408 180.7041 0.0
2627 5 9 0.2200 63.916 180.7041 0.0
2628 5 6 -0.3300 64.456 179.5081 -0.49
2629 5 4 0.5100 64.217 178.27810000000002 0.083
2630 5 5 -0.4300 63.481 178.15210000000002 1.107
2631 5 1 -0.1800 64.838 177.07410000000002 -0.515
2632 5 3 0.0600 61.982 179.6851 0.11
2633 5 3 0.0600 61.986 181.4521 0.666
2634 5 7 0.0300 64.316 181.5551 -0.588
2635 5 3 0.0600 64.211 176.18310000000002 -0.457
2636 5 3 0.0600 65.157 177.2861 -1.561
2637 5 3 0.0600 65.78 176.8451 0.026
2638 5 2 -0.1200 65.916 180.7041 0.0
2639 5 9 0.2200 67.424 180.7041 0.0
2640 5 6 -0.3300 67.964 181.19410000000002 -1.196
2641 5 4 0.5100 67.72500000000001 180.6211 -2.426
2642 5 5 -0.4300 66.989 179.5971 -2.552
2643 5 1 -0.1800 68.346 181.2191 -3.63
2644 5 3 0.0600 65.49 180.5941 -1.019
2645 5 3 0.0600 65.494 180.03810000000001 0.748
2646 5 7 0.0300 67.824 181.2921 0.851
2647 5 3 0.0600 67.71900000000001 181.1611 -4.521
2648 5 3 0.0600 68.665 182.26510000000002 -3.418
2649 5 3 0.0600 69.288 180.6781 -3.859
2650 5 2 -0.1200 69.42399999999999 180.7041 0.0
2651 5 9 0.2200 70.932 180.7041 0.0
2652 5 6 -0.3300 71.472 179.5081 -0.49
2653 5 4 0.5100 71.233 178.27810000000002 0.083
2654 5 5 -0.4300 70.497 178.15210000000002 1.107
2655 5 1 -0.1800 71.854 177.07410000000002 -0.515
2656 5 3 0.0600 68.99799999999999 179.6851 0.11
2657 5 3 0.0600 69.002 181.4521 0.666
2658 5 7 0.0300 71.332 181.5551 -0.588
2659 5 3 0.0600 71.227 176.18310000000002 -0.457
2660 5 3 0.0600 72.173 177.2861 -1.561
2661 5 3 0.0600 72.79599999999999 176.8451 0.026
2662 5 2 -0.1200 72.932 180.7041 0.0
2663 5 9 0.2200 74.44000000000001 180.7041 0.0
2664 5 6 -0.3300 74.98 180.2141 -1.196
2665 5 4 0.5100 74.74100000000001 180.7871 -2.426
2666 5 5 -0.4300 74.00500000000001 181.8111 -2.552
2667 5 1 -0.1800 75.36200000000001 180.18910000000002 -3.63
2668 5 3 0.0600 72.506 180.81410000000002 -1.019
2669 5 3 0.0600 72.51 181.3701 0.748
2670 5 7 0.0300 74.84 180.11610000000002 0.851
2671 5 3 0.0600 74.73500000000001 180.24710000000002 -4.521
2672 5 3 0.0600 75.68100000000001 179.1431 -3.418
2673 5 3 0.0600 76.304 180.73010000000002 -3.859
2674 5 2 -0.1200 76.44 180.7041 0.0
2675 5 9 0.2200 77.94800000000001 180.7041 0.0
2676 5 6 -0.3300 78.488 179.5081 0.49
2677 5 4 0.5100 78.24900000000001 178.27810000000002 -0.083
2678 5 5 -0.4300 77.513 178.15210000000002 -1.107
2679 5 1 -0.1800 78.87 177.07410000000002 0.515
2680 5 3 0.0600 76.014 179.6851 -0.11
2681 5 3 0.0600 76.018 181.4521 -0.666
2682 5 7 0.0300 78.348 181.5551 0.588
2683 5 3 0.0600 78.24300000000001 176.18310000000002 0.457
2684 5 3 0.0600 79.18900000000001 177.2861 1.561
2685 5 3 0.0600 79.812 176.8451 -0.026
2686 5 2 -0.1200 79.948 180.7041 0.0
2687 5 9 0.2200 81.456 180.7041 0.0
2688 5 6 -0.3300 81.996 180.2141 -1.196
2689 5 4 0.5100 81.757 180.7871 -2.426
2690 5 5 -0.4300 81.021 181.8111 -2.552
2691 5 1 -0.1800 82.378 180.18910000000002 -3.63
2692 5 3 0.0600 79.52199999999999 180.81410000000002 -1.019
2693 5 3 0.0600 79.526 181.3701 0.748
2694 5 7 0.0300 81.856 180.11610000000002 0.851
2695 5 3 0.0600 81.751 180.24710000000002 -4.521
2696 5 3 0.0600 82.697 179.1431 -3.418
2697 5 3 0.0600 83.32 180.73010000000002 -3.859
2698 5 2 -0.1200 83.45599999999999 180.7041 0.0
2699 5 9 0.2200 84.964 180.7041 0.0
2700 5 6 -0.3300 85.50399999999999 179.5081 0.49
2701 5 4 0.5100 85.265 178.27810000000002 -0.083
2702 5 5 -0.4300 84.529 178.15210000000002 -1.107
2703 5 1 -0.1800 85.886 177.07410000000002 0.515
2704 5 3 0.0600 83.02999999999999 179.6851 -0.11
2705 5 3 0.0600 83.03399999999999 181.4521 -0.666
2706 5 7 0.0300 85.36399999999999 181.5551 0.588
2707 5 3 0.0600 85.259 176.18310000000002 0.457
2708 5 3 0.0600 86.205 177.2861 1.561
2709 5 3 0.0600 86.82799999999999 176.8451 -0.026
2710 5 2 -0.1200 86.964 180.7041 0.0
2711 5 9 0.2200 88.47200000000001 180.7041 0.0
2712 5 6 -0.3300 89.012 180.2141 -1.196
2713 5 4 0.5100 88.77300000000001 180.7871 -2.426
2714 5 5 -0.4300 88.037 181.8111 -2.552
2715 5 1 -0.1800 89.394 180.18910000000002 -3.63
2716 5 3 0.0600 86.538 180.81410000000002 -1.019
2717 5 3 0.0600 86.542 181.3701 0.748
2718 5 7 0.0300 88.872 180.11610000000002 0.851
2719 5 3 0.0600 88.76700000000001 180.24710000000002 -4.521
2720 5 3 0.0600 89.71300000000001 179.1431 -3.418
2721 5 3 0.0600 90.336 180.73010000000002 -3.859
2722 5 2 -0.1200 90.472 180.7041 0.0
2723 5 9 0.2200 91.98 180.7041 0.0
2724 5 6 -0.3300 92.52 179.5081 -0.49
2725 5 4 0.5100 92.281 178.27810000000002 0.083
2726 5 5 -0.4300 91.545 178.15210000000002 1.107
2727 5 1 -0.1800 92.902 177.07410000000002 -0.515
2728 5 3 0.0600 90.04599999999999 179.6851 0.11
2729 5 3 0.0600 90.05 181.4521 0.666
2730 5 7 0.0300 92.38 181.5551 -0.588
2731 5 3 0.0600 92.275 176.18310000000002 -0.457
2732 5 3 0.0600 93.221 177.2861 -1.561
2733 5 3 0.0600 93.844 176.8451 0.026
2734 5 2 -0.1200 93.97999999999999 180.7041 0.0
2735 5 9 0.2200 95.488 180.7041 0.0
2736 5 6 -0.3300 96.02799999999999 180.2141 -1.196
2737 5 4 0.5100 95.789 180.7871 -2.426
2738 5 5 -0.4300 95.053 181.8111 -2.552
2739 5 1 -0.1800 96.41 180.18910000000002 -3.63
2740 5 3 0.0600 93.55399999999999 180.81410000000002 -1.019
2741 5 3 0.0600 93.55799999999999 181.3701 0.748
2742 5 7 0.0300 95.88799999999999 180.11610000000002 0.851
2743 5 3 0.0600 95.783 180.24710000000002 -4.521
2744 5 3 0.0600 96.729 179.1431 -3.418
2745 5 3 0.0600 97.35199999999999 180.73010000000002 -3.859
2746 5 2 -0.1200 97.488 180.7041 0.0
2747 5 9 0.2200 98.99600000000001 180.7041 0.0
2748 5 6 -0.3300 99.536 179.5081 -0.49
2749 5 4 0.5100 99.29700000000001 178.27810000000002 0.083
2750 5 5 -0.4300 98.561 178.15210000000002 1.107
2751 5 1 -0.1800 99.918 177.07410000000002 -0.515
2752 5 3 0.0600 97.062 179.6851 0.11
2753 5 3 0.0600 97.066 181.4521 0.666
2754 5 7 0.0300 99.396 181.5551 -0.588
2755 5 3 0.0600 99.29100000000001 176.18310000000002 -0.457
2756 5 3 0.0600 100.23700000000001 177.2861 -1.561
2757 5 3 0.0600 100.86 176.8451 0.026
2758 5 2 -0.1200 100.996 180.7041 0.0
2759 5 9 0.2200 102.504 180.7041 0.0
2760 5 6 -0.3300 103.044 181.19410000000002 -1.196
2761 5 4 0.5100 102.805 180.6211 -2.426
2762 5 5 -0.4300 102.069 179.5971 -2.552
2763 5 1 -0.1800 103.426 181.2191 -3.63
2764 5 3 0.0600 100.57 180.5941 -1.019
2765 5 3 0.0600 100.574 180.03810000000001 0.748
2766 5 7 0.0300 102.904 181.2921 0.851
2767 5 3 0.0600 102.799 181.1611 -4.521
2768 5 3 0.0600 103.745 182.26510000000002 -3.418
2769 5 3 0.0600 104.368 180.6781 -3.859
2770 5 2 -0.1200 104.50399999999999 180.7041 0.0
2771 5 9 0.2200 106.012 180.7041 0.0
2772 5 6 -0.3300 106.55199999999999 179.5081 -0.49
2773 5 4 0.5100 106.313 178.27810000000002 0.083
2774 5 5 -0.4300 105.577 178.15210000000002 1.107
2775 5 1 -0.1800 106.934 177.07410000000002 -0.515
2776 5 3 0.0600 104.07799999999999 179.6851 0.11
2777 5 3 0.0600 104.082 181.4521 0.666
2778 5 7 0.0300 106.41199999999999 181.5551 -0.588
2779 5 3 0.0600 106.307 176.18310000000002 -0.457
2780 5 3 0.0600 107.253 177.2861 -1.561
2781 5 3 0.0600 107.87599999999999 176.8451 0.026
2782 5 2 -0.1200 108.012 180.7041 0.0
2783 5 9 0.2200 109.52000000000001 180.7041 0.0
2784 5 6 -0.3300 110.06 181.19410000000002 -1.196
2785 5 4 0.5100 109.82100000000001 180.6211 -2.426
2786 5 5 -0.4300 109.08500000000001 179.5971 -2.552
2787 5 1 -0.1800 110.44200000000001 181.2191 -3.63
2788 5 3 0.0600 107.586 180.5941 -1.019
2789 5 3 0.0600 107.59 180.03810000000001 0.748
2790 5 7 0.0300 109.92 181.2921 0.851
2791 5 3 0.0600 109.81500000000001 181.1611 -4.521
2792 5 3 0.0600 110.76100000000001 182.26510000000002 -3.418
2793 5 3 0.0600 111.384 180.6781 -3.859
2794 5 2 -0.1200 111.52 180.7041 0.0
2795 5 9 0.2200 113.028 180.7041 0.0
2796 5 6 -0.3300 113.568 179.5081 -0.49
2797 5 4 0.5100 113.32900000000001 178.27810000000002 0.083
2798 5 5 -0.4300 112.593 178.15210000000002 1.107
2799 5 1 -0.1800 113.95 177.07410000000002 -0.515
2800 5 3 0.0600 111.094 179.6851 0.11
2801 5 3 0.0600 111.098 181.4521 0.666
2802 5 7 0.0300 113.428 181.5551 -0.588
2803 5 3 0.0600 113.32300000000001 176.18310000000002 -0.457
2804 5 3 0.0600 114.269 177.2861 -1.561
2805 5 3 0.0600 114.892 176.8451 0.026
2806 5 2 -0.1200 115.02799999999999 180.7041 0.0
2807 5 9 0.2200 116.536 180.7041 0.0
2808 5 6 -0.3300 117.076 181.19410000000002 -1.196
2809 5 4 0.5100 116.837 180.6211 -2.426
2810 5 5 -0.4300 116.101 179.5971 -2.552
2811 5 1 -0.1800 117.458 181.2191 -3.63
2812 5 3 0.0600 114.60199999999999 180.5941 -1.019
2813 5 3 0.0600 114.606 180.03810000000001 0.748
2814 5 7 0.0300 116.93599999999999 181.2921 0.851
2815 5 3 0.0600 116.831 181.1611 -4.521
2816 5 3 0.0600 117.777 182.26510000000002 -3.418
2817 5 3 0.0600 118.39999999999999 180.6781 -3.859
2818 5 2 -0.1200 118.536 180.7041 0.0
2819 5 9 0.2200 120.04400000000001 180.7041 0.0
2820 5 6 -0.3300 120.584 179.5081 -0.49
2821 5 4 0.5100 120.34500000000001 178.27810000000002 0.083
2822 5 5 -0.4300 119.60900000000001 178.15210000000002 1.107
2823 5 1 -0.1800 120.96600000000001 177.07410000000002 -0.515
2824 5 3 0.0600 118.11 179.6851 0.11
2825 5 3 0.0600 118.114 181.4521 0.666
2826 5 7 0.0300 120.444 181.5551 -0.588
2827 5 3 0.0600 120.33900000000001 176.18310000000002 -0.457
2828 5 3 0.0600 121.28500000000001 177.2861 -1.561
2829 5 3 0.0600 121.908 176.8451 0.026
2830 5 2 -0.1200 122.044 180.7041 0.0
2831 5 9 0.2200 123.552 180.7041 0.0
2832 5 6 -0.3300 124.092 180.2141 -1.196
2833 5 4 0.5100 123.85300000000001 180.7871 -2.426
2834 5 5 -0.4300 123.117 181.8111 -2.552
2835 5 1 -0.1800 124.474 180.18910000000002 -3.63
2836 5 3 0.0600 121.618 180.81410000000002 -1.019
2837 5 3 0.0600 121.622 181.3701 0.748
2838 5 7 0.0300 123.952 180.11610000000002 0.851
2839 5 3 0.0600 123.84700000000001 180.24710000000002 -4.521
2840 5 3 0.0600 124.793 179.1431 -3.418
2841 5 3 0.0600 125.416 180.73010000000002 -3.859
2842 5 2 -0.1200 125.55199999999999 180.7041 0.0
2843 5 9 0.2200 127.06 180.7041 0.0
2844 5 6 -0.3300 127.6 179.5081 0.49
2845 5 4 0.5100 127.361 178.27810000000002 -0.083
2846 5 5 -0.4300 126.625 178.15210000000002 -1.107
2847 5 1 -0.1800 127.982 177.07410000000002 0.515
2848 5 3 0.0600 125.12599999999999 179.6851 -0.11
2849 5 3 0.0600 125.13 181.4521 -0.666
2850 5 7 0.0300 127.46 181.5551 0.588
2851 5 3 0.0600 127.355 176.18310000000002 0.457
2852 5 3 0.0600 128.301 177.2861 1.561
2853 5 3 0.0600 128.924 176.8451 -0.026
2854 5 2 -0.1200 129.06 180.7041 0.0
2855 5 9 0.2200 130.56799999999998 180.7041 0.0
2856 5 6 -0.3300 131.108 181.19410000000002 -1.196
2857 5 4 0.5100 130.869 180.6211 -2.426
2858 5 5 -0.4300 130.13299999999998 179.5971 -2.552
2859 5 1 -0.1800 131.48999999999998 181.2191 -3.63
2860 5 3 0.0600 128.634 180.5941 -1.019
2861 5 3 0.0600 128.638 180.03810000000001 0.748
2862 5 7 0.0300 130.968 181.2921 0.851
2863 5 3 0.0600 130.863 181.1611 -4.521
2864 5 3 0.0600 131.809 182.26510000000002 -3.418
2865 5 3 0.0600 132.432 180.6781 -3.859
2866 5 2 -0.1200 132.568 180.7041 0.0
2867 5 9 0.2200 134.076 180.7041 0.0
2868 5 6 -0.3300 134.616 179.5081 -0.49
2869 5 4 0.5100 134.377 178.27810000000002 0.083
2870 5 5 -0.4300 133.641 178.15210000000002 1.107
2871 5 1 -0.1800 134.998 177.07410000000002 -0.515
2872 5 3 0.0600 132.142 179.6851 0.11
2873 5 3 0.0600 132.14600000000002 181.4521 0.666
2874 5 7 0.0300 134.476 181.5551 -0.588
2875 5 3 0.0600 134.371 176.18310000000002 -0.457
2876 5 3 0.0600 135.317 177.2861 -1.561
2877 5 3 0.0600 135.94 176.8451 0.026
2878 5 2 -0.1200 136.07600000000002 180.7041 0.0
2879 5 9 0.2200 137.584 180.7041 0.0
2880 5 6 -0.3300 138.12400000000002 181.19410000000002 -1.196
2881 5 4 0.5100 137.88500000000002 180.6211 -2.426
2882 5 5 -0.4300 137.149 179.5971 -2.552
2883 5 1 -0.1800 138.506 181.2191 -3.63
2884 5 3 0.0600 135.65 180.5941 -1.019
2885 5 3 0.0600 135.65400000000002 180.03810000000001 0.748
2886 5 7 0.0300 137.984 181.2921 0.851
2887 5 3 0.0600 137.87900000000002 181.1611 -4.521
2888 5 3 0.0600 138.82500000000002 182.26510000000002 -3.418
2889 5 3 0.0600 139.448 180.6781 -3.859
2890 5 2 -0.1200 139.584 180.7041 0.0
2891 5 9 0.2200 141.09199999999998 180.7041 0.0
2892 5 6 -0.3300 141.632 179.5081 -0.49
2893 5 4 0.5100 141.393 178.27810000000002 0.083
2894 5 5 -0.4300 140.65699999999998 178.15210000000002 1.107
2895 5 1 -0.1800 142.01399999999998 177.07410000000002 -0.515
2896 5 3 0.0600 139.158 179.6851 0.11
2897 5 3 0.0600 139.162 181.4521 0.666
2898 5 7 0.0300 141.492 181.5551 -0.588
2899 5 3 0.0600 141.387 176.18310000000002 -0.457
2900 5 3 0.0600 142.333 177.2861 -1.561
2901 5 3 0.0600 142.956 176.8451 0.026
2902 5 2 -0.1200 143.092 180.7041 0.0
2903 5 9 0.2200 144.6 180.7041 0.0
2904 5 6 -0.3300 145.14000000000001 181.19410000000002 -1.196
2905 5 4 0.5100 144.901 180.6211 -2.426
2906 5 5 -0.4300 144.165 179.5971 -2.552
2907 5 1 -0.1800 145.522 181.2191 -3.63
2908 5 3 0.0600 142.666 180.5941 -1.019
2909 5 3 0.0600 142.67000000000002 180.03810000000001 0.748
2910 5 7 0.0300 145.0 181.2921 0.851
2911 5 3 0.0600 144.895 181.1611 -4.521
2912 5 3 0.0600 145.841 182.26510000000002 -3.418
2913 5 3 0.0600 146.464 180.6781 -3.859
2914 5 2 -0.1200 146.60000000000002 180.7041 0.0
2915 5 9 0.2200 148.108 180.7041 0.0
2916 5 6 -0.3300 148.64800000000002 179.5081 0.49
2917 5 4 0.5100 148.40900000000002 178.27810000000002 -0.083
2918 5 5 -0.4300 147.673 178.15210000000002 -1.107
2919 5 1 -0.1800 149.03 177.07410000000002 0.515
2920 5 3 0.0600 146.174 179.6851 -0.11
2921 5 3 0.0600 146.17800000000003 181.4521 -0.666
2922 5 7 0.0300 148.508 181.5551 0.588
2923 5 3 0.0600 148.40300000000002 176.18310000000002 0.457
2924 5 3 0.0600 149.34900000000002 177.2861 1.561
2925 5 3 0.0600 149.972 176.8451 -0.026
2926 5 2 -0.1200 150.108 180.7041 0.0
2927 5 9 0.2200 151.61599999999999 180.7041 0.0
2928 5 6 -0.3300 152.156 180.2141 -1.196
2929 5 4 0.5100 151.917 180.7871 -2.426
2930 5 5 -0.4300 151.18099999999998 181.8111 -2.552
2931 5 1 -0.1800 152.53799999999998 180.18910000000002 -3.63
2932 5 3 0.0600 149.682 180.81410000000002 -1.019
2933 5 3 0.0600 149.686 181.3701 0.748
2934 5 7 0.0300 152.016 180.11610000000002 0.851
2935 5 3 0.0600 151.911 180.24710000000002 -4.521
2936 5 3 0.0600 152.857 179.1431 -3.418
2937 5 3 0.0600 153.48 180.73010000000002 -3.859
2938 5 2 -0.1200 153.616 180.7041 0.0
2939 5 9 0.2200 155.124 180.7041 0.0
2940 5 6 -0.3300 155.66400000000002 179.5081 -0.49
2941 5 4 0.5100 155.425 178.27810000000002 0.083
2942 5 5 -0.4300 154.689 178.15210000000002 1.107
2943 5 1 -0.1800 156.046 177.07410000000002 -0.515
2944 5 3 0.0600 153.19 179.6851 0.11
2945 5 3 0.0600 153.19400000000002 181.4521 0.666
2946 5 7 0.0300 155.524 181.5551 -0.588
2947 5 3 0.0600 155.419 176.18310000000002 -0.457
2948 5 3 0.0600 156.365 177.2861 -1.561
2949 5 3 0.0600 156.988 176.8451 0.026
2950 5 2 -0.1200 157.124 180.7041 0.0
2951 5 9 0.2200 158.63199999999998 180.7041 0.0
2952 5 6 -0.3300 159.172 181.19410000000002 -1.196
2953 5 4 0.5100 158.933 180.6211 -2.426
2954 5 5 -0.4300 158.19699999999997 179.5971 -2.552
2955 5 1 -0.1800 159.55399999999997 181.2191 -3.63
2956 5 3 0.0600 156.69799999999998 180.5941 -1.019
2957 5 3 0.0600 156.702 180.03810000000001 0.748
2958 5 7 0.0300 159.03199999999998 181.2921 0.851
2959 5 3 0.0600 158.927 181.1611 -4.521
2960 5 3 0.0600 159.873 182.26510000000002 -3.418
2961 5 3 0.0600 160.49599999999998 180.6781 -3.859
2962 5 2 -0.1200 160.632 180.7041 0.0
2963 5 9 0.2200 162.14 180.7041 0.0
2964 5 6 -0.3300 162.68 179.5081 0.49
2965 5 4 0.5100 162.441 178.27810000000002 -0.083
2966 5 5 -0.4300 161.70499999999998 178.15210000000002 -1.107
2967 5 1 -0.1800 163.06199999999998 177.07410000000002 0.515
2968 5 3 0.0600 160.206 179.6851 -0.11
2969 5 3 0.0600 160.21 181.4521 -0.666
2970 5 7 0.0300 162.54 181.5551 0.588
2971 5 3 0.0600 162.435 176.18310000000002 0.457
2972 5 3 0.0600 163.381 177.2861 1.561
2973 5 3 0.0600 164.004 176.8451 -0.026
2974 5 2 -0.1200 164.14000000000001 180.7041 0.0
2975 5 9 0.2200 165.648 180.7041 0.0
2976 5 6 -0.3300 166.18800000000002 180.2141 -1.196
2977 5 4 0.5100 165.949 180.7871 -2.426
2978 5 5 -0.4300 165.213 181.8111 -2.552
2979 5 1 -0.1800 166.57 180.18910000000002 -3.63
2980 5 3 0.0600 163.714 180.81410000000002 -1.019
2981 5 3 0.0600 163.71800000000002 181.3701 0.748
2982 5 7 0.0300 166.048 180.11610000000002 0.851
2983 5 3 0.0600 165.943 180.24710000000002 -4.521
2984 5 3 0.0600 166.889 179.1431 -3.418
2985 5 3 0.0600 167.512 180.73010000000002 -3.859
2986 5 2 -0.1200 167.648 180.7041 0.0
2987 5 9 0.2200 169.15599999999998 180.7041 0.0
2988 5 6 -0.3300 169.696 179.5081 0.49
2989 5 4 0.5100 169.457 178.27810000000002 -0.083
2990 5 5 -0.4300 168.72099999999998 178.15210000000002 -1.107
2991 5 1 -0.1800 170.07799999999997 177.07410000000002 0.515
2992 5 3 0.0600 167.22199999999998 179.6851 -0.11
2993 5 3 0.0600 167.226 181.4521 -0.666
2994 5 7 0.0300 169.55599999999998 181.5551 0.588
2995 5 3 0.0600 169.451 176.18310000000002 0.457
2996 5 3 0.0600 170.397 177.2861 1.561
2997 5 3 0.0600 171.01999999999998 176.8451 -0.026
2998 5 2 -0.1200 169.43 180.7041 0.0
2999 5 8 0.1900 170.003 181.1911 1.269
3000 5 6 -0.3300 171.335 181.6011 1.192
3001 5 4 0.5100 172.383 180.7681 0.807
3002 5 5 -0.4300 172.147 179.5611 0.5040000000000001
3003 5 1 -0.1800 173.79 181.2811 0.748
3004 5 3 0.0600 169.243 179.6551 -0.11599999999999994
3005 5 3 0.0600 169.179 181.41310000000001 -0.759
3006 5 7 0.0300 169.404 182.08110000000002 1.587
3007 5 7 0.0300 169.864 180.4471 2.079
3008 5 3 0.0600 174.263 181.2571 1.738
3009 5 3 0.0600 173.767 182.3561 0.4329999999999999
3010 5 3 0.0600 174.39 180.7041 0.0
3011 6 1 -0.1800 179.9411 180.7041 0.0
3012 6 9 0.2200 181.46710000000002 180.7041 0.0
3013 6 6 -0.3300 181.9101 180.21110000000002 1.254
3014 6 4 0.5100 183.2991 180.1431 1.426
3015 6 5 -0.4300 184.0891 180.5001 0.517
3016 6 1 -0.1800 183.8771 179.64010000000002 2.705
3017 6 3 0.0600 179.57510000000002 179.68110000000001 0.168
3018 6 3 0.0600 179.5651 181.07610000000003 -0.973
3019 6 3 0.0600 179.6311 181.35410000000002 0.832
3020 6 7 0.0300 181.8771 181.7041 -0.146
3021 6 3 0.0600 183.06910000000002 179.2521 3.336
3022 6 3 0.0600 184.4951 180.42010000000002 3.204
3023 6 3 0.0600 184.5911 178.8291 2.397
3024 6 2 -0.1200 183.47610000000003 180.7041 0.0
3025 6 9 0.2200 184.9841 180.7041 0.0
3026 6 6 -0.3300 185.52410000000003 181.19410000000002 -1.196
3027 6 4 0.5100 185.28510000000003 180.6211 -2.426
3028 6 5 -0.4300 184.5491 179.5971 -2.552
3029 6 1 -0.1800 185.9061 181.2191 -3.63
3030 6 3 0.0600 183.05010000000001 180.5941 -1.019
3031 6 3 0.0600 183.05410000000003 180.03810000000001 0.748
3032 6 7 0.0300 185.38410000000002 181.2921 0.851
3033 6 3 0.0600 185.27910000000003 181.1611 -4.521
3034 6 3 0.0600 186.22510000000003 182.26510000000002 -3.418
3035 6 3 0.0600 186.84810000000002 180.6781 -3.859
3036 6 2 -0.1200 186.9841 180.7041 0.0
3037 6 9 0.2200 188.4921 180.7041 0.0
3038 6 6 -0.3300 189.0321 179.5081 -0.49
3039 6 4 0.5100 188.7931 178.27810000000002 0.083
3040 6 5 -0.4300 188.0571 178.15210000000002 1.107
3041 6 1 -0.1800 189.4141 177.07410000000002 -0.515
3042 6 3 0.0600 186.5581 179.6851 0.11
3043 6 3 0.0600 186.56210000000002 181.4521 0.666
3044 6 7 0.0300 188.8921 181.5551 -0.588
3045 6 3 0.0600 188.7871 176.18310000000002 -0.457
3046 6 3 0.0600 189.7331 177.2861 -1.561
3047 6 3 0.0600 190.3561 176.8451 0.026
3048 6 2 -0.1200 190.49210000000002 180.7041 0.0
3049 6 9 0.2200 192.0001 180.7041 0.0
3050 6 6 -0.3300 192.54010000000002 181.19410000000002 -1.196
3051 6 4 0.5100 192.30110000000002 180.6211 -2.426
3052 6 5 -0.4300 191.5651 179.5971 -2.552
3053 6 1 -0.1800 192.9221 181.2191 -3.63
3054 6 3 0.0600 190.0661 180.5941 -1.019
3055 6 3 0.0600 190.07010000000002 180.03810000000001 0.748
3056 6 7 0.0300 192.4001 181.2921 0.851
3057 6 3 0.0600 192.29510000000002 181.1611 -4.521
3058 6 3 0.0600 193.24110000000002 182.26510000000002 -3.418
3059 6 3 0.0600 193.8641 180.6781 -3.859
3060 6 2 -0.1200 194.00010000000003 180.7041 0.0
3061 6 9 0.2200 195.5081 180.7041 0.0
3062 6 6 -0.3300 196.04810000000003 179.5081 0.49
3063 6 4 0.5100 195.80910000000003 178.27810000000002 -0.083
3064 6 5 -0.4300 195.0731 178.15210000000002 -1.107
3065 6 1 -0.1800 196.4301 177.07410000000002 0.515
3066 6 3 0.0600 193.57410000000002 179.6851 -0.11
3067 6 3 0.0600 193.57810000000003 181.4521 -0.666
3068 6 7 0.0300 195.90810000000002 181.5551 0.588
3069 6 3 0.0600 195.80310000000003 176.18310000000002 0.457
3070 6 3 0.0600 196.74910000000003 177.2861 1.561
3071 6 3 0.0600 197.37210000000002 176.8451 -0.026
3072 6 2 -0.1200 197.5081 180.7041 0.0
3073 6 9 0.2200 199.0161 180.7041 0.0
3074 6 6 -0.3300 199.55610000000001 180.2141 -1.196
3075 6 4 0.5100 199.3171 180.7871 -2.426
3076 6 5 -0.4300 198.5811 181.8111 -2.552
3077 6 1 -0.1800 199.9381 180.18910000000002 -3.63
3078 6 3 0.0600 197.0821 180.81410000000002 -1.019
3079 6 3 0.0600 197.08610000000002 181.3701 0.748
3080 6 7 0.0300 199.4161 180.11610000000002 0.851
3081 6 3 0.0600 199.3111 180.24710000000002 -4.521
3082 6 3 0.0600 200.2571 179.1431 -3.418
3083 6 3 0.0600 200.8801 180.73010000000002 -3.859
3084 6 2 -0.1200 201.01610000000002 180.7041 0.0
3085 6 9 0.2200 202.5241 180.7041 0.0
3086 6 6 -0.3300 203.06410000000002 179.5081 0.49
3087 6 4 0.5100 202.82510000000002 178.27810000000002 -0.083
3088 6 5 -0.4300 202.0891 178.15210000000002 -1.107
3089 6 1 -0.1800 203.4461 177.07410000000002 0.515
3090 6 3 0.0600 200.5901 179.6851 -0.11
3091 6 3 0.0600 200.59410000000003 181.4521 -0.666
3092 6 7 0.0300 202.9241 181.5551 0.588
3093 6 3 0.0600 202.81910000000002 176.18310000000002 0.457
3094 6 3 0.0600 203.76510000000002 177.2861 1.561
3095 6 3 0.0600 204.3881 176.8451 -0.026
3096 6 2 -0.1200 204.52410000000003 180.7041 0.0
3097 6 9 0.2200 206.0321 180.7041 0.0
3098 6 6 -0.3300 206.57210000000003 181.19410000000002 -1.196
3099 6 4 0.5100 206.33310000000003 180.6211 -2.426
3100 6 5 -0.4300 205.5971 179.5971 -2.552
3101 6 1 -0.1800 206.9541 181.2191 -3.63
3102 6 3 0.0600 204.09810000000002 180.5941 -1.019
3103 6 3 0.0600 204.10210000000004 180.03810000000001 0.748
3104 6 7 0.0300 206.43210000000002 181.2921 0.851
3105 6 3 0.0600 206.32710000000003 181.1611 -4.521
3106 6 3 0.0600 207.27310000000003 182.26510000000002 -3.418
3107 6 3 0.0600 207.89610000000002 180.6781 -3.859
3108 6 2 -0.1200 208.0321 180.7041 0.0
3109 6 9 0.2200 209.5401 180.7041 0.0
3110 6 6 -0.3300 210.08010000000002 179.5081 0.49
3111 6 4 0.5100 209.8411 178.27810000000002 -0.083
3112 6 5 -0.4300 209.1051 178.15210000000002 -1.107
3113 6 1 -0.1800 210.4621 177.07410000000002 0.515
3114 6 3 0.0600 207.6061 179.6851 -0.11
3115 6 3 0.0600 207.61010000000002 181.4521 -0.666
3116 6 7 0.0300 209.9401 181.5551 0.588
3117 6 3 0.0600 209.8351 176.18310000000002 0.457
3118 6 3 0.0600 210.7811 177.2861 1.561
3119 6 3 0.0600 211.4041 176.8451 -0.026
3120 6 2 -0.1200 211.54010000000002 180.7041 0.0
3121 6 9 0.2200 213.0481 180.7041 0.0
3122 6 6 -0.3300 213.58810000000003 180.2141 -1.196
3123 6 4 0.5100 213.34910000000002 180.7871 -2.426
3124 6 5 -0.4300 212.6131 181.8111 -2.552
3125 6 1 -0.1800 213.9701 180.18910000000002 -3.63
3126 6 3 0.0600 211.1141 180.81410000000002 -1.019
3127 6 3 0.0600 211.11810000000003 181.3701 0.748
3128 6 7 0.0300 213.4481 180.11610000000002 0.851
3129 6 3 0.0600 213.34310000000002 180.24710000000002 -4.521
3130 6 3 0.0600 214.28910000000002 179.1431 -3.418
3131 6 3 0.0600 214.9121 180.73010000000002 -3.859
3132 6 2 -0.1200 215.0481 180.7041 0.0
3133 6 9 0.2200 216.5561 180.7041 0.0
3134 6 6 -0.3300 217.0961 179.5081 0.49
3135 6 4 0.5100 216.8571 178.27810000000002 -0.083
3136 6 5 -0.4300 216.12109999999998 178.15210000000002 -1.107
3137 6 1 -0.1800 217.47809999999998 177.07410000000002 0.515
3138 6 3 0.0600 214.6221 179.6851 -0.11
3139 6 3 0.0600 214.6261 181.4521 -0.666
3140 6 7 0.0300 216.9561 181.5551 0.588
3141 6 3 0.0600 216.8511 176.18310000000002 0.457
3142 6 3 0.0600 217.7971 177.2861 1.561
3143 6 3 0.0600 218.4201 176.8451 -0.026
3144 6 2 -0.1200 218.55610000000001 180.7041 0.0
3145 6 9 0.2200 220.0641 180.7041 0.0
3146 6 6 -0.3300 220.60410000000002 180.2141 -1.196
3147 6 4 0.5100 220.3651 180.7871 -2.426
3148 6 5 -0.4300 219.6291 181.8111 -2.552
3149 6 1 -0.1800 220.9861 180.18910000000002 -3.63
3150 6 3 0.0600 218.1301 180.81410000000002 -1.019
3151 6 3 0.0600 218.13410000000002 181.3701 0.748
3152 6 7 0.0300 220.4641 180.11610000000002 0.851
3153 6 3 0.0600 220.3591 180.24710000000002 -4.521
3154 6 3 0.0600 221.3051 179.1431 -3.418
3155 6 3 0.0600 221.9281 180.73010000000002 -3.859
3156 6 2 -0.1200 222.06410000000002 180.7041 0.0
3157 6 9 0.2200 223.5721 180.7041 0.0
3158 6 6 -0.3300 224.11210000000003 179.5081 -0.49
3159 6 4 0.5100 223.87310000000002 178.27810000000002 0.083
3160 6 5 -0.4300 223.1371 178.15210000000002 1.107
3161 6 1 -0.1800 224.4941 177.07410000000002 -0.515
3162 6 3 0.0600 221.6381 179.6851 0.11
3163 6 3 0.0600 221.64210000000003 181.4521 0.666
3164 6 7 0.0300 223.9721 181.5551 -0.588
3165 6 3 0.0600 223.86710000000002 176.18310000000002 -0.457
3166 6 3 0.0600 224.81310000000002 177.2861 -1.561
3167 6 3 0.0600 225.4361 176.8451 0.026
3168 6 2 -0.1200 225.5721 180.7041 0.0
3169 6 9 0.2200 227.0801 180.7041 0.0
3170 6 6 -0.3300 227.6201 181.19410000000002 -1.196
3171 6 4 0.5100 227.3811 180.6211 -2.426
3172 6 5 -0.4300 226.64509999999999 179.5971 -2.552
3173 6 1 -0.1800 228.00209999999998 181.2191 -3.63
3174 6 3 0.0600 225.1461 180.5941 -1.019
3175 6 3 0.0600 225.1501 180.03810000000001 0.748
3176 6 7 0.0300 227.4801 181.2921 0.851
3177 6 3 0.0600 227.3751 181.1611 -4.521
3178 6 3 0.0600 228.3211 182.26510000000002 -3.418
3179 6 3 0.0600 228.9441 180.6781 -3.859
3180 6 2 -0.1200 229.08010000000002 180.7041 0.0
3181 6 9 0.2200 230.5881 180.7041 0.0
3182 6 6 -0.3300 231.12810000000002 179.5081 -0.49
3183 6 4 0.5100 230.8891 178.27810000000002 0.083
3184 6 5 -0.4300 230.1531 178.15210000000002 1.107
3185 6 1 -0.1800 231.5101 177.07410000000002 -0.515
3186 6 3 0.0600 228.6541 179.6851 0.11
3187 6 3 0.0600 228.65810000000002 181.4521 0.666
3188 6 7 0.0300 230.9881 181.5551 -0.588
3189 6 3 0.0600 230.8831 176.18310000000002 -0.457
3190 6 3 0.0600 231.8291 177.2861 -1.561
3191 6 3 0.0600 232.4521 176.8451 0.026
3192 6 2 -0.1200 232.58810000000003 180.7041 0.0
3193 6 9 0.2200 234.0961 180.7041 0.0
3194 6 6 -0.3300 234.63610000000003 181.19410000000002 -1.196
3195 6 4 0.5100 234.39710000000002 180.6211 -2.426
3196 6 5 -0.4300 233.6611 179.5971 -2.552
3197 6 1 -0.1800 235.0181 181.2191 -3.63
3198 6 3 0.0600 232.1621 180.5941 -1.019
3199 6 3 0.0600 232.16610000000003 180.03810000000001 0.748
3200 6 7 0.0300 234.4961 181.2921 0.851
3201 6 3 0.0600 234.39110000000002 181.1611 -4.521
3202 6 3 0.0600 235.33710000000002 182.26510000000002 -3.418
3203 6 3 0.0600 235.9601 180.6781 -3.859
3204 6 2 -0.1200 236.0961 180.7041 0.0
3205 6 9 0.2200 237.6041 180.7041 0.0
3206 6 6 -0.3300 238.1441 179.5081 -0.49
3207 6 4 0.5100 237.9051 178.27810000000002 0.083
3208 6 5 -0.4300 237.1691 178.15210000000002 1.107
3209 6 1 -0.1800 238.52609999999999 177.07410000000002 -0.515
3210 6 3 0.0600 235.6701 179.6851 0.11
3211 6 3 0.0600 235.6741 181.4521 0.666
3212 6 7 0.0300 238.0041 181.5551 -0.588
3213 6 3 0.0600 237.8991 176.18310000000002 -0.457
3214 6 3 0.0600 238.8451 177.2861 -1.561
3215 6 3 0.0600 239.4681 176.8451 0.026
3216 6 2 -0.1200 239.60410000000002 180.7041 0.0
3217 6 9 0.2200 241.1121 180.7041 0.0
3218 6 6 -0.3300 241.65210000000002 180.2141 -1.196
3219 6 4 0.5100 241.41310000000001 180.7871 -2.426
3220 6 5 -0.4300 240.6771 181.8111 -2.552
3221 6 1 -0.1800 242.0341 180.18910000000002 -3.63
3222 6 3 0.0600 239.1781 180.81410000000002 -1.019
3223 6 3 0.0600 239.18210000000002 181.3701 0.748
3224 6 7 0.0300 241.5121 180.11610000000002 0.851
3225 6 3 0.0600 241.4071 180.24710000000002 -4.521
3226 6 3 0.0600 242.3531 179.1431 -3.418
3227 6 3 0.0600 242.9761 180.73010000000002 -3.859
3228 6 2 -0.1200 243.11210000000003 180.7041 0.0
3229 6 9 0.2200 244.6201 180.7041 0.0
3230 6 6 -0.3300 245.16010000000003 179.5081 0.49
3231 6 4 0.5100 244.92110000000002 178.27810000000002 -0.083
3232 6 5 -0.4300 244.1851 178.15210000000002 -1.107
3233 6 1 -0.1800 245.5421 177.07410000000002 0.515
3234 6 3 0.0600 242.6861 179.6851 -0.11
3235 6 3 0.0600 242.69010000000003 181.4521 -0.666
3236 6 7 0.0300 245.0201 181.5551 0.588
3237 6 3 0.0600 244.91510000000002 176.18310000000002 0.457
3238 6 3 0.0600 245.86110000000002 177.2861 1.561
3239 6 3 0.0600 246.4841 176.8451 -0.026
3240 6 2 -0.1200 246.6201 180.7041 0.0
3241 6 9 0.2200 248.1281 180.7041 0.0
3242 6 6 -0.3300 248.6681 181.19410000000002 -1.196
3243 6 4 0.5100 248.4291 180.6211 -2.426
3244 6 5 -0.4300 247.6931 179.5971 -2.552
3245 6 1 -0.1800 249.0501 181.2191 -3.63
3246 6 3 0.0600 246.1941 180.5941 -1.019
3247 6 3 0.0600 246.1981 180.03810000000001 0.748
3248 6 7 0.0300 248.5281 181.2921 0.851
3249 6 3 0.0600 248.4231 181.1611 -4.521
3250 6 3 0.0600 249.3691 182.26510000000002 -3.418
3251 6 3 0.0600 249.9921 180.6781 -3.859
3252 6 2 -0.1200 250.12810000000002 180.7041 0.0
3253 6 9 0.2200 251.6361 180.7041 0.0
3254 6 6 -0.3300 252.17610000000002 179.5081 -0.49
3255 6 4 0.5100 251.93710000000002 178.27810000000002 0.083
3256 6 5 -0.4300 251.2011 178.15210000000002 1.107
3257 6 1 -0.1800 252.5581 177.07410000000002 -0.515
3258 6 3 0.0600 249.7021 179.6851 0.11
3259 6 3 0.0600 249.70610000000002 181.4521 0.666
3260 6 7 0.0300 252.0361 181.5551 -0.588
3261 6 3 0.0600 251.93110000000001 176.18310000000002 -0.457
3262 6 3 0.0600 252.8771 177.2861 -1.561
3263 6 3 0.0600 253.5001 176.8451 0.026
3264 6 2 -0.1200 253.63610000000003 180.7041 0.0
3265 6 9 0.2200 255.1441 180.7041 0.0
3266 6 6 -0.3300 255.68410000000003 181.19410000000002 -1.196
3267 6 4 0.5100 255.44510000000002 180.6211 -2.426
3268 6 5 -0.4300 254.7091 179.5971 -2.552
3269 6 1 -0.1800 256.0661 181.2191 -3.63
3270 6 3 0.0600 253.2101 180.5941 -1.019
3271 6 3 0.0600 253.21410000000003 180.03810000000001 0.748
3272 6 7 0.0300 255.54410000000001 181.2921 0.851
3273 6 3 0.0600 255.43910000000002 181.1611 -4.521
3274 6 3 0.0600 256.3851 182.26510000000002 -3.418
3275 6 3 0.0600 257.0081 180.6781 -3.859
3276 6 2 -0.1200 257.1441 180.7041 0.0
3277 6 9 0.2200 258.6521 180.7041 0.0
3278 6 6 -0.3300 259.1921 179.5081 -0.49
3279 6 4 0.5100 258.9531 178.27810000000002 0.083
3280 6 5 -0.4300 258.2171 178.15210000000002 1.107
3281 6 1 -0.1800 259.5741 177.07410000000002 -0.515
3282 6 3 0.0600 256.7181 179.6851 0.11
3283 6 3 0.0600 256.7221 181.4521 0.666
3284 6 7 0.0300 259.0521 181.5551 -0.588
3285 6 3 0.0600 258.9471 176.18310000000002 -0.457
3286 6 3 0.0600 259.8931 177.2861 -1.561
3287 6 3 0.0600 260.5161 176.8451 0.026
3288 6 2 -0.1200 260.6521 180.7041 0.0
3289 6 9 0.2200 262.16010000000006 180.7041 0.0
3290 6 6 -0.3300 262.7001 180.2141 -1.196
3291 6 4 0.5100 262.46110000000004 180.7871 -2.426
3292 6 5 -0.4300 261.72510000000005 181.8111 -2.552
3293 6 1 -0.1800 263.0821 180.18910000000002 -3.63
3294 6 3 0.0600 260.22610000000003 180.81410000000002 -1.019
3295 6 3 0.0600 260.23010000000005 181.3701 0.748
3296 6 7 0.0300 262.56010000000003 180.11610000000002 0.851
3297 6 3 0.0600 262.4551 180.24710000000002 -4.521
3298 6 3 0.0600 263.40110000000004 179.1431 -3.418
3299 6 3 0.0600 264.02410000000003 180.73010000000002 -3.859
3300 6 2 -0.1200 264.1601 180.7041 0.0
3301 6 9 0.2200 265.66810000000004 180.7041 0.0
3302 6 6 -0.3300 266.2081 179.5081 0.49
3303 6 4 0.5100 265.9691 178.27810000000002 -0.083
3304 6 5 -0.4300 265.23310000000004 178.15210000000002 -1.107
3305 6 1 -0.1800 266.5901 177.07410000000002 0.515
3306 6 3 0.0600 263.7341 179.6851 -0.11
3307 6 3 0.0600 263.73810000000003 181.4521 -0.666
3308 6 7 0.0300 266.0681 181.5551 0.588
3309 6 3 0.0600 265.9631 176.18310000000002 0.457
3310 6 3 0.0600 266.9091 177.2861 1.561
3311 6 3 0.0600 267.5321 176.8451 -0.026
3312 6 2 -0.1200 267.6681 180.7041 0.0
3313 6 9 0.2200 269.1761 180.7041 0.0
3314 6 6 -0.3300 269.7161 180.2141 -1.196
3315 6 4 0.5100 269.4771 180.7871 -2.426
3316 6 5 -0.4300 268.7411 181.8111 -2.552
3317 6 1 -0.1800 270.0981 180.18910000000002 -3.63
3318 6 3 0.0600 267.2421 180.81410000000002 -1.019
3319 6 3 0.0600 267.2461 181.3701 0.748
3320 6 7 0.0300 269.5761 180.11610000000002 0.851
3321 6 3 0.0600 269.4711 180.24710000000002 -4.521
3322 6 3 0.0600 270.4171 179.1431 -3.418
3323 6 3 0.0600 271.0401 180.73010000000002 -3.859
3324 6 2 -0.1200 271.1761 180.7041 0.0
3325 6 9 0.2200 272.68410000000006 180.7041 0.0
3326 6 6 -0.3300 273.2241 179.5081 -0.49
3327 6 4 0.5100 272.98510000000005 178.27810000000002 0.083
3328 6 5 -0.4300 272.24910000000006 178.15210000000002 1.107
3329 6 1 -0.1800 273.6061 177.07410000000002 -0.515
3330 6 3 0.0600 270.75010000000003 179.6851 0.11
3331 6 3 0.0600 270.75410000000005 181.4521 0.666
3332 6 7 0.0300 273.08410000000003 181.5551 -0.588
3333 6 3 0.0600 272.9791 176.18310000000002 -0.457
3334 6 3 0.0600 273.92510000000004 177.2861 -1.561
3335 6 3 0.0600 274.54810000000003 176.8451 0.026
3336 6 2 -0.1200 274.6841 180.7041 0.0
3337 6 9 0.2200 276.19210000000004 180.7041 0.0
3338 6 6 -0.3300 276.7321 180.2141 -1.196
3339 6 4 0.5100 276.4931 180.7871 -2.426
3340 6 5 -0.4300 275.75710000000004 181.8111 -2.552
3341 6 1 -0.1800 277.1141 180.18910000000002 -3.63
3342 6 3 0.0600 274.2581 180.81410000000002 -1.019
3343 6 3 0.0600 274.26210000000003 181.3701 0.748
3344 6 7 0.0300 276.5921 180.11610000000002 0.851
3345 6 3 0.0600 276.4871 180.24710000000002 -4.521
3346 6 3 0.0600 277.4331 179.1431 -3.418
3347 6 3 0.0600 278.0561 180.73010000000002 -3.859
3348 6 2 -0.1200 278.1921 180.7041 0.0
3349 6 9 0.2200 279.7001 180.7041 0.0
3350 6 6 -0.3300 280.2401 179.5081 -0.49
3351 6 4 0.5100 280.0011 178.27810000000002 0.083
3352 6 5 -0.4300 279.2651 178.15210000000002 1.107
3353 6 1 -0.1800 280.6221 177.07410000000002 -0.515
3354 6 3 0.0600 277.7661 179.6851 0.11
3355 6 3 0.0600 277.7701 181.4521 0.666
3356 6 7 0.0300 280.1001 181.5551 -0.588
3357 6 3 0.0600 279.9951 176.18310000000002 -0.457
3358 6 3 0.0600 280.9411 177.2861 -1.561
3359 6 3 0.0600 281.5641 176.8451 0.026
3360 6 2 -0.1200 281.7001 180.7041 0.0
3361 6 9 0.2200 283.20810000000006 180.7041 0.0
3362 6 6 -0.3300 283.7481 181.19410000000002 -1.196
3363 6 4 0.5100 283.50910000000005 180.6211 -2.426
3364 6 5 -0.4300 282.77310000000006 179.5971 -2.552
3365 6 1 -0.1800 284.1301 181.2191 -3.63
3366 6 3 0.0600 281.27410000000003 180.5941 -1.019
3367 6 3 0.0600 281.27810000000005 180.03810000000001 0.748
3368 6 7 0.0300 283.60810000000004 181.2921 0.851
3369 6 3 0.0600 283.5031 181.1611 -4.521
3370 6 3 0.0600 284.44910000000004 182.26510000000002 -3.418
3371 6 3 0.0600 285.07210000000003 180.6781 -3.859
3372 6 2 -0.1200 285.2081 180.7041 0.0
3373 6 9 0.2200 286.71610000000004 180.7041 0.0
3374 6 6 -0.3300 287.2561 179.5081 -0.49
3375 6 4 0.5100 287.0171 178.27810000000002 0.083
3376 6 5 -0.4300 286.28110000000004 178.15210000000002 1.107
3377 6 1 -0.1800 287.6381 177.07410000000002 -0.515
3378 6 3 0.0600 284.7821 179.6851 0.11
3379 6 3 0.0600 284.78610000000003 181.4521 0.666
3380 6 7 0.0300 287.1161 181.5551 -0.588
3381 6 3 0.0600 287.0111 176.18310000000002 -0.457
3382 6 3 0.0600 287.9571 177.2861 -1.561
3383 6 3 0.0600 288.5801 176.8451 0.026
3384 6 2 -0.1200 288.7161 180.7041 0.0
3385 6 9 0.2200 290.2241 180.7041 0.0
3386 6 6 -0.3300 290.7641 180.2141 -1.196
3387 6 4 0.5100 290.5251 180.7871 -2.426
3388 6 5 -0.4300 289.7891 181.8111 -2.552
3389 6 1 -0.1800 291.1461 180.18910000000002 -3.63
3390 6 3 0.0600 288.2901 180.81410000000002 -1.019
3391 6 3 0.0600 288.2941 181.3701 0.748
3392 6 7 0.0300 290.6241 180.11610000000002 0.851
3393 6 3 0.0600 290.5191 180.24710000000002 -4.521
3394 6 3 0.0600 291.4651 179.1431 -3.418
3395 6 3 0.0600 292.0881 180.73010000000002 -3.859
3396 6 2 -0.1200 292.2241 180.7041 0.0
3397 6 9 0.2200 293.73210000000006 180.7041 0.0
3398 6 6 -0.3300 294.2721 179.5081 -0.49
3399 6 4 0.5100 294.03310000000005 178.27810000000002 0.083
3400 6 5 -0.4300 293.29710000000006 178.15210000000002 1.107
3401 6 1 -0.1800 294.6541 177.07410000000002 -0.515
3402 6 3 0.0600 291.79810000000003 179.6851 0.11
3403 6 3 0.0600 291.80210000000005 181.4521 0.666
3404 6 7 0.0300 294.13210000000004 181.5551 -0.588
3405 6 3 0.0600 294.0271 176.18310000000002 -0.457
3406 6 3 0.0600 294.97310000000004 177.2861 -1.561
3407 6 3 0.0600 295.59610000000004 176.8451 0.026
3408 6 2 -0.1200 295.7321 180.7041 0.0
3409 6 9 0.2200 297.24010000000004 180.7041 0.0
3410 6 6 -0.3300 297.7801 180.2141 -1.196
3411 6 4 0.5100 297.54110000000003 180.7871 -2.426
3412 6 5 -0.4300 296.80510000000004 181.8111 -2.552
3413 6 1 -0.1800 298.1621 180.18910000000002 -3.63
3414 6 3 0.0600 295.3061 180.81410000000002 -1.019
3415 6 3 0.0600 295.31010000000003 181.3701 0.748
3416 6 7 0.0300 297.6401 180.11610000000002 0.851
3417 6 3 0.0600 297.5351 180.24710000000002 -4.521
3418 6 3 0.0600 298.4811 179.1431 -3.418
3419 6 3 0.0600 299.1041 180.73010000000002 -3.859
3420 6 2 -0.1200 299.2401 180.7041 0.0
3421 6 9 0.2200 300.7481 180.7041 0.0
3422 6 6 -0.3300 301.2881 179.5081 -0.49
3423 6 4 0.5100 301.0491 178.27810000000002 0.083
3424 6 5 -0.4300 300.3131 178.15210000000002 1.107
3425 6 1 -0.1800 301.6701 177.07410000000002 -0.515
3426 6 3 0.0600 298.8141 179.6851 0.11
3427 6 3 0.0600 298.8181 181.4521 0.666
3428 6 7 0.0300 301.1481 181.5551 -0.588
3429 6 3 0.0600 301.0431 176.18310000000002 -0.457
3430 6 3 0.0600 301.9891 177.2861 -1.561
3431 6 3 0.0600 302.6121 176.8451 0.026
3432 6 2 -0.1200 302.7481 180.7041 0.0
3433 6 9 0.2200 304.25610000000006 180.7041 0.0
3434 6 6 -0.3300 304.7961 181.19410000000002 -1.196
3435 6 4 0.5100 304.55710000000005 180.6211 -2.426
3436 6 5 -0.4300 303.82110000000006 179.5971 -2.552
3437 6 1 -0.1800 305.17810000000003 181.2191 -3.63
3438 6 3 0.0600 302.32210000000003 180.5941 -1.019
3439 6 3 0.0600 302.32610000000005 180.03810000000001 0.748
3440 6 7 0.0300 304.65610000000004 181.2921 0.851
3441 6 3 0.0600 304.5511 181.1611 -4.521
3442 6 3 0.0600 305.49710000000005 182.26510000000002 -3.418
3443 6 3 0.0600 306.12010000000004 180.6781 -3.859
3444 6 2 -0.1200 306.2561 180.7041 0.0
3445 6 9 0.2200 307.76410000000004 180.7041 0.0
3446 6 6 -0.3300 308.3041 179.5081 0.49
3447 6 4 0.5100 308.06510000000003 178.27810000000002 -0.083
3448 6 5 -0.4300 307.32910000000004 178.15210000000002 -1.107
3449 6 1 -0.1800 308.6861 177.07410000000002 0.515
3450 6 3 0.0600 305.8301 179.6851 -0.11
3451 6 3 0.0600 305.83410000000003 181.4521 -0.666
3452 6 7 0.0300 308.1641 181.5551 0.588
3453 6 3 0.0600 308.0591 176.18310000000002 0.457
3454 6 3 0.0600 309.0051 177.2861 1.561
3455 6 3 0.0600 309.6281 176.8451 -0.026
3456 6 2 -0.1200 309.7641 180.7041 0.0
3457 6 9 0.2200 311.2721 180.7041 0.0
3458 6 6 -0.3300 311.8121 181.19410000000002 -1.196
3459 6 4 0.5100 311.5731 180.6211 -2.426
3460 6 5 -0.4300 310.8371 179.5971 -2.552
3461 6 1 -0.1800 312.1941 181.2191 -3.63
3462 6 3 0.0600 309.3381 180.5941 -1.019
3463 6 3 0.0600 309.3421 180.03810000000001 0.748
3464 6 7 0.0300 311.6721 181.2921 0.851
3465 6 3 0.0600 311.5671 181.1611 -4.521
3466 6 3 0.0600 312.5131 182.26510000000002 -3.418
3467 6 3 0.0600 313.1361 180.6781 -3.859
3468 6 2 -0.1200 313.2721 180.7041 0.0
3469 6 9 0.2200 314.78010000000006 180.7041 0.0
3470 6 6 -0.3300 315.3201 179.5081 0.49
3471 6 4 0.5100 315.08110000000005 178.27810000000002 -0.083
3472 6 5 -0.4300 314.34510000000006 178.15210000000002 -1.107
3473 6 1 -0.1800 315.70210000000003 177.07410000000002 0.515
3474 6 3 0.0600 312.84610000000004 179.6851 -0.11
3475 6 3 0.0600 312.85010000000005 181.4521 -0.666
3476 6 7 0.0300 315.18010000000004 181.5551 0.588
3477 6 3 0.0600 315.0751 176.18310000000002 0.457
3478 6 3 0.0600 316.02110000000005 177.2861 1.561
3479 6 3 0.0600 316.64410000000004 176.8451 -0.026
3480 6 2 -0.1200 316.7801 180.7041 0.0
3481 6 9 0.2200 318.28810000000004 180.7041 0.0
3482 6 6 -0.3300 318.8281 180.2141 -1.196
3483 6 4 0.5100 318.58910000000003 180.7871 -2.426
3484 6 5 -0.4300 317.85310000000004 181.8111 -2.552
3485 6 1 -0.1800 319.2101 180.18910000000002 -3.63
3486 6 3 0.0600 316.3541 180.81410000000002 -1.019
3487 6 3 0.0600 316.35810000000004 181.3701 0.748
3488 6 7 0.0300 318.6881 180.11610000000002 0.851
3489 6 3 0.0600 318.5831 180.24710000000002 -4.521
3490 6 3 0.0600 319.5291 179.1431 -3.418
3491 6 3 0.0600 320.1521 180.73010000000002 -3.859
3492 6 2 -0.1200 320.2881 180.7041 0.0
3493 6 9 0.2200 321.7961 180.7041 0.0
3494 6 6 -0.3300 322.3361 179.5081 -0.49
3495 6 4 0.5100 322.0971 178.27810000000002 0.083
3496 6 5 -0.4300 321.3611 178.15210000000002 1.107
3497 6 1 -0.1800 322.7181 177.07410000000002 -0.515
3498 6 3 0.0600 319.8621 179.6851 0.11
3499 6 3 0.0600 319.8661 181.4521 0.666
3500 6 7 0.0300 322.1961 181.5551 -0.588
3501 6 3 0.0600 322.0911 176.18310000000002 -0.457
3502 6 3 0.0600 323.0371 177.2861 -1.561
3503 6 3 0.0600 323.6601 176.8451 0.026
3504 6 2 -0.1200 323.7961 180.7041 0.0
3505 6 9 0.2200 325.30410000000006 180.7041 0.0
3506 6 6 -0.3300 325.8441 180.2141 -1.196
3507 6 4 0.5100 325.60510000000005 180.7871 -2.426
3508 6 5 -0.4300 324.86910000000006 181.8111 -2.552
3509 6 1 -0.1800 326.22610000000003 180.18910000000002 -3.63
3510 6 3 0.0600 323.37010000000004 180.81410000000002 -1.019
3511 6 3 0.0600 323.37410000000006 181.3701 0.748
3512 6 7 0.0300 325.70410000000004 180.11610000000002 0.851
3513 6 3 0.0600 325.5991 180.24710000000002 -4.521
3514 6 3 0.0600 326.54510000000005 179.1431 -3.418
3515 6 3 0.0600 327.16810000000004 180.73010000000002 -3.859
3516 6 2 -0.1200 327.3041 180.7041 0.0
3517 6 9 0.2200 328.81210000000004 180.7041 0.0
3518 6 6 -0.3300 329.3521 179.5081 -0.49
3519 6 4 0.5100 329.11310000000003 178.27810000000002 0.083
3520 6 5 -0.4300 328.37710000000004 178.15210000000002 1.107
3521 6 1 -0.1800 329.7341 177.07410000000002 -0.515
3522 6 3 0.0600 326.8781 179.6851 0.11
3523 6 3 0.0600 326.88210000000004 181.4521 0.666
3524 6 7 0.0300 329.2121 181.5551 -0.588
3525 6 3 0.0600 329.1071 176.18310000000002 -0.457
3526 6 3 0.0600 330.05310000000003 177.2861 -1.561
3527 6 3 0.0600 330.6761 176.8451 0.026
3528 6 2 -0.1200 330.8121 180.7041 0.0
3529 6 9 0.2200 332.3201 180.7041 0.0
3530 6 6 -0.3300 332.8601 180.2141 -1.196
3531 6 4 0.5100 332.6211 180.7871 -2.426
3532 6 5 -0.4300 331.8851 181.8111 -2.552
3533 6 1 -0.1800 333.2421 180.18910000000002 -3.63
3534 6 3 0.0600 330.3861 180.81410000000002 -1.019
3535 6 3 0.0600 330.3901 181.3701 0.748
3536 6 7 0.0300 332.7201 180.11610000000002 0.851
3537 6 3 0.0600 332.6151 180.24710000000002 -4.521
3538 6 3 0.0600 333.5611 179.1431 -3.418
3539 6 3 0.0600 334.1841 180.73010000000002 -3.859
3540 6 2 -0.1200 334.3201 180.7041 0.0
3541 6 9 0.2200 335.82810000000006 180.7041 0.0
3542 6 6 -0.3300 336.3681 179.5081 0.49
3543 6 4 0.5100 336.12910000000005 178.27810000000002 -0.083
3544 6 5 -0.4300 335.39310000000006 178.15210000000002 -1.107
3545 6 1 -0.1800 336.75010000000003 177.07410000000002 0.515
3546 6 3 0.0600 333.89410000000004 179.6851 -0.11
3547 6 3 0.0600 333.89810000000006 181.4521 -0.666
3548 6 7 0.0300 336.22810000000004 181.5551 0.588
3549 6 3 0.0600 336.1231 176.18310000000002 0.457
3550 6 3 0.0600 337.06910000000005 177.2861 1.561
3551 6 3 0.0600 337.69210000000004 176.8451 -0.026
3552 6 2 -0.1200 337.82809999999995 180.7041 0.0
3553 6 9 0.2200 339.3361 180.7041 0.0
3554 6 6 -0.3300 339.87609999999995 180.2141 -1.196
3555 6 4 0.5100 339.6371 180.7871 -2.426
3556 6 5 -0.4300 338.9011 181.8111 -2.552
3557 6 1 -0.1800 340.25809999999996 180.18910000000002 -3.63
3558 6 3 0.0600 337.40209999999996 180.81410000000002 -1.019
3559 6 3 0.0600 337.4061 181.3701 0.748
3560 6 7 0.0300 339.73609999999996 180.11610000000002 0.851
3561 6 3 0.0600 339.63109999999995 180.24710000000002 -4.521
3562 6 3 0.0600 340.5771 179.1431 -3.418
3563 6 3 0.0600 341.20009999999996 180.73010000000002 -3.859
3564 6 2 -0.1200 341.3361 180.7041 0.0
3565 6 9 0.2200 342.8441 180.7041 0.0
3566 6 6 -0.3300 343.3841 179.5081 0.49
3567 6 4 0.5100 343.1451 178.27810000000002 -0.083
3568 6 5 -0.4300 342.4091 178.15210000000002 -1.107
3569 6 1 -0.1800 343.7661 177.07410000000002 0.515
3570 6 3 0.0600 340.9101 179.6851 -0.11
3571 6 3 0.0600 340.9141 181.4521 -0.666
3572 6 7 0.0300 343.2441 181.5551 0.588
3573 6 3 0.0600 343.1391 176.18310000000002 0.457
3574 6 3 0.0600 344.0851 177.2861 1.561
3575 6 3 0.0600 344.7081 176.8451 -0.026
3576 6 2 -0.1200 344.8441 180.7041 0.0
3577 6 9 0.2200 346.35210000000006 180.7041 0.0
3578 6 6 -0.3300 346.8921 181.19410000000002 -1.196
3579 6 4 0.5100 346.65310000000005 180.6211 -2.426
3580 6 5 -0.4300 345.91710000000006 179.5971 -2.552
3581 6 1 -0.1800 347.27410000000003 181.2191 -3.63
3582 6 3 0.0600 344.41810000000004 180.5941 -1.019
3583 6 3 0.0600 344.42210000000006 180.03810000000001 0.748
3584 6 7 0.0300 346.75210000000004 181.2921 0.851
3585 6 3 0.0600 346.6471 181.1611 -4.521
3586 6 3 0.0600 347.59310000000005 182.26510000000002 -3.418
3587 6 3 0.0600 348.21610000000004 180.6781 -3.859
3588 6 2 -0.1200 348.35209999999995 180.7041 0.0
3589 6 9 0.2200 349.8601 180.7041 0.0
3590 6 6 -0.3300 350.40009999999995 179.5081 -0.49
3591 6 4 0.5100 350.1611 178.27810000000002 0.083
3592 6 5 -0.4300 349.4251 178.15210000000002 1.107
3593 6 1 -0.1800 350.78209999999996 177.07410000000002 -0.515
3594 6 3 0.0600 347.92609999999996 179.6851 0.11
3595 6 3 0.0600 347.9301 181.4521 0.666
3596 6 7 0.0300 350.26009999999997 181.5551 -0.588
3597 6 3 0.0600 350.15509999999995 176.18310000000002 -0.457
3598 6 3 0.0600 351.1011 177.2861 -1.561
3599 6 3 0.0600 351.72409999999996 176.8451 0.026
3600 6 2 -0.1200 350.1341 180.7041 0.0
3601 6 8 0.1900 350.7071 180.21710000000002 1.269
3602 6 6 -0.3300 352.0391 179.80710000000002 1.192
3603 6 4 0.5100 353.0871 180.64010000000002 0.807
3604 6 5 -0.4300 352.85110000000003 181.8471 0.5039999999999999
3605 6 1 -0.1800 354.4941 180.1271 0.748
3606 6 3 0.0600 349.94710000000003 181.75310000000002 -0.11600000000000008
3607 6 3 0.0600 349.8831 179.9951 -0.759
3608 6 7 0.0300 350.10810000000004 179.3271 1.587
3609 6 7 0.0300 350.5681 180.96110000000002 2.079
3610 6 3 0.0600 354.9671 180.1511 1.738
3611 6 3 0.0600 354.47110000000004 179.05210000000002 0.4330000000000001
3612 6 3 0.0600 355.0941 180.7041 0.0
3613 7 1 -0.1800 360.64520000000005 180.7041 0.0
3614 7 9 0.2200 362.1712 180.7041 0.0
3615 7 6 -0.3300 362.61420000000004 180.21110000000002 -1.254
3616 7 4 0.5100 364.00320000000005 180.1431 -1.426
3617 7 5 -0.4300 364.7932 180.5001 -0.517
3618 7 1 -0.1800 364.5812 179.64010000000002 -2.705
3619 7 3 0.0600 360.2792 179.68110000000001 -0.168
3620 7 3 0.0600 360.2692 181.07610000000003 0.973
3621 7 3 0.0600 360.33520000000004 181.35410000000002 -0.832
3622 7 7 0.0300 362.5812 181.7041 0.146
3623 7 3 0.0600 363.77320000000003 179.2521 -3.336
3624 7 3 0.0600 365.1992 180.42010000000002 -3.204
3625 7 3 0.0600 365.2952 178.8291 -2.397
3626 7 2 -0.1200 364.1802 180.7041 0.0
3627 7 9 0.2200 365.68820000000005 180.7041 0.0
3628 7 6 -0.3300 366.2282 181.19410000000002 -1.196
3629 7 4 0.5100 365.98920000000004 180.6211 -2.426
3630 7 5 -0.4300 365.25320000000005 179.5971 -2.552
3631 7 1 -0.1800 366.6102 181.2191 -3.63
3632 7 3 0.0600 363.7542 180.5941 -1.019
3633 7 3 0.0600 363.75820000000004 180.03810000000001 0.748
3634 7 7 0.0300 366.08820000000003 181.2921 0.851
3635 7 3 0.0600 365.9832 181.1611 -4.521
3636 7 3 0.0600 366.92920000000004 182.26510000000002 -3.418
3637 7 3 0.0600 367.5522 180.6781 -3.859
3638 7 2 -0.1200 367.6882 180.7041 0.0
3639 7 9 0.2200 369.19620000000003 180.7041 0.0
3640 7 6 -0.3300 369.7362 179.5081 0.49
3641 7 4 0.5100 369.4972 178.27810000000002 -0.083
3642 7 5 -0.4300 368.76120000000003 178.15210000000002 -1.107
3643 7 1 -0.1800 370.1182 177.07410000000002 0.515
3644 7 3 0.0600 367.2622 179.6851 -0.11
3645 7 3 0.0600 367.2662 181.4521 -0.666
3646 7 7 0.0300 369.5962 181.5551 0.588
3647 7 3 0.0600 369.4912 176.18310000000002 0.457
3648 7 3 0.0600 370.4372 177.2861 1.561
3649 7 3 0.0600 371.0602 176.8451 -0.026
3650 7 2 -0.1200 371.1962 180.7041 0.0
3651 7 9 0.2200 372.7042 180.7041 0.0
3652 7 6 -0.3300 373.2442 181.19410000000002 -1.196
3653 7 4 0.5100 373.0052 180.6211 -2.426
3654 7 5 -0.4300 372.2692 179.5971 -2.552
3655 7 1 -0.1800 373.6262 181.2191 -3.63
3656 7 3 0.0600 370.7702 180.5941 -1.019
3657 7 3 0.0600 370.7742 180.03810000000001 0.748
3658 7 7 0.0300 373.1042 181.2921 0.851
3659 7 3 0.0600 372.9992 181.1611 -4.521
3660 7 3 0.0600 373.9452 182.26510000000002 -3.418
3661 7 3 0.0600 374.5682 180.6781 -3.859
3662 7 2 -0.1200 374.7042 180.7041 0.0
3663 7 9 0.2200 376.21220000000005 180.7041 0.0
3664 7 6 -0.3300 376.7522 179.5081 -0.49
3665 7 4 0.5100 376.51320000000004 178.27810000000002 0.083
3666 7 5 -0.4300 375.77720000000005 178.15210000000002 1.107
3667 7 1 -0.1800 377.1342 177.07410000000002 -0.515
3668 7 3 0.0600 374.2782 179.6851 0.11
3669 7 3 0.0600 374.28220000000005 181.4521 0.666
3670 7 7 0.0300 376.61220000000003 181.5551 -0.588
3671 7 3 0.0600 376.5072 176.18310000000002 -0.457
3672 7 3 0.0600 377.45320000000004 177.2861 -1.561
3673 7 3 0.0600 378.07620000000003 176.8451 0.026
3674 7 2 -0.1200 378.2122 180.7041 0.0
3675 7 9 0.2200 379.72020000000003 180.7041 0.0
3676 7 6 -0.3300 380.2602 181.19410000000002 -1.196
3677 7 4 0.5100 380.0212 180.6211 -2.426
3678 7 5 -0.4300 379.28520000000003 179.5971 -2.552
3679 7 1 -0.1800 380.6422 181.2191 -3.63
3680 7 3 0.0600 377.7862 180.5941 -1.019
3681 7 3 0.0600 377.7902 180.03810000000001 0.748
3682 7 7 0.0300 380.1202 181.2921 0.851
3683 7 3 0.0600 380.0152 181.1611 -4.521
3684 7 3 0.0600 380.9612 182.26510000000002 -3.418
3685 7 3 0.0600 381.5842 180.6781 -3.859
3686 7 2 -0.1200 381.7202 180.7041 0.0
3687 7 9 0.2200 383.2282 180.7041 0.0
3688 7 6 -0.3300 383.7682 179.5081 -0.49
3689 7 4 0.5100 383.5292 178.27810000000002 0.083
3690 7 5 -0.4300 382.7932 178.15210000000002 1.107
3691 7 1 -0.1800 384.1502 177.07410000000002 -0.515
3692 7 3 0.0600 381.2942 179.6851 0.11
3693 7 3 0.0600 381.2982 181.4521 0.666
3694 7 7 0.0300 383.6282 181.5551 -0.588
3695 7 3 0.0600 383.5232 176.18310000000002 -0.457
3696 7 3 0.0600 384.4692 177.2861 -1.561
3697 7 3 0.0600 385.0922 176.8451 0.026
3698 7 2 -0.1200 385.2282 180.7041 0.0
3699 7 9 0.2200 386.73620000000005 180.7041 0.0
3700 7 6 -0.3300 387.2762 181.19410000000002 -1.196
3701 7 4 0.5100 387.03720000000004 180.6211 -2.426
3702 7 5 -0.4300 386.30120000000005 179.5971 -2.552
3703 7 1 -0.1800 387.6582 181.2191 -3.63
3704 7 3 0.0600 384.8022 180.5941 -1.019
3705 7 3 0.0600 384.80620000000005 180.03810000000001 0.748
3706 7 7 0.0300 387.13620000000003 181.2921 0.851
3707 7 3 0.0600 387.0312 181.1611 -4.521
3708 7 3 0.0600 387.97720000000004 182.26510000000002 -3.418
3709 7 3 0.0600 388.60020000000003 180.6781 -3.859
3710 7 2 -0.1200 388.7362 180.7041 0.0
3711 7 9 0.2200 390.24420000000003 180.7041 0.0
3712 7 6 -0.3300 390.7842 179.5081 0.49
3713 7 4 0.5100 390.5452 178.27810000000002 -0.083
3714 7 5 -0.4300 389.80920000000003 178.15210000000002 -1.107
3715 7 1 -0.1800 391.1662 177.07410000000002 0.515
3716 7 3 0.0600 388.3102 179.6851 -0.11
3717 7 3 0.0600 388.3142 181.4521 -0.666
3718 7 7 0.0300 390.6442 181.5551 0.588
3719 7 3 0.0600 390.5392 176.18310000000002 0.457
3720 7 3 0.0600 391.4852 177.2861 1.561
3721 7 3 0.0600 392.1082 176.8451 -0.026
3722 7 2 -0.1200 392.2442 180.7041 0.0
3723 7 9 0.2200 393.7522 180.7041 0.0
3724 7 6 -0.3300 394.2922 181.19410000000002 -1.196
3725 7 4 0.5100 394.0532 180.6211 -2.426
3726 7 5 -0.4300 393.3172 179.5971 -2.552
3727 7 1 -0.1800 394.6742 181.2191 -3.63
3728 7 3 0.0600 391.8182 180.5941 -1.019
3729 7 3 0.0600 391.8222 180.03810000000001 0.748
3730 7 7 0.0300 394.1522 181.2921 0.851
3731 7 3 0.0600 394.0472 181.1611 -4.521
3732 7 3 0.0600 394.9932 182.26510000000002 -3.418
3733 7 3 0.0600 395.6162 180.6781 -3.859
3734 7 2 -0.1200 395.7522 180.7041 0.0
3735 7 9 0.2200 397.26020000000005 180.7041 0.0
3736 7 6 -0.3300 397.8002 179.5081 -0.49
3737 7 4 0.5100 397.56120000000004 178.27810000000002 0.083
3738 7 5 -0.4300 396.82520000000005 178.15210000000002 1.107
3739 7 1 -0.1800 398.1822 177.07410000000002 -0.515
3740 7 3 0.0600 395.32620000000003 179.6851 0.11
3741 7 3 0.0600 395.33020000000005 181.4521 0.666
3742 7 7 0.0300 397.66020000000003 181.5551 -0.588
3743 7 3 0.0600 397.5552 176.18310000000002 -0.457
3744 7 3 0.0600 398.50120000000004 177.2861 -1.561
3745 7 3 0.0600 399.12420000000003 176.8451 0.026
3746 7 2 -0.1200 399.2602 180.7041 0.0
3747 7 9 0.2200 400.76820000000004 180.7041 0.0
3748 7 6 -0.3300 401.3082 181.19410000000002 -1.196
3749 7 4 0.5100 401.0692 180.6211 -2.426
3750 7 5 -0.4300 400.33320000000003 179.5971 -2.552
3751 7 1 -0.1800 401.6902 181.2191 -3.63
3752 7 3 0.0600 398.8342 180.5941 -1.019
3753 7 3 0.0600 398.83820000000003 180.03810000000001 0.748
3754 7 7 0.0300 401.1682 181.2921 0.851
3755 7 3 0.0600 401.0632 181.1611 -4.521
3756 7 3 0.0600 402.0092 182.26510000000002 -3.418
3757 7 3 0.0600 402.6322 180.6781 -3.859
3758 7 2 -0.1200 402.7682 180.7041 0.0
3759 7 9 0.2200 404.2762 180.7041 0.0
3760 7 6 -0.3300 404.8162 179.5081 -0.49
3761 7 4 0.5100 404.5772 178.27810000000002 0.083
3762 7 5 -0.4300 403.8412 178.15210000000002 1.107
3763 7 1 -0.1800 405.1982 177.07410000000002 -0.515
3764 7 3 0.0600 402.3422 179.6851 0.11
3765 7 3 0.0600 402.3462 181.4521 0.666
3766 7 7 0.0300 404.6762 181.5551 -0.588
3767 7 3 0.0600 404.5712 176.18310000000002 -0.457
3768 7 3 0.0600 405.5172 177.2861 -1.561
3769 7 3 0.0600 406.1402 176.8451 0.026
3770 7 2 -0.1200 406.2762 180.7041 0.0
3771 7 9 0.2200 407.78420000000006 180.7041 0.0
3772 7 6 -0.3300 408.3242 181.19410000000002 -1.196
3773 7 4 0.5100 408.08520000000004 180.6211 -2.426
3774 7 5 -0.4300 407.34920000000005 179.5971 -2.552
3775 7 1 -0.1800 408.7062 181.2191 -3.63
3776 7 3 0.0600 405.85020000000003 180.5941 -1.019
3777 7 3 0.0600 405.85420000000005 180.03810000000001 0.748
3778 7 7 0.0300 408.18420000000003 181.2921 0.851
3779 7 3 0.0600 408.0792 181.1611 -4.521
3780 7 3 0.0600 409.02520000000004 182.26510000000002 -3.418
3781 7 3 0.0600 409.64820000000003 180.6781 -3.859
3782 7 2 -0.1200 409.7842 180.7041 0.0
3783 7 9 0.2200 411.29220000000004 180.7041 0.0
3784 7 6 -0.3300 411.8322 179.5081 -0.49
3785 7 4 0.5100 411.5932 178.27810000000002 0.083
3786 7 5 -0.4300 410.85720000000003 178.15210000000002 1.107
3787 7 1 -0.1800 412.2142 177.07410000000002 -0.515
3788 7 3 0.0600 409.3582 179.6851 0.11
3789 7 3 0.0600 409.36220000000003 181.4521 0.666
3790 7 7 0.0300 411.6922 181.5551 -0.588
3791 7 3 0.0600 411.5872 176.18310000000002 -0.457
3792 7 3 0.0600 412.5332 177.2861 -1.561
3793 7 3 0.0600 413.1562 176.8451 0.026
3794 7 2 -0.1200 413.2922 180.7041 0.0
3795 7 9 0.2200 414.8002 180.7041 0.0
3796 7 6 -0.3300 415.3402 180.2141 -1.196
3797 7 4 0.5100 415.1012 180.7871 -2.426
3798 7 5 -0.4300 414.3652 181.8111 -2.552
3799 7 1 -0.1800 415.7222 180.18910000000002 -3.63
3800 7 3 0.0600 412.8662 180.81410000000002 -1.019
3801 7 3 0.0600 412.8702 181.3701 0.748
3802 7 7 0.0300 415.2002 180.11610000000002 0.851
3803 7 3 0.0600 415.0952 180.24710000000002 -4.521
3804 7 3 0.0600 416.0412 179.1431 -3.418
3805 7 3 0.0600 416.6642 180.73010000000002 -3.859
3806 7 2 -0.1200 416.8002 180.7041 0.0
3807 7 9 0.2200 418.30820000000006 180.7041 0.0
3808 7 6 -0.3300 418.8482 179.5081 0.49
3809 7 4 0.5100 418.60920000000004 178.27810000000002 -0.083
3810 7 5 -0.4300 417.87320000000005 178.15210000000002 -1.107
3811 7 1 -0.1800 419.2302 177.07410000000002 0.515
3812 7 3 0.0600 416.37420000000003 179.6851 -0.11
3813 7 3 0.0600 416.37820000000005 181.4521 -0.666
3814 7 7 0.0300 418.70820000000003 181.5551 0.588
3815 7 3 0.0600 418.6032 176.18310000000002 0.457
3816 7 3 0.0600 419.54920000000004 177.2861 1.561
3817 7 3 0.0600 420.17220000000003 176.8451 -0.026
3818 7 2 -0.1200 420.3082 180.7041 0.0
3819 7 9 0.2200 421.81620000000004 180.7041 0.0
3820 7 6 -0.3300 422.3562 181.19410000000002 -1.196
3821 7 4 0.5100 422.1172 180.6211 -2.426
3822 7 5 -0.4300 421.38120000000004 179.5971 -2.552
3823 7 1 -0.1800 422.7382 181.2191 -3.63
3824 7 3 0.0600 419.8822 180.5941 -1.019
3825 7 3 0.0600 419.88620000000003 180.03810000000001 0.748
3826 7 7 0.0300 422.2162 181.2921 0.851
3827 7 3 0.0600 422.1112 181.1611 -4.521
3828 7 3 0.0600 423.0572 182.26510000000002 -3.418
3829 7 3 0.0600 423.6802 180.6781 -3.859
3830 7 2 -0.1200 423.8162 180.7041 0.0
3831 7 9 0.2200 425.3242 180.7041 0.0
3832 7 6 -0.3300 425.8642 179.5081 0.49
3833 7 4 0.5100 425.6252 178.27810000000002 -0.083
3834 7 5 -0.4300 424.8892 178.15210000000002 -1.107
3835 7 1 -0.1800 426.2462 177.07410000000002 0.515
3836 7 3 0.0600 423.3902 179.6851 -0.11
3837 7 3 0.0600 423.3942 181.4521 -0.666
3838 7 7 0.0300 425.7242 181.5551 0.588
3839 7 3 0.0600 425.6192 176.18310000000002 0.457
3840 7 3 0.0600 426.5652 177.2861 1.561
3841 7 3 0.0600 427.1882 176.8451 -0.026
3842 7 2 -0.1200 427.3242 180.7041 0.0
3843 7 9 0.2200 428.83220000000006 180.7041 0.0
3844 7 6 -0.3300 429.3722 180.2141 -1.196
3845 7 4 0.5100 429.13320000000004 180.7871 -2.426
3846 7 5 -0.4300 428.39720000000005 181.8111 -2.552
3847 7 1 -0.1800 429.7542 180.18910000000002 -3.63
3848 7 3 0.0600 426.89820000000003 180.81410000000002 -1.019
3849 7 3 0.0600 426.90220000000005 181.3701 0.748
3850 7 7 0.0300 429.23220000000003 180.11610000000002 0.851
3851 7 3 0.0600 429.1272 180.24710000000002 -4.521
3852 7 3 0.0600 430.07320000000004 179.1431 -3.418
3853 7 3 0.0600 430.69620000000003 180.73010000000002 -3.859
3854 7 2 -0.1200 430.8322 180.7041 0.0
3855 7 9 0.2200 432.34020000000004 180.7041 0.0
3856 7 6 -0.3300 432.8802 179.5081 -0.49
3857 7 4 0.5100 432.6412 178.27810000000002 0.083
3858 7 5 -0.4300 431.90520000000004 178.15210000000002 1.107
3859 7 1 -0.1800 433.2622 177.07410000000002 -0.515
3860 7 3 0.0600 430.4062 179.6851 0.11
3861 7 3 0.0600 430.41020000000003 181.4521 0.666
3862 7 7 0.0300 432.7402 181.5551 -0.588
3863 7 3 0.0600 432.6352 176.18310000000002 -0.457
3864 7 3 0.0600 433.5812 177.2861 -1.561
3865 7 3 0.0600 434.2042 176.8451 0.026
3866 7 2 -0.1200 434.3402 180.7041 0.0
3867 7 9 0.2200 435.8482 180.7041 0.0
3868 7 6 -0.3300 436.3882 181.19410000000002 -1.196
3869 7 4 0.5100 436.1492 180.6211 -2.426
3870 7 5 -0.4300 435.4132 179.5971 -2.552
3871 7 1 -0.1800 436.7702 181.2191 -3.63
3872 7 3 0.0600 433.9142 180.5941 -1.019
3873 7 3 0.0600 433.9182 180.03810000000001 0.748
3874 7 7 0.0300 436.2482 181.2921 0.851
3875 7 3 0.0600 436.1432 181.1611 -4.521
3876 7 3 0.0600 437.0892 182.26510000000002 -3.418
3877 7 3 0.0600 437.7122 180.6781 -3.859
3878 7 2 -0.1200 437.8482 180.7041 0.0
3879 7 9 0.2200 439.35620000000006 180.7041 0.0
3880 7 6 -0.3300 439.8962 179.5081 0.49
3881 7 4 0.5100 439.65720000000005 178.27810000000002 -0.083
3882 7 5 -0.4300 438.92120000000006 178.15210000000002 -1.107
3883 7 1 -0.1800 440.2782 177.07410000000002 0.515
3884 7 3 0.0600 437.42220000000003 179.6851 -0.11
3885 7 3 0.0600 437.42620000000005 181.4521 -0.666
3886 7 7 0.0300 439.75620000000004 181.5551 0.588
3887 7 3 0.0600 439.6512 176.18310000000002 0.457
3888 7 3 0.0600 440.59720000000004 177.2861 1.561
3889 7 3 0.0600 441.22020000000003 176.8451 -0.026
3890 7 2 -0.1200 441.3562 180.7041 0.0
3891 7 9 0.2200 442.86420000000004 180.7041 0.0
3892 7 6 -0.3300 443.4042 180.2141 -1.196
3893 7 4 0.5100 443.1652 180.7871 -2.426
3894 7 5 -0.4300 442.42920000000004 181.8111 -2.552
3895 7 1 -0.1800 443.7862 180.18910000000002 -3.63
3896 7 3 0.0600 440.9302 180.81410000000002 -1.019
3897 7 3 0.0600 440.93420000000003 181.3701 0.748
3898 7 7 0.0300 443.2642 180.11610000000002 0.851
3899 7 3 0.0600 443.1592 180.24710000000002 -4.521
3900 7 3 0.0600 444.1052 179.1431 -3.418
3901 7 3 0.0600 444.7282 180.73010000000002 -3.859
3902 7 2 -0.1200 444.8642 180.7041 0.0
3903 7 9 0.2200 446.3722 180.7041 0.0
3904 7 6 -0.3300 446.9122 179.5081 -0.49
3905 7 4 0.5100 446.6732 178.27810000000002 0.083
3906 7 5 -0.4300 445.9372 178.15210000000002 1.107
3907 7 1 -0.1800 447.2942 177.07410000000002 -0.515
3908 7 3 0.0600 444.4382 179.6851 0.11
3909 7 3 0.0600 444.4422 181.4521 0.666
3910 7 7 0.0300 446.7722 181.5551 -0.588
3911 7 3 0.0600 446.6672 176.18310000000002 -0.457
3912 7 3 0.0600 447.6132 177.2861 -1.561
3913 7 3 0.0600 448.2362 176.8451 0.026
3914 7 2 -0.1200 448.3722 180.7041 0.0
3915 7 9 0.2200 449.88020000000006 180.7041 0.0
3916 7 6 -0.3300 450.4202 180.2141 -1.196
3917 7 4 0.5100 450.18120000000005 180.7871 -2.426
3918 7 5 -0.4300 449.44520000000006 181.8111 -2.552
3919 7 1 -0.1800 450.8022 180.18910000000002 -3.63
3920 7 3 0.0600 447.94620000000003 180.81410000000002 -1.019
3921 7 3 0.0600 447.95020000000005 181.3701 0.748
3922 7 7 0.0300 450.28020000000004 180.11610000000002 0.851
3923 7 3 0.0600 450.1752 180.24710000000002 -4.521
3924 7 3 0.0600 451.12120000000004 179.1431 -3.418
3925 7 3 0.0600 451.74420000000003 180.73010000000002 -3.859
3926 7 2 -0.1200 451.8802 180.7041 0.0
3927 7 9 0.2200 453.38820000000004 180.7041 0.0
3928 7 6 -0.3300 453.9282 179.5081 -0.49
3929 7 4 0.5100 453.6892 178.27810000000002 0.083
3930 7 5 -0.4300 452.95320000000004 178.15210000000002 1.107
3931 7 1 -0.1800 454.3102 177.07410000000002 -0.515
3932 7 3 0.0600 451.4542 179.6851 0.11
3933 7 3 0.0600 451.45820000000003 181.4521 0.666
3934 7 7 0.0300 453.7882 181.5551 -0.588
3935 7 3 0.0600 453.6832 176.18310000000002 -0.457
3936 7 3 0.0600 454.6292 177.2861 -1.561
3937 7 3 0.0600 455.2522 176.8451 0.026
3938 7 2 -0.1200 455.3882 180.7041 0.0
3939 7 9 0.2200 456.8962 180.7041 0.0
3940 7 6 -0.3300 457.4362 180.2141 -1.196
3941 7 4 0.5100 457.1972 180.7871 -2.426
3942 7 5 -0.4300 456.4612 181.8111 -2.552
3943 7 1 -0.1800 457.8182 180.18910000000002 -3.63
3944 7 3 0.0600 454.9622 180.81410000000002 -1.019
3945 7 3 0.0600 454.9662 181.3701 0.748
3946 7 7 0.0300 457.2962 180.11610000000002 0.851
3947 7 3 0.0600 457.1912 180.24710000000002 -4.521
3948 7 3 0.0600 458.1372 179.1431 -3.418
3949 7 3 0.0600 458.7602 180.73010000000002 -3.859
3950 7 2 -0.1200 458.8962 180.7041 0.0
3951 7 9 0.2200 460.40420000000006 180.7041 0.0
3952 7 6 -0.3300 460.9442 179.5081 -0.49
3953 7 4 0.5100 460.70520000000005 178.27810000000002 0.083
3954 7 5 -0.4300 459.96920000000006 178.15210000000002 1.107
3955 7 1 -0.1800 461.32620000000003 177.07410000000002 -0.515
3956 7 3 0.0600 458.47020000000003 179.6851 0.11
3957 7 3 0.0600 458.47420000000005 181.4521 0.666
3958 7 7 0.0300 460.80420000000004 181.5551 -0.588
3959 7 3 0.0600 460.6992 176.18310000000002 -0.457
3960 7 3 0.0600 461.64520000000005 177.2861 -1.561
3961 7 3 0.0600 462.26820000000004 176.8451 0.026
3962 7 2 -0.1200 462.4042 180.7041 0.0
3963 7 9 0.2200 463.91220000000004 180.7041 0.0
3964 7 6 -0.3300 464.4522 180.2141 -1.196
3965 7 4 0.5100 464.21320000000003 180.7871 -2.426
3966 7 5 -0.4300 463.47720000000004 181.8111 -2.552
3967 7 1 -0.1800 464.8342 180.18910000000002 -3.63
3968 7 3 0.0600 461.9782 180.81410000000002 -1.019
3969 7 3 0.0600 461.98220000000003 181.3701 0.748
3970 7 7 0.0300 464.3122 180.11610000000002 0.851
3971 7 3 0.0600 464.2072 180.24710000000002 -4.521
3972 7 3 0.0600 465.1532 179.1431 -3.418
3973 7 3 0.0600 465.7762 180.73010000000002 -3.859
3974 7 2 -0.1200 465.9122 180.7041 0.0
3975 7 9 0.2200 467.4202 180.7041 0.0
3976 7 6 -0.3300 467.9602 179.5081 -0.49
3977 7 4 0.5100 467.7212 178.27810000000002 0.083
3978 7 5 -0.4300 466.9852 178.15210000000002 1.107
3979 7 1 -0.1800 468.3422 177.07410000000002 -0.515
3980 7 3 0.0600 465.4862 179.6851 0.11
3981 7 3 0.0600 465.4902 181.4521 0.666
3982 7 7 0.0300 467.8202 181.5551 -0.588
3983 7 3 0.0600 467.7152 176.18310000000002 -0.457
3984 7 3 0.0600 468.6612 177.2861 -1.561
3985 7 3 0.0600 469.2842 176.8451 0.026
3986 7 2 -0.1200 469.4202 180.7041 0.0
3987 7 9 0.2200 470.92820000000006 180.7041 0.0
3988 7 6 -0.3300 471.4682 180.2141 -1.196
3989 7 4 0.5100 471.22920000000005 180.7871 -2.426
3990 7 5 -0.4300 470.49320000000006 181.8111 -2.552
3991 7 1 -0.1800 471.85020000000003 180.18910000000002 -3.63
3992 7 3 0.0600 468.99420000000003 180.81410000000002 -1.019
3993 7 3 0.0600 468.99820000000005 181.3701 0.748
3994 7 7 0.0300 471.32820000000004 180.11610000000002 0.851
3995 7 3 0.0600 471.2232 180.24710000000002 -4.521
3996 7 3 0.0600 472.16920000000005 179.1431 -3.418
3997 7 3 0.0600 472.79220000000004 180.73010000000002 -3.859
3998 7 2 -0.1200 472.9282 180.7041 0.0
3999 7 9 0.2200 474.43620000000004 180.7041 0.0
4000 7 6 -0.3300 474.9762 179.5081 0.49
4001 7 4 0.5100 474.73720000000003 178.27810000000002 -0.083
4002 7 5 -0.4300 474.00120000000004 178.15210000000002 -1.107
4003 7 1 -0.1800 475.3582 177.07410000000002 0.515
4004 7 3 0.0600 472.5022 179.6851 -0.11
4005 7 3 0.0600 472.50620000000004 181.4521 -0.666
4006 7 7 0.0300 474.8362 181.5551 0.588
4007 7 3 0.0600 474.7312 176.18310000000002 0.457
4008 7 3 0.0600 475.6772 177.2861 1.561
4009 7 3 0.0600 476.3002 176.8451 -0.026
4010 7 2 -0.1200 476.4362 180.7041 0.0
4011 7 9 0.2200 477.9442 180.7041 0.0
4012 7 6 -0.3300 478.4842 180.2141 -1.196
4013 7 4 0.5100 478.2452 180.7871 -2.426
4014 7 5 -0.4300 477.5092 181.8111 -2.552
4015 7 1 -0.1800 478.8662 180.18910000000002 -3.63
4016 7 3 0.0600 476.0102 180.81410000000002 -1.019
4017 7 3 0.0600 476.0142 181.3701 0.748
4018 7 7 0.0300 478.3442 180.11610000000002 0.851
4019 7 3 0.0600 478.2392 180.24710000000002 -4.521
4020 7 3 0.0600 479.1852 179.1431 -3.418
4021 7 3 0.0600 479.8082 180.73010000000002 -3.859
4022 7 2 -0.1200 479.9442 180.7041 0.0
4023 7 9 0.2200 481.45220000000006 180.7041 0.0
4024 7 6 -0.3300 481.9922 179.5081 0.49
4025 7 4 0.5100 481.75320000000005 178.27810000000002 -0.083
4026 7 5 -0.4300 481.01720000000006 178.15210000000002 -1.107
4027 7 1 -0.1800 482.37420000000003 177.07410000000002 0.515
4028 7 3 0.0600 479.51820000000004 179.6851 -0.11
4029 7 3 0.0600 479.52220000000005 181.4521 -0.666
4030 7 7 0.0300 481.85220000000004 181.5551 0.588
4031 7 3 0.0600 481.7472 176.18310000000002 0.457
4032 7 3 0.0600 482.69320000000005 177.2861 1.561
4033 7 3 0.0600 483.31620000000004 176.8451 -0.026
4034 7 2 -0.1200 483.4522 180.7041 0.0
4035 7 9 0.2200 484.96020000000004 180.7041 0.0
4036 7 6 -0.3300 485.5002 181.19410000000002 -1.196
4037 7 4 0.5100 485.26120000000003 180.6211 -2.426
4038 7 5 -0.4300 484.52520000000004 179.5971 -2.552
4039 7 1 -0.1800 485.8822 181.2191 -3.63
4040 7 3 0.0600 483.0262 180.5941 -1.019
4041 7 3 0.0600 483.03020000000004 180.03810000000001 0.748
4042 7 7 0.0300 485.3602 181.2921 0.851
4043 7 3 0.0600 485.2552 181.1611 -4.521
4044 7 3 0.0600 486.20120000000003 182.26510000000002 -3.418
4045 7 3 0.0600 486.8242 180.6781 -3.859
4046 7 2 -0.1200 486.9602 180.7041 0.0
4047 7 9 0.2200 488.4682 180.7041 0.0
4048 7 6 -0.3300 489.0082 179.5081 0.49
4049 7 4 0.5100 488.7692 178.27810000000002 -0.083
4050 7 5 -0.4300 488.0332 178.15210000000002 -1.107
4051 7 1 -0.1800 489.3902 177.07410000000002 0.515
4052 7 3 0.0600 486.5342 179.6851 -0.11
4053 7 3 0.0600 486.5382 181.4521 -0.666
4054 7 7 0.0300 488.8682 181.5551 0.588
4055 7 3 0.0600 488.7632 176.18310000000002 0.457
4056 7 3 0.0600 489.7092 177.2861 1.561
4057 7 3 0.0600 490.3322 176.8451 -0.026
4058 7 2 -0.1200 490.4682 180.7041 0.0
4059 7 9 0.2200 491.97620000000006 180.7041 0.0
4060 7 6 -0.3300 492.5162 181.19410000000002 -1.196
4061 7 4 0.5100 492.27720000000005 180.6211 -2.426
4062 7 5 -0.4300 491.54120000000006 179.5971 -2.552
4063 7 1 -0.1800 492.89820000000003 181.2191 -3.63
4064 7 3 0.0600 490.04220000000004 180.5941 -1.019
4065 7 3 0.0600 490.04620000000006 180.03810000000001 0.748
4066 7 7 0.0300 492.37620000000004 181.2921 0.851
4067 7 3 0.0600 492.2712 181.1611 -4.521
4068 7 3 0.0600 493.21720000000005 182.26510000000002 -3.418
4069 7 3 0.0600 493.84020000000004 180.6781 -3.859
4070 7 2 -0.1200 493.9762 180.7041 0.0
4071 7 9 0.2200 495.48420000000004 180.7041 0.0
4072 7 6 -0.3300 496.0242 179.5081 -0.49
4073 7 4 0.5100 495.78520000000003 178.27810000000002 0.083
4074 7 5 -0.4300 495.04920000000004 178.15210000000002 1.107
4075 7 1 -0.1800 496.4062 177.07410000000002 -0.515
4076 7 3 0.0600 493.5502 179.6851 0.11
4077 7 3 0.0600 493.55420000000004 181.4521 0.666
4078 7 7 0.0300 495.8842 181.5551 -0.588
4079 7 3 0.0600 495.7792 176.18310000000002 -0.457
4080 7 3 0.0600 496.72520000000003 177.2861 -1.561
4081 7 3 0.0600 497.3482 176.8451 0.026
4082 7 2 -0.1200 497.4842 180.7041 0.0
4083 7 9 0.2200 498.9922 180.7041 0.0
4084 7 6 -0.3300 499.5322 180.2141 -1.196
4085 7 4 0.5100 499.2932 180.7871 -2.426
4086 7 5 -0.4300 498.5572 181.8111 -2.552
4087 7 1 -0.1800 499.9142 180.18910000000002 -3.63
4088 7 3 0.0600 497.0582 180.81410000000002 -1.019
4089 7 3 0.0600 497.0622 181.3701 0.748
4090 7 7 0.0300 499.3922 180.11610000000002 0.851
4091 7 3 0.0600 499.2872 180.24710000000002 -4.521
4092 7 3 0.0600 500.2332 179.1431 -3.418
4093 7 3 0.0600 500.8562 180.73010000000002 -3.859
4094 7 2 -0.1200 500.9922 180.7041 0.0
4095 7 9 0.2200 502.50020000000006 180.7041 0.0
4096 7 6 -0.3300 503.0402 179.5081 -0.49
4097 7 4 0.5100 502.80120000000005 178.27810000000002 0.083
4098 7 5 -0.4300 502.06520000000006 178.15210000000002 1.107
4099 7 1 -0.1800 503.42220000000003 177.07410000000002 -0.515
4100 7 3 0.0600 500.56620000000004 179.6851 0.11
4101 7 3 0.0600 500.57020000000006 181.4521 0.666
4102 7 7 0.0300 502.90020000000004 181.5551 -0.588
4103 7 3 0.0600 502.7952 176.18310000000002 -0.457
4104 7 3 0.0600 503.74120000000005 177.2861 -1.561
4105 7 3 0.0600 504.36420000000004 176.8451 0.026
4106 7 2 -0.1200 504.5002 180.7041 0.0
4107 7 9 0.2200 506.00820000000004 180.7041 0.0
4108 7 6 -0.3300 506.5482 180.2141 -1.196
4109 7 4 0.5100 506.30920000000003 180.7871 -2.426
4110 7 5 -0.4300 505.57320000000004 181.8111 -2.552
4111 7 1 -0.1800 506.9302 180.18910000000002 -3.63
4112 7 3 0.0600 504.0742 180.81410000000002 -1.019
4113 7 3 0.0600 504.07820000000004 181.3701 0.748
4114 7 7 0.0300 506.4082 180.11610000000002 0.851
4115 7 3 0.0600 506.3032 180.24710000000002 -4.521
4116 7 3 0.0600 507.24920000000003 179.1431 -3.418
4117 7 3 0.0600 507.8722 180.73010000000002 -3.859
4118 7 2 -0.1200 508.0082 180.7041 0.0
4119 7 9 0.2200 509.5162 180.7041 0.0
4120 7 6 -0.3300 510.0562 179.5081 0.49
4121 7 4 0.5100 509.8172 178.27810000000002 -0.083
4122 7 5 -0.4300 509.0812 178.15210000000002 -1.107
4123 7 1 -0.1800 510.4382 177.07410000000002 0.515
4124 7 3 0.0600 507.5822 179.6851 -0.11
4125 7 3 0.0600 507.5862 181.4521 -0.666
4126 7 7 0.0300 509.9162 181.5551 0.588
4127 7 3 0.0600 509.8112 176.18310000000002 0.457
4128 7 3 0.0600 510.7572 177.2861 1.561
4129 7 3 0.0600 511.3802 176.8451 -0.026
4130 7 2 -0.1200 511.5162 180.7041 0.0
4131 7 9 0.2200 513.0242000000001 180.7041 0.0
4132 7 6 -0.3300 513.5642 181.19410000000002 -1.196
4133 7 4 0.5100 513.3252 180.6211 -2.426
4134 7 5 -0.4300 512.5892 179.5971 -2.552
4135 7 1 -0.1800 513.9462000000001 181.2191 -3.63
4136 7 3 0.0600 511.09020000000004 180.5941 -1.019
4137 7 3 0.0600 511.09420000000006 180.03810000000001 0.748
4138 7 7 0.0300 513.4242 181.2921 0.851
4139 7 3 0.0600 513.3192 181.1611 -4.521
4140 7 3 0.0600 514.2652 182.26510000000002 -3.418
4141 7 3 0.0600 514.8882000000001 180.6781 -3.859
4142 7 2 -0.1200 515.0242 180.7041 0.0
4143 7 9 0.2200 516.5322 180.7041 0.0
4144 7 6 -0.3300 517.0722 179.5081 0.49
4145 7 4 0.5100 516.8331999999999 178.27810000000002 -0.083
4146 7 5 -0.4300 516.0971999999999 178.15210000000002 -1.107
4147 7 1 -0.1800 517.4542 177.07410000000002 0.515
4148 7 3 0.0600 514.5982 179.6851 -0.11
4149 7 3 0.0600 514.6021999999999 181.4521 -0.666
4150 7 7 0.0300 516.9322 181.5551 0.588
4151 7 3 0.0600 516.8272 176.18310000000002 0.457
4152 7 3 0.0600 517.7732 177.2861 1.561
4153 7 3 0.0600 518.3962 176.8451 -0.026
4154 7 2 -0.1200 518.5322 180.7041 0.0
4155 7 9 0.2200 520.0402 180.7041 0.0
4156 7 6 -0.3300 520.5802 180.2141 -1.196
4157 7 4 0.5100 520.3412 180.7871 -2.426
4158 7 5 -0.4300 519.6052 181.8111 -2.552
4159 7 1 -0.1800 520.9622 180.18910000000002 -3.63
4160 7 3 0.0600 518.1062000000001 180.81410000000002 -1.019
4161 7 3 0.0600 518.1102 181.3701 0.748
4162 7 7 0.0300 520.4402 180.11610000000002 0.851
4163 7 3 0.0600 520.3352 180.24710000000002 -4.521
4164 7 3 0.0600 521.2812 179.1431 -3.418
4165 7 3 0.0600 521.9042000000001 180.73010000000002 -3.859
4166 7 2 -0.1200 522.0402 180.7041 0.0
4167 7 9 0.2200 523.5482000000001 180.7041 0.0
4168 7 6 -0.3300 524.0882 179.5081 0.49
4169 7 4 0.5100 523.8492 178.27810000000002 -0.083
4170 7 5 -0.4300 523.1132 178.15210000000002 -1.107
4171 7 1 -0.1800 524.4702000000001 177.07410000000002 0.515
4172 7 3 0.0600 521.6142000000001 179.6851 -0.11
4173 7 3 0.0600 521.6182 181.4521 -0.666
4174 7 7 0.0300 523.9482 181.5551 0.588
4175 7 3 0.0600 523.8432 176.18310000000002 0.457
4176 7 3 0.0600 524.7892 177.2861 1.561
4177 7 3 0.0600 525.4122000000001 176.8451 -0.026
4178 7 2 -0.1200 525.5482000000001 180.7041 0.0
4179 7 9 0.2200 527.0562000000001 180.7041 0.0
4180 7 6 -0.3300 527.5962000000001 180.2141 -1.196
4181 7 4 0.5100 527.3572 180.7871 -2.426
4182 7 5 -0.4300 526.6212 181.8111 -2.552
4183 7 1 -0.1800 527.9782000000001 180.18910000000002 -3.63
4184 7 3 0.0600 525.1222000000001 180.81410000000002 -1.019
4185 7 3 0.0600 525.1262 181.3701 0.748
4186 7 7 0.0300 527.4562000000001 180.11610000000002 0.851
4187 7 3 0.0600 527.3512000000001 180.24710000000002 -4.521
4188 7 3 0.0600 528.2972000000001 179.1431 -3.418
4189 7 3 0.0600 528.9202000000001 180.73010000000002 -3.859
4190 7 2 -0.1200 529.0562 180.7041 0.0
4191 7 9 0.2200 530.5642 180.7041 0.0
4192 7 6 -0.3300 531.1042 179.5081 0.49
4193 7 4 0.5100 530.8652 178.27810000000002 -0.083
4194 7 5 -0.4300 530.1292 178.15210000000002 -1.107
4195 7 1 -0.1800 531.4862 177.07410000000002 0.515
4196 7 3 0.0600 528.6302000000001 179.6851 -0.11
4197 7 3 0.0600 528.6342 181.4521 -0.666
4198 7 7 0.0300 530.9642 181.5551 0.588
4199 7 3 0.0600 530.8592 176.18310000000002 0.457
4200 7 3 0.0600 531.8052 177.2861 1.561
4201 7 3 0.0600 532.4282000000001 176.8451 -0.026
4202 7 2 -0.1200 530.8382 180.7041 0.0
4203 7 8 0.1900 531.4112 180.21710000000002 1.269
4204 7 6 -0.3300 532.7432 179.80710000000002 1.192
4205 7 4 0.5100 533.7912 180.64010000000002 0.807
4206 7 5 -0.4300 533.5552 181.8471 0.5039999999999999
4207 7 1 -0.1800 535.1982 180.1271 0.748
4208 7 3 0.0600 530.6512 181.75310000000002 -0.11600000000000008
4209 7 3 0.0600 530.5872 179.9951 -0.759
4210 7 7 0.0300 530.8122000000001 179.3271 1.587
4211 7 7 0.0300 531.2722 180.96110000000002 2.079
4212 7 3 0.0600 535.6712 180.1511 1.738
4213 7 3 0.0600 535.1752 179.05210000000002 0.4330000000000001
4214 7 3 0.0600 535.7982000000001 180.7041 0.0
4215 8 1 -0.1800 541.3494 180.7041 0.0
4216 8 9 0.2200 542.8754 180.7041 0.0
4217 8 6 -0.3300 543.3184 180.21110000000002 1.254
4218 8 4 0.5100 544.7074 180.1431 1.426
4219 8 5 -0.4300 545.4974 180.5001 0.517
4220 8 1 -0.1800 545.2854 179.64010000000002 2.705
4221 8 3 0.0600 540.9834 179.68110000000001 0.168
4222 8 3 0.0600 540.9734 181.07610000000003 -0.973
4223 8 3 0.0600 541.0394 181.35410000000002 0.832
4224 8 7 0.0300 543.2854 181.7041 -0.146
4225 8 3 0.0600 544.4774 179.2521 3.336
4226 8 3 0.0600 545.9034 180.42010000000002 3.204
4227 8 3 0.0600 545.9993999999999 178.8291 2.397
4228 8 2 -0.1200 544.8843999999999 180.7041 0.0
4229 8 9 0.2200 546.3924 180.7041 0.0
4230 8 6 -0.3300 546.9323999999999 180.2141 -1.196
4231 8 4 0.5100 546.6933999999999 180.7871 -2.426
4232 8 5 -0.4300 545.9573999999999 181.8111 -2.552
4233 8 1 -0.1800 547.3144 180.18910000000002 -3.63
4234 8 3 0.0600 544.4584 180.81410000000002 -1.019
4235 8 3 0.0600 544.4623999999999 181.3701 0.748
4236 8 7 0.0300 546.7923999999999 180.11610000000002 0.851
4237 8 3 0.0600 546.6873999999999 180.24710000000002 -4.521
4238 8 3 0.0600 547.6333999999999 179.1431 -3.418
4239 8 3 0.0600 548.2564 180.73010000000002 -3.859
4240 8 2 -0.1200 548.3924 180.7041 0.0
4241 8 9 0.2200 549.9004 180.7041 0.0
4242 8 6 -0.3300 550.4404 179.5081 0.49
4243 8 4 0.5100 550.2013999999999 178.27810000000002 -0.083
4244 8 5 -0.4300 549.4653999999999 178.15210000000002 -1.107
4245 8 1 -0.1800 550.8224 177.07410000000002 0.515
4246 8 3 0.0600 547.9664 179.6851 -0.11
4247 8 3 0.0600 547.9703999999999 181.4521 -0.666
4248 8 7 0.0300 550.3004 181.5551 0.588
4249 8 3 0.0600 550.1954 176.18310000000002 0.457
4250 8 3 0.0600 551.1414 177.2861 1.561
4251 8 3 0.0600 551.7644 176.8451 -0.026
4252 8 2 -0.1200 551.9004 180.7041 0.0
4253 8 9 0.2200 553.4084 180.7041 0.0
4254 8 6 -0.3300 553.9484 180.2141 -1.196
4255 8 4 0.5100 553.7094 180.7871 -2.426
4256 8 5 -0.4300 552.9734 181.8111 -2.552
4257 8 1 -0.1800 554.3304 180.18910000000002 -3.63
4258 8 3 0.0600 551.4744000000001 180.81410000000002 -1.019
4259 8 3 0.0600 551.4784 181.3701 0.748
4260 8 7 0.0300 553.8084 180.11610000000002 0.851
4261 8 3 0.0600 553.7034 180.24710000000002 -4.521
4262 8 3 0.0600 554.6494 179.1431 -3.418
4263 8 3 0.0600 555.2724000000001 180.73010000000002 -3.859
4264 8 2 -0.1200 555.4083999999999 180.7041 0.0
4265 8 9 0.2200 556.9164 180.7041 0.0
4266 8 6 -0.3300 557.4563999999999 179.5081 -0.49
4267 8 4 0.5100 557.2173999999999 178.27810000000002 0.083
4268 8 5 -0.4300 556.4813999999999 178.15210000000002 1.107
4269 8 1 -0.1800 557.8384 177.07410000000002 -0.515
4270 8 3 0.0600 554.9824 179.6851 0.11
4271 8 3 0.0600 554.9863999999999 181.4521 0.666
4272 8 7 0.0300 557.3163999999999 181.5551 -0.588
4273 8 3 0.0600 557.2113999999999 176.18310000000002 -0.457
4274 8 3 0.0600 558.1573999999999 177.2861 -1.561
4275 8 3 0.0600 558.7804 176.8451 0.026
4276 8 2 -0.1200 558.9164 180.7041 0.0
4277 8 9 0.2200 560.4244 180.7041 0.0
4278 8 6 -0.3300 560.9644 180.2141 -1.196
4279 8 4 0.5100 560.7253999999999 180.7871 -2.426
4280 8 5 -0.4300 559.9893999999999 181.8111 -2.552
4281 8 1 -0.1800 561.3464 180.18910000000002 -3.63
4282 8 3 0.0600 558.4904 180.81410000000002 -1.019
4283 8 3 0.0600 558.4943999999999 181.3701 0.748
4284 8 7 0.0300 560.8244 180.11610000000002 0.851
4285 8 3 0.0600 560.7194 180.24710000000002 -4.521
4286 8 3 0.0600 561.6654 179.1431 -3.418
4287 8 3 0.0600 562.2884 180.73010000000002 -3.859
4288 8 2 -0.1200 562.4244 180.7041 0.0
4289 8 9 0.2200 563.9324 180.7041 0.0
4290 8 6 -0.3300 564.4724 179.5081 0.49
4291 8 4 0.5100 564.2334 178.27810000000002 -0.083
4292 8 5 -0.4300 563.4974 178.15210000000002 -1.107
4293 8 1 -0.1800 564.8544 177.07410000000002 0.515
4294 8 3 0.0600 561.9984000000001 179.6851 -0.11
4295 8 3 0.0600 562.0024 181.4521 -0.666
4296 8 7 0.0300 564.3324 181.5551 0.588
4297 8 3 0.0600 564.2274 176.18310000000002 0.457
4298 8 3 0.0600 565.1734 177.2861 1.561
4299 8 3 0.0600 565.7964000000001 176.8451 -0.026
4300 8 2 -0.1200 565.9323999999999 180.7041 0.0
4301 8 9 0.2200 567.4404 180.7041 0.0
4302 8 6 -0.3300 567.9803999999999 180.2141 -1.196
4303 8 4 0.5100 567.7413999999999 180.7871 -2.426
4304 8 5 -0.4300 567.0053999999999 181.8111 -2.552
4305 8 1 -0.1800 568.3624 180.18910000000002 -3.63
4306 8 3 0.0600 565.5064 180.81410000000002 -1.019
4307 8 3 0.0600 565.5103999999999 181.3701 0.748
4308 8 7 0.0300 567.8403999999999 180.11610000000002 0.851
4309 8 3 0.0600 567.7353999999999 180.24710000000002 -4.521
4310 8 3 0.0600 568.6813999999999 179.1431 -3.418
4311 8 3 0.0600 569.3044 180.73010000000002 -3.859
4312 8 2 -0.1200 569.4404 180.7041 0.0
4313 8 9 0.2200 570.9484 180.7041 0.0
4314 8 6 -0.3300 571.4884 179.5081 -0.49
4315 8 4 0.5100 571.2493999999999 178.27810000000002 0.083
4316 8 5 -0.4300 570.5133999999999 178.15210000000002 1.107
4317 8 1 -0.1800 571.8704 177.07410000000002 -0.515
4318 8 3 0.0600 569.0144 179.6851 0.11
4319 8 3 0.0600 569.0183999999999 181.4521 0.666
4320 8 7 0.0300 571.3484 181.5551 -0.588
4321 8 3 0.0600 571.2434 176.18310000000002 -0.457
4322 8 3 0.0600 572.1894 177.2861 -1.561
4323 8 3 0.0600 572.8124 176.8451 0.026
4324 8 2 -0.1200 572.9484 180.7041 0.0
4325 8 9 0.2200 574.4564 180.7041 0.0
4326 8 6 -0.3300 574.9964 181.19410000000002 -1.196
4327 8 4 0.5100 574.7574 180.6211 -2.426
4328 8 5 -0.4300 574.0214 179.5971 -2.552
4329 8 1 -0.1800 575.3784 181.2191 -3.63
4330 8 3 0.0600 572.5224000000001 180.5941 -1.019
4331 8 3 0.0600 572.5264 180.03810000000001 0.748
4332 8 7 0.0300 574.8564 181.2921 0.851
4333 8 3 0.0600 574.7514 181.1611 -4.521
4334 8 3 0.0600 575.6974 182.26510000000002 -3.418
4335 8 3 0.0600 576.3204000000001 180.6781 -3.859
4336 8 2 -0.1200 576.4563999999999 180.7041 0.0
4337 8 9 0.2200 577.9644 180.7041 0.0
4338 8 6 -0.3300 578.5043999999999 179.5081 -0.49
4339 8 4 0.5100 578.2653999999999 178.27810000000002 0.083
4340 8 5 -0.4300 577.5293999999999 178.15210000000002 1.107
4341 8 1 -0.1800 578.8864 177.07410000000002 -0.515
4342 8 3 0.0600 576.0304 179.6851 0.11
4343 8 3 0.0600 576.0343999999999 181.4521 0.666
4344 8 7 0.0300 578.3643999999999 181.5551 -0.588
4345 8 3 0.0600 578.2593999999999 176.18310000000002 -0.457
4346 8 3 0.0600 579.2053999999999 177.2861 -1.561
4347 8 3 0.0600 579.8284 176.8451 0.026
4348 8 2 -0.1200 579.9644 180.7041 0.0
4349 8 9 0.2200 581.4724 180.7041 0.0
4350 8 6 -0.3300 582.0124 181.19410000000002 -1.196
4351 8 4 0.5100 581.7733999999999 180.6211 -2.426
4352 8 5 -0.4300 581.0373999999999 179.5971 -2.552
4353 8 1 -0.1800 582.3944 181.2191 -3.63
4354 8 3 0.0600 579.5384 180.5941 -1.019
4355 8 3 0.0600 579.5423999999999 180.03810000000001 0.748
4356 8 7 0.0300 581.8724 181.2921 0.851
4357 8 3 0.0600 581.7674 181.1611 -4.521
4358 8 3 0.0600 582.7134 182.26510000000002 -3.418
4359 8 3 0.0600 583.3364 180.6781 -3.859
4360 8 2 -0.1200 583.4724 180.7041 0.0
4361 8 9 0.2200 584.9804 180.7041 0.0
4362 8 6 -0.3300 585.5204 179.5081 0.49
4363 8 4 0.5100 585.2814 178.27810000000002 -0.083
4364 8 5 -0.4300 584.5454 178.15210000000002 -1.107
4365 8 1 -0.1800 585.9024000000001 177.07410000000002 0.515
4366 8 3 0.0600 583.0464000000001 179.6851 -0.11
4367 8 3 0.0600 583.0504 181.4521 -0.666
4368 8 7 0.0300 585.3804 181.5551 0.588
4369 8 3 0.0600 585.2754 176.18310000000002 0.457
4370 8 3 0.0600 586.2214 177.2861 1.561
4371 8 3 0.0600 586.8444000000001 176.8451 -0.026
4372 8 2 -0.1200 586.9803999999999 180.7041 0.0
4373 8 9 0.2200 588.4884 180.7041 0.0
4374 8 6 -0.3300 589.0283999999999 181.19410000000002 -1.196
4375 8 4 0.5100 588.7893999999999 180.6211 -2.426
4376 8 5 -0.4300 588.0533999999999 179.5971 -2.552
4377 8 1 -0.1800 589.4104 181.2191 -3.63
4378 8 3 0.0600 586.5544 180.5941 -1.019
4379 8 3 0.0600 586.5583999999999 180.03810000000001 0.748
4380 8 7 0.0300 588.8883999999999 181.2921 0.851
4381 8 3 0.0600 588.7833999999999 181.1611 -4.521
4382 8 3 0.0600 589.7293999999999 182.26510000000002 -3.418
4383 8 3 0.0600 590.3524 180.6781 -3.859
4384 8 2 -0.1200 590.4884 180.7041 0.0
4385 8 9 0.2200 591.9964 180.7041 0.0
4386 8 6 -0.3300 592.5364 179.5081 -0.49
4387 8 4 0.5100 592.2973999999999 178.27810000000002 0.083
4388 8 5 -0.4300 591.5613999999999 178.15210000000002 1.107
4389 8 1 -0.1800 592.9184 177.07410000000002 -0.515
4390 8 3 0.0600 590.0624 179.6851 0.11
4391 8 3 0.0600 590.0663999999999 181.4521 0.666
4392 8 7 0.0300 592.3964 181.5551 -0.588
4393 8 3 0.0600 592.2914 176.18310000000002 -0.457
4394 8 3 0.0600 593.2374 177.2861 -1.561
4395 8 3 0.0600 593.8604 176.8451 0.026
4396 8 2 -0.1200 593.9964 180.7041 0.0
4397 8 9 0.2200 595.5044 180.7041 0.0
4398 8 6 -0.3300 596.0444 180.2141 -1.196
4399 8 4 0.5100 595.8054 180.7871 -2.426
4400 8 5 -0.4300 595.0694 181.8111 -2.552
4401 8 1 -0.1800 596.4264000000001 180.18910000000002 -3.63
4402 8 3 0.0600 593.5704000000001 180.81410000000002 -1.019
4403 8 3 0.0600 593.5744 181.3701 0.748
4404 8 7 0.0300 595.9044 180.11610000000002 0.851
4405 8 3 0.0600 595.7994 180.24710000000002 -4.521
4406 8 3 0.0600 596.7454 179.1431 -3.418
4407 8 3 0.0600 597.3684000000001 180.73010000000002 -3.859
4408 8 2 -0.1200 597.5043999999999 180.7041 0.0
4409 8 9 0.2200 599.0124 180.7041 0.0
4410 8 6 -0.3300 599.5523999999999 179.5081 0.49
4411 8 4 0.5100 599.3133999999999 178.27810000000002 -0.083
4412 8 5 -0.4300 598.5773999999999 178.15210000000002 -1.107
4413 8 1 -0.1800 599.9344 177.07410000000002 0.515
4414 8 3 0.0600 597.0784 179.6851 -0.11
4415 8 3 0.0600 597.0823999999999 181.4521 -0.666
4416 8 7 0.0300 599.4123999999999 181.5551 0.588
4417 8 3 0.0600 599.3073999999999 176.18310000000002 0.457
4418 8 3 0.0600 600.2533999999999 177.2861 1.561
4419 8 3 0.0600 600.8764 176.8451 -0.026
4420 8 2 -0.1200 601.0124 180.7041 0.0
4421 8 9 0.2200 602.5204 180.7041 0.0
4422 8 6 -0.3300 603.0604 181.19410000000002 -1.196
4423 8 4 0.5100 602.8213999999999 180.6211 -2.426
4424 8 5 -0.4300 602.0853999999999 179.5971 -2.552
4425 8 1 -0.1800 603.4424 181.2191 -3.63
4426 8 3 0.0600 600.5864 180.5941 -1.019
4427 8 3 0.0600 600.5903999999999 180.03810000000001 0.748
4428 8 7 0.0300 602.9204 181.2921 0.851
4429 8 3 0.0600 602.8154 181.1611 -4.521
4430 8 3 0.0600 603.7614 182.26510000000002 -3.418
4431 8 3 0.0600 604.3844 180.6781 -3.859
4432 8 2 -0.1200 604.5204 180.7041 0.0
4433 8 9 0.2200 606.0284 180.7041 0.0
4434 8 6 -0.3300 606.5684 179.5081 0.49
4435 8 4 0.5100 606.3294 178.27810000000002 -0.083
4436 8 5 -0.4300 605.5934 178.15210000000002 -1.107
4437 8 1 -0.1800 606.9504000000001 177.07410000000002 0.515
4438 8 3 0.0600 604.0944000000001 179.6851 -0.11
4439 8 3 0.0600 604.0984 181.4521 -0.666
4440 8 7 0.0300 606.4284 181.5551 0.588
4441 8 3 0.0600 606.3234 176.18310000000002 0.457
4442 8 3 0.0600 607.2694 177.2861 1.561
4443 8 3 0.0600 607.8924000000001 176.8451 -0.026
4444 8 2 -0.1200 608.0283999999999 180.7041 0.0
4445 8 9 0.2200 609.5364 180.7041 0.0
4446 8 6 -0.3300 610.0763999999999 180.2141 -1.196
4447 8 4 0.5100 609.8373999999999 180.7871 -2.426
4448 8 5 -0.4300 609.1013999999999 181.8111 -2.552
4449 8 1 -0.1800 610.4584 180.18910000000002 -3.63
4450 8 3 0.0600 607.6024 180.81410000000002 -1.019
4451 8 3 0.0600 607.6063999999999 181.3701 0.748
4452 8 7 0.0300 609.9363999999999 180.11610000000002 0.851
4453 8 3 0.0600 609.8313999999999 180.24710000000002 -4.521
4454 8 3 0.0600 610.7774 179.1431 -3.418
4455 8 3 0.0600 611.4004 180.73010000000002 -3.859
4456 8 2 -0.1200 611.5364 180.7041 0.0
4457 8 9 0.2200 613.0444 180.7041 0.0
4458 8 6 -0.3300 613.5844 179.5081 -0.49
4459 8 4 0.5100 613.3453999999999 178.27810000000002 0.083
4460 8 5 -0.4300 612.6093999999999 178.15210000000002 1.107
4461 8 1 -0.1800 613.9664 177.07410000000002 -0.515
4462 8 3 0.0600 611.1104 179.6851 0.11
4463 8 3 0.0600 611.1143999999999 181.4521 0.666
4464 8 7 0.0300 613.4444 181.5551 -0.588
4465 8 3 0.0600 613.3394 176.18310000000002 -0.457
4466 8 3 0.0600 614.2854 177.2861 -1.561
4467 8 3 0.0600 614.9084 176.8451 0.026
4468 8 2 -0.1200 615.0444 180.7041 0.0
4469 8 9 0.2200 616.5524 180.7041 0.0
4470 8 6 -0.3300 617.0924 180.2141 -1.196
4471 8 4 0.5100 616.8534 180.7871 -2.426
4472 8 5 -0.4300 616.1174 181.8111 -2.552
4473 8 1 -0.1800 617.4744000000001 180.18910000000002 -3.63
4474 8 3 0.0600 614.6184000000001 180.81410000000002 -1.019
4475 8 3 0.0600 614.6224 181.3701 0.748
4476 8 7 0.0300 616.9524 180.11610000000002 0.851
4477 8 3 0.0600 616.8474 180.24710000000002 -4.521
4478 8 3 0.0600 617.7934 179.1431 -3.418
4479 8 3 0.0600 618.4164000000001 180.73010000000002 -3.859
4480 8 2 -0.1200 618.5523999999999 180.7041 0.0
4481 8 9 0.2200 620.0604 180.7041 0.0
4482 8 6 -0.3300 620.6003999999999 179.5081 0.49
4483 8 4 0.5100 620.3613999999999 178.27810000000002 -0.083
4484 8 5 -0.4300 619.6253999999999 178.15210000000002 -1.107
4485 8 1 -0.1800 620.9824 177.07410000000002 0.515
4486 8 3 0.0600 618.1264 179.6851 -0.11
4487 8 3 0.0600 618.1303999999999 181.4521 -0.666
4488 8 7 0.0300 620.4603999999999 181.5551 0.588
4489 8 3 0.0600 620.3553999999999 176.18310000000002 0.457
4490 8 3 0.0600 621.3014 177.2861 1.561
4491 8 3 0.0600 621.9244 176.8451 -0.026
4492 8 2 -0.1200 622.0604 180.7041 0.0
4493 8 9 0.2200 623.5684 180.7041 0.0
4494 8 6 -0.3300 624.1084 181.19410000000002 -1.196
4495 8 4 0.5100 623.8693999999999 180.6211 -2.426
4496 8 5 -0.4300 623.1333999999999 179.5971 -2.552
4497 8 1 -0.1800 624.4904 181.2191 -3.63
4498 8 3 0.0600 621.6344 180.5941 -1.019
4499 8 3 0.0600 621.6383999999999 180.03810000000001 0.748
4500 8 7 0.0300 623.9684 181.2921 0.851
4501 8 3 0.0600 623.8634 181.1611 -4.521
4502 8 3 0.0600 624.8094 182.26510000000002 -3.418
4503 8 3 0.0600 625.4324 180.6781 -3.859
4504 8 2 -0.1200 625.5684 180.7041 0.0
4505 8 9 0.2200 627.0764 180.7041 0.0
4506 8 6 -0.3300 627.6164 179.5081 0.49
4507 8 4 0.5100 627.3774 178.27810000000002 -0.083
4508 8 5 -0.4300 626.6414 178.15210000000002 -1.107
4509 8 1 -0.1800 627.9984000000001 177.07410000000002 0.515
4510 8 3 0.0600 625.1424000000001 179.6851 -0.11
4511 8 3 0.0600 625.1464 181.4521 -0.666
4512 8 7 0.0300 627.4764 181.5551 0.588
4513 8 3 0.0600 627.3714 176.18310000000002 0.457
4514 8 3 0.0600 628.3174 177.2861 1.561
4515 8 3 0.0600 628.9404000000001 176.8451 -0.026
4516 8 2 -0.1200 629.0763999999999 180.7041 0.0
4517 8 9 0.2200 630.5844 180.7041 0.0
4518 8 6 -0.3300 631.1243999999999 180.2141 -1.196
4519 8 4 0.5100 630.8853999999999 180.7871 -2.426
4520 8 5 -0.4300 630.1493999999999 181.8111 -2.552
4521 8 1 -0.1800 631.5064 180.18910000000002 -3.63
4522 8 3 0.0600 628.6504 180.81410000000002 -1.019
4523 8 3 0.0600 628.6543999999999 181.3701 0.748
4524 8 7 0.0300 630.9843999999999 180.11610000000002 0.851
4525 8 3 0.0600 630.8793999999999 180.24710000000002 -4.521
4526 8 3 0.0600 631.8254 179.1431 -3.418
4527 8 3 0.0600 632.4484 180.73010000000002 -3.859
4528 8 2 -0.1200 632.5844 180.7041 0.0
4529 8 9 0.2200 634.0924 180.7041 0.0
4530 8 6 -0.3300 634.6324 179.5081 0.49
4531 8 4 0.5100 634.3933999999999 178.27810000000002 -0.083
4532 8 5 -0.4300 633.6573999999999 178.15210000000002 -1.107
4533 8 1 -0.1800 635.0144 177.07410000000002 0.515
4534 8 3 0.0600 632.1584 179.6851 -0.11
4535 8 3 0.0600 632.1623999999999 181.4521 -0.666
4536 8 7 0.0300 634.4924 181.5551 0.588
4537 8 3 0.0600 634.3874 176.18310000000002 0.457
4538 8 3 0.0600 635.3334 177.2861 1.561
4539 8 3 0.0600 635.9564 176.8451 -0.026
4540 8 2 -0.1200 636.0924 180.7041 0.0
4541 8 9 0.2200 637.6004 180.7041 0.0
4542 8 6 -0.3300 638.1404 180.2141 -1.196
4543 8 4 0.5100 637.9014 180.7871 -2.426
4544 8 5 -0.4300 637.1654 181.8111 -2.552
4545 8 1 -0.1800 638.5224000000001 180.18910000000002 -3.63
4546 8 3 0.0600 635.6664000000001 180.81410000000002 -1.019
4547 8 3 0.0600 635.6704 181.3701 0.748
4548 8 7 0.0300 638.0004 180.11610000000002 0.851
4549 8 3 0.0600 637.8954 180.24710000000002 -4.521
4550 8 3 0.0600 638.8414 179.1431 -3.418
4551 8 3 0.0600 639.4644000000001 180.73010000000002 -3.859
4552 8 2 -0.1200 639.6003999999999 180.7041 0.0
4553 8 9 0.2200 641.1084 180.7041 0.0
4554 8 6 -0.3300 641.6483999999999 179.5081 0.49
4555 8 4 0.5100 641.4093999999999 178.27810000000002 -0.083
4556 8 5 -0.4300 640.6733999999999 178.15210000000002 -1.107
4557 8 1 -0.1800 642.0304 177.07410000000002 0.515
4558 8 3 0.0600 639.1744 179.6851 -0.11
4559 8 3 0.0600 639.1783999999999 181.4521 -0.666
4560 8 7 0.0300 641.5083999999999 181.5551 0.588
4561 8 3 0.0600 641.4033999999999 176.18310000000002 0.457
4562 8 3 0.0600 642.3494 177.2861 1.561
4563 8 3 0.0600 642.9724 176.8451 -0.026
4564 8 2 -0.1200 643.1084 180.7041 0.0
4565 8 9 0.2200 644.6164 180.7041 0.0
4566 8 6 -0.3300 645.1564 180.2141 -1.196
4567 8 4 0.5100 644.9173999999999 180.7871 -2.426
4568 8 5 -0.4300 644.1813999999999 181.8111 -2.552
4569 8 1 -0.1800 645.5384 180.18910000000002 -3.63
4570 8 3 0.0600 642.6824 180.81410000000002 -1.019
4571 8 3 0.0600 642.6863999999999 181.3701 0.748
4572 8 7 0.0300 645.0164 180.11610000000002 0.851
4573 8 3 0.0600 644.9114 180.24710000000002 -4.521
4574 8 3 0.0600 645.8574 179.1431 -3.418
4575 8 3 0.0600 646.4804 180.73010000000002 -3.859
4576 8 2 -0.1200 646.6164 180.7041 0.0
4577 8 9 0.2200 648.1244 180.7041 0.0
4578 8 6 -0.3300 648.6644 179.5081 0.49
4579 8 4 0.5100 648.4254 178.27810000000002 -0.083
4580 8 5 -0.4300 647.6894 178.15210000000002 -1.107
4581 8 1 -0.1800 649.0464000000001 177.07410000000002 0.515
4582 8 3 0.0600 646.1904000000001 179.6851 -0.11
4583 8 3 0.0600 646.1944 181.4521 -0.666
4584 8 7 0.0300 648.5244 181.5551 0.588
4585 8 3 0.0600 648.4194 176.18310000000002 0.457
4586 8 3 0.0600 649.3654 177.2861 1.561
4587 8 3 0.0600 649.9884000000001 176.8451 -0.026
4588 8 2 -0.1200 650.1243999999999 180.7041 0.0
4589 8 9 0.2200 651.6324 180.7041 0.0
4590 8 6 -0.3300 652.1723999999999 181.19410000000002 -1.196
4591 8 4 0.5100 651.9333999999999 180.6211 -2.426
4592 8 5 -0.4300 651.1973999999999 179.5971 -2.552
4593 8 1 -0.1800 652.5544 181.2191 -3.63
4594 8 3 0.0600 649.6984 180.5941 -1.019
4595 8 3 0.0600 649.7023999999999 180.03810000000001 0.748
4596 8 7 0.0300 652.0323999999999 181.2921 0.851
4597 8 3 0.0600 651.9273999999999 181.1611 -4.521
4598 8 3 0.0600 652.8734 182.26510000000002 -3.418
4599 8 3 0.0600 653.4964 180.6781 -3.859
4600 8 2 -0.1200 653.6324 180.7041 0.0
4601 8 9 0.2200 655.1404 180.7041 0.0
4602 8 6 -0.3300 655.6804 179.5081 -0.49
4603 8 4 0.5100 655.4413999999999 178.27810000000002 0.083
4604 8 5 -0.4300 654.7053999999999 178.15210000000002 1.107
4605 8 1 -0.1800 656.0624 177.07410000000002 -0.515
4606 8 3 0.0600 653.2064 179.6851 0.11
4607 8 3 0.0600 653.2103999999999 181.4521 0.666
4608 8 7 0.0300 655.5404 181.5551 -0.588
4609 8 3 0.0600 655.4354 176.18310000000002 -0.457
4610 8 3 0.0600 656.3814 177.2861 -1.561
4611 8 3 0.0600 657.0044 176.8451 0.026
4612 8 2 -0.1200 657.1404 180.7041 0.0
4613 8 9 0.2200 658.6484 180.7041 0.0
4614 8 6 -0.3300 659.1884 181.19410000000002 -1.196
4615 8 4 0.5100 658.9494 180.6211 -2.426
4616 8 5 -0.4300 658.2134 179.5971 -2.552
4617 8 1 -0.1800 659.5704000000001 181.2191 -3.63
4618 8 3 0.0600 656.7144000000001 180.5941 -1.019
4619 8 3 0.0600 656.7184 180.03810000000001 0.748
4620 8 7 0.0300 659.0484 181.2921 0.851
4621 8 3 0.0600 658.9434 181.1611 -4.521
4622 8 3 0.0600 659.8894 182.26510000000002 -3.418
4623 8 3 0.0600 660.5124000000001 180.6781 -3.859
4624 8 2 -0.1200 660.6483999999999 180.7041 0.0
4625 8 9 0.2200 662.1564 180.7041 0.0
4626 8 6 -0.3300 662.6963999999999 179.5081 0.49
4627 8 4 0.5100 662.4573999999999 178.27810000000002 -0.083
4628 8 5 -0.4300 661.7213999999999 178.15210000000002 -1.107
4629 8 1 -0.1800 663.0784 177.07410000000002 0.515
4630 8 3 0.0600 660.2224 179.6851 -0.11
4631 8 3 0.0600 660.2263999999999 181.4521 -0.666
4632 8 7 0.0300 662.5563999999999 181.5551 0.588
4633 8 3 0.0600 662.4513999999999 176.18310000000002 0.457
4634 8 3 0.0600 663.3974 177.2861 1.561
4635 8 3 0.0600 664.0204 176.8451 -0.026
4636 8 2 -0.1200 664.1564 180.7041 0.0
4637 8 9 0.2200 665.6644 180.7041 0.0
4638 8 6 -0.3300 666.2044 180.2141 -1.196
4639 8 4 0.5100 665.9653999999999 180.7871 -2.426
4640 8 5 -0.4300 665.2293999999999 181.8111 -2.552
4641 8 1 -0.1800 666.5864 180.18910000000002 -3.63
4642 8 3 0.0600 663.7304 180.81410000000002 -1.019
4643 8 3 0.0600 663.7343999999999 181.3701 0.748
4644 8 7 0.0300 666.0644 180.11610000000002 0.851
4645 8 3 0.0600 665.9594 180.24710000000002 -4.521
4646 8 3 0.0600 666.9054 179.1431 -3.418
4647 8 3 0.0600 667.5284 180.73010000000002 -3.859
4648 8 2 -0.1200 667.6644 180.7041 0.0
4649 8 9 0.2200 669.1724 180.7041 0.0
4650 8 6 -0.3300 669.7124 179.5081 0.49
4651 8 4 0.5100 669.4734 178.27810000000002 -0.083
4652 8 5 -0.4300 668.7374 178.15210000000002 -1.107
4653 8 1 -0.1800 670.0944000000001 177.07410000000002 0.515
4654 8 3 0.0600 667.2384000000001 179.6851 -0.11
4655 8 3 0.0600 667.2424 181.4521 -0.666
4656 8 7 0.0300 669.5724 181.5551 0.588
4657 8 3 0.0600 669.4674 176.18310000000002 0.457
4658 8 3 0.0600 670.4134 177.2861 1.561
4659 8 3 0.0600 671.0364000000001 176.8451 -0.026
4660 8 2 -0.1200 671.1723999999999 180.7041 0.0
4661 8 9 0.2200 672.6804 180.7041 0.0
4662 8 6 -0.3300 673.2203999999999 181.19410000000002 -1.196
4663 8 4 0.5100 672.9813999999999 180.6211 -2.426
4664 8 5 -0.4300 672.2453999999999 179.5971 -2.552
4665 8 1 -0.1800 673.6024 181.2191 -3.63
4666 8 3 0.0600 670.7464 180.5941 -1.019
4667 8 3 0.0600 670.7503999999999 180.03810000000001 0.748
4668 8 7 0.0300 673.0803999999999 181.2921 0.851
4669 8 3 0.0600 672.9753999999999 181.1611 -4.521
4670 8 3 0.0600 673.9214 182.26510000000002 -3.418
4671 8 3 0.0600 674.5444 180.6781 -3.859
4672 8 2 -0.1200 674.6804 180.7041 0.0
4673 8 9 0.2200 676.1884 180.7041 0.0
4674 8 6 -0.3300 676.7284 179.5081 0.49
4675 8 4 0.5100 676.4893999999999 178.27810000000002 -0.083
4676 8 5 -0.4300 675.7533999999999 178.15210000000002 -1.107
4677 8 1 -0.1800 677.1104 177.07410000000002 0.515
4678 8 3 0.0600 674.2544 179.6851 -0.11
4679 8 3 0.0600 674.2583999999999 181.4521 -0.666
4680 8 7 0.0300 676.5884 181.5551 0.588
4681 8 3 0.0600 676.4834 176.18310000000002 0.457
4682 8 3 0.0600 677.4294 177.2861 1.561
4683 8 3 0.0600 678.0524 176.8451 -0.026
4684 8 2 -0.1200 678.1884 180.7041 0.0
4685 8 9 0.2200 679.6964 180.7041 0.0
4686 8 6 -0.3300 680.2364 181.19410000000002 -1.196
4687 8 4 0.5100 679.9974 180.6211 -2.426
4688 8 5 -0.4300 679.2614 179.5971 -2.552
4689 8 1 -0.1800 680.6184000000001 181.2191 -3.63
4690 8 3 0.0600 677.7624000000001 180.5941 -1.019
4691 8 3 0.0600 677.7664 180.03810000000001 0.748
4692 8 7 0.0300 680.0964 181.2921 0.851
4693 8 3 0.0600 679.9914 181.1611 -4.521
4694 8 3 0.0600 680.9374 182.26510000000002 -3.418
4695 8 3 0.0600 681.5604000000001 180.6781 -3.859
4696 8 2 -0.1200 681.6963999999999 180.7041 0.0
4697 8 9 0.2200 683.2044 180.7041 0.0
4698 8 6 -0.3300 683.7443999999999 179.5081 0.49
4699 8 4 0.5100 683.5053999999999 178.27810000000002 -0.083
4700 8 5 -0.4300 682.7693999999999 178.15210000000002 -1.107
4701 8 1 -0.1800 684.1264 177.07410000000002 0.515
4702 8 3 0.0600 681.2704 179.6851 -0.11
4703 8 3 0.0600 681.2743999999999 181.4521 -0.666
4704 8 7 0.0300 683.6043999999999 181.5551 0.588
4705 8 3 0.0600 683.4993999999999 176.18310000000002 0.457
4706 8 3 0.0600 684.4454 177.2861 1.561
4707 8 3 0.0600 685.0684 176.8451 -0.026
4708 8 2 -0.1200 685.2044 180.7041 0.0
4709 8 9 0.2200 686.7124 180.7041 0.0
4710 8 6 -0.3300 687.2524 180.2141 -1.196
4711 8 4 0.5100 687.0133999999999 180.7871 -2.426
4712 8 5 -0.4300 686.2774 181.8111 -2.552
4713 8 1 -0.1800 687.6344 180.18910000000002 -3.63
4714 8 3 0.0600 684.7784 180.81410000000002 -1.019
4715 8 3 0.0600 684.7823999999999 181.3701 0.748
4716 8 7 0.0300 687.1124 180.11610000000002 0.851
4717 8 3 0.0600 687.0074 180.24710000000002 -4.521
4718 8 3 0.0600 687.9534 179.1431 -3.418
4719 8 3 0.0600 688.5764 180.73010000000002 -3.859
4720 8 2 -0.1200 688.7124 180.7041 0.0
4721 8 9 0.2200 690.2204 180.7041 0.0
4722 8 6 -0.3300 690.7604 179.5081 0.49
4723 8 4 0.5100 690.5214 178.27810000000002 -0.083
4724 8 5 -0.4300 689.7854 178.15210000000002 -1.107
4725 8 1 -0.1800 691.1424000000001 177.07410000000002 0.515
4726 8 3 0.0600 688.2864000000001 179.6851 -0.11
4727 8 3 0.0600 688.2904 181.4521 -0.666
4728 8 7 0.0300 690.6204 181.5551 0.588
4729 8 3 0.0600 690.5154 176.18310000000002 0.457
4730 8 3 0.0600 691.4614 177.2861 1.561
4731 8 3 0.0600 692.0844000000001 176.8451 -0.026
4732 8 2 -0.1200 692.2203999999999 180.7041 0.0
4733 8 9 0.2200 693.7284 180.7041 0.0
4734 8 6 -0.3300 694.2683999999999 180.2141 -1.196
4735 8 4 0.5100 694.0293999999999 180.7871 -2.426
4736 8 5 -0.4300 693.2933999999999 181.8111 -2.552
4737 8 1 -0.1800 694.6504 180.18910000000002 -3.63
4738 8 3 0.0600 691.7944 180.81410000000002 -1.019
4739 8 3 0.0600 691.7983999999999 181.3701 0.748
4740 8 7 0.0300 694.1283999999999 180.11610000000002 0.851
4741 8 3 0.0600 694.0233999999999 180.24710000000002 -4.521
4742 8 3 0.0600 694.9694 179.1431 -3.418
4743 8 3 0.0600 695.5924 180.73010000000002 -3.859
4744 8 2 -0.1200 695.7284 180.7041 0.0
4745 8 9 0.2200 697.2364 180.7041 0.0
4746 8 6 -0.3300 697.7764 179.5081 -0.49
4747 8 4 0.5100 697.5373999999999 178.27810000000002 0.083
4748 8 5 -0.4300 696.8014 178.15210000000002 1.107
4749 8 1 -0.1800 698.1584 177.07410000000002 -0.515
4750 8 3 0.0600 695.3024 179.6851 0.11
4751 8 3 0.0600 695.3063999999999 181.4521 0.666
4752 8 7 0.0300 697.6364 181.5551 -0.588
4753 8 3 0.0600 697.5314 176.18310000000002 -0.457
4754 8 3 0.0600 698.4774 177.2861 -1.561
4755 8 3 0.0600 699.1004 176.8451 0.026
4756 8 2 -0.1200 699.2363999999999 180.7041 0.0
4757 8 9 0.2200 700.7443999999999 180.7041 0.0
4758 8 6 -0.3300 701.2843999999999 180.2141 -1.196
4759 8 4 0.5100 701.0453999999999 180.7871 -2.426
4760 8 5 -0.4300 700.3093999999999 181.8111 -2.552
4761 8 1 -0.1800 701.6664 180.18910000000002 -3.63
4762 8 3 0.0600 698.8104 180.81410000000002 -1.019
4763 8 3 0.0600 698.8143999999999 181.3701 0.748
4764 8 7 0.0300 701.1443999999999 180.11610000000002 0.851
4765 8 3 0.0600 701.0393999999999 180.24710000000002 -4.521
4766 8 3 0.0600 701.9853999999999 179.1431 -3.418
4767 8 3 0.0600 702.6084 180.73010000000002 -3.859
4768 8 2 -0.1200 702.7443999999999 180.7041 0.0
4769 8 9 0.2200 704.2524 180.7041 0.0
4770 8 6 -0.3300 704.7923999999999 179.5081 0.49
4771 8 4 0.5100 704.5533999999999 178.27810000000002 -0.083
4772 8 5 -0.4300 703.8173999999999 178.15210000000002 -1.107
4773 8 1 -0.1800 705.1744 177.07410000000002 0.515
4774 8 3 0.0600 702.3184 179.6851 -0.11
4775 8 3 0.0600 702.3223999999999 181.4521 -0.666
4776 8 7 0.0300 704.6524 181.5551 0.588
4777 8 3 0.0600 704.5473999999999 176.18310000000002 0.457
4778 8 3 0.0600 705.4934 177.2861 1.561
4779 8 3 0.0600 706.1164 176.8451 -0.026
4780 8 2 -0.1200 706.2524 180.7041 0.0
4781 8 9 0.2200 707.7604 180.7041 0.0
4782 8 6 -0.3300 708.3004 180.2141 -1.196
4783 8 4 0.5100 708.0613999999999 180.7871 -2.426
4784 8 5 -0.4300 707.3254 181.8111 -2.552
4785 8 1 -0.1800 708.6824 180.18910000000002 -3.63
4786 8 3 0.0600 705.8264 180.81410000000002 -1.019
4787 8 3 0.0600 705.8303999999999 181.3701 0.748
4788 8 7 0.0300 708.1604 180.11610000000002 0.851
4789 8 3 0.0600 708.0554 180.24710000000002 -4.521
4790 8 3 0.0600 709.0014 179.1431 -3.418
4791 8 3 0.0600 709.6244 180.73010000000002 -3.859
4792 8 2 -0.1200 709.7604 180.7041 0.0
4793 8 9 0.2200 711.2684 180.7041 0.0
4794 8 6 -0.3300 711.8084 179.5081 -0.49
4795 8 4 0.5100 711.5694 178.27810000000002 0.083
4796 8 5 -0.4300 710.8334 178.15210000000002 1.107
4797 8 1 -0.1800 712.1904000000001 177.07410000000002 -0.515
4798 8 3 0.0600 709.3344000000001 179.6851 0.11
4799 8 3 0.0600 709.3384 181.4521 0.666
4800 8 7 0.0300 711.6684 181.5551 -0.588
4801 8 3 0.0600 711.5634 176.18310000000002 -0.457
4802 8 3 0.0600 712.5094 177.2861 -1.561
4803 8 3 0.0600 713.1324000000001 176.8451 0.026
4804 8 2 -0.1200 711.5423999999999 180.7041 0.0
4805 8 8 0.1900 712.1153999999999 181.1911 1.269
4806 8 6 -0.3300 713.4473999999999 181.6011 1.192
4807 8 4 0.5100 714.4953999999999 180.7681 0.807
4808 8 5 -0.4300 714.2593999999999 179.5611 0.5040000000000001
4809 8 1 -0.1800 715.9024 181.2811 0.748
4810 8 3 0.0600 711.3553999999999 179.6551 -0.11599999999999994
4811 8 3 0.0600 711.2914 181.41310000000001 -0.759
4812 8 7 0.0300 711.5164 182.08110000000002 1.587
4813 8 7 0.0300 711.9763999999999 180.4471 2.079
4814 8 3 0.0600 716.3753999999999 181.2571 1.738
4815 8 3 0.0600 715.8793999999999 182.3561 0.4329999999999999
4816 8 3 0.0600 716.5024 180.7041 0.0
4817 9 1 -0.1800 -0.763 361.4082 0.0
4818 9 9 0.2200 0.763 361.4082 0.0
4819 9 6 -0.3300 1.206 360.9152 1.254
4820 9 4 0.5100 2.595 360.84720000000004 1.426
4821 9 5 -0.4300 3.385 361.2042 0.517
4822 9 1 -0.1800 3.173 360.3442 2.705
4823 9 3 0.0600 -1.129 360.3852 0.168
4824 9 3 0.0600 -1.139 361.78020000000004 -0.973
4825 9 3 0.0600 -1.073 362.0582 0.832
4826 9 7 0.0300 1.173 362.4082 -0.146
4827 9 3 0.0600 2.365 359.9562 3.336
4828 9 3 0.0600 3.791 361.12420000000003 3.204
4829 9 3 0.0600 3.887 359.5332 2.397
4830 9 2 -0.1200 2.772 361.4082 0.0
4831 9 9 0.2200 4.279999999999999 361.4082 0.0
4832 9 6 -0.3300 4.82 361.89820000000003 -1.196
4833 9 4 0.5100 4.5809999999999995 361.3252 -2.426
4834 9 5 -0.4300 3.8449999999999998 360.3012 -2.552
4835 9 1 -0.1800 5.202 361.9232 -3.63
4836 9 3 0.0600 2.346 361.2982 -1.019
4837 9 3 0.0600 2.3499999999999996 360.7422 0.748
4838 9 7 0.0300 4.68 361.99620000000004 0.851
4839 9 3 0.0600 4.574999999999999 361.8652 -4.521
4840 9 3 0.0600 5.521 362.9692 -3.418
4841 9 3 0.0600 6.144 361.3822 -3.859
4842 9 2 -0.1200 6.279999999999999 361.4082 0.0
4843 9 9 0.2200 7.788 361.4082 0.0
4844 9 6 -0.3300 8.328 360.2122 0.49
4845 9 4 0.5100 8.089 358.98220000000003 -0.083
4846 9 5 -0.4300 7.353 358.8562 -1.107
4847 9 1 -0.1800 8.709999999999999 357.7782 0.515
4848 9 3 0.0600 5.854 360.3892 -0.11
4849 9 3 0.0600 5.858 362.1562 -0.666
4850 9 7 0.0300 8.187999999999999 362.2592 0.588
4851 9 3 0.0600 8.083 356.8872 0.457
4852 9 3 0.0600 9.029 357.9902 1.561
4853 9 3 0.0600 9.652 357.54920000000004 -0.026
4854 9 2 -0.1200 9.788 361.4082 0.0
4855 9 9 0.2200 11.296 361.4082 0.0
4856 9 6 -0.3300 11.836 360.9182 -1.196
4857 9 4 0.5100 11.597 361.49120000000005 -2.426
4858 9 5 -0.4300 10.861 362.51520000000005 -2.552
4859 9 1 -0.1800 12.218 360.89320000000004 -3.63
4860 9 3 0.0600 9.362 361.51820000000004 -1.019
4861 9 3 0.0600 9.366 362.0742 0.748
4862 9 7 0.0300 11.696 360.8202 0.851
4863 9 3 0.0600 11.591 360.95120000000003 -4.521
4864 9 3 0.0600 12.536999999999999 359.84720000000004 -3.418
4865 9 3 0.0600 13.16 361.43420000000003 -3.859
4866 9 2 -0.1200 13.296000000000001 361.4082 0.0
4867 9 9 0.2200 14.804 361.4082 0.0
4868 9 6 -0.3300 15.344000000000001 360.2122 0.49
4869 9 4 0.5100 15.105 358.98220000000003 -0.083
4870 9 5 -0.4300 14.369000000000002 358.8562 -1.107
4871 9 1 -0.1800 15.726 357.7782 0.515
4872 9 3 0.0600 12.870000000000001 360.3892 -0.11
4873 9 3 0.0600 12.874 362.1562 -0.666
4874 9 7 0.0300 15.204 362.2592 0.588
4875 9 3 0.0600 15.099 356.8872 0.457
4876 9 3 0.0600 16.045 357.9902 1.561
4877 9 3 0.0600 16.668 357.54920000000004 -0.026
4878 9 2 -0.1200 16.804 361.4082 0.0
4879 9 9 0.2200 18.312 361.4082 0.0
4880 9 6 -0.3300 18.852 361.89820000000003 -1.196
4881 9 4 0.5100 18.613 361.3252 -2.426
4882 9 5 -0.4300 17.877 360.3012 -2.552
4883 9 1 -0.1800 19.233999999999998 361.9232 -3.63
4884 9 3 0.0600 16.378 361.2982 -1.019
4885 9 3 0.0600 16.382 360.7422 0.748
4886 9 7 0.0300 18.712 361.99620000000004 0.851
4887 9 3 0.0600 18.607 361.8652 -4.521
4888 9 3 0.0600 19.553 362.9692 -3.418
4889 9 3 0.0600 20.176 361.3822 -3.859
4890 9 2 -0.1200 20.311999999999998 361.4082 0.0
4891 9 9 0.2200 21.82 361.4082 0.0
4892 9 6 -0.3300 22.36 360.2122 0.49
4893 9 4 0.5100 22.121 358.98220000000003 -0.083
4894 9 5 -0.4300 21.384999999999998 358.8562 -1.107
4895 9 1 -0.1800 22.741999999999997 357.7782 0.515
4896 9 3 0.0600 19.886 360.3892 -0.11
4897 9 3 0.0600 19.89 362.1562 -0.666
4898 9 7 0.0300 22.22 362.2592 0.588
4899 9 3 0.0600 22.115 356.8872 0.457
4900 9 3 0.0600 23.061 357.9902 1.561
4901 9 3 0.0600 23.683999999999997 357.54920000000004 -0.026
4902 9 2 -0.1200 23.82 361.4082 0.0
4903 9 9 0.2200 25.328000000000003 361.4082 0.0
4904 9 6 -0.3300 25.868000000000002 360.9182 -1.196
4905 9 4 0.5100 25.629 361.49120000000005 -2.426
4906 9 5 -0.4300 24.893 362.51520000000005 -2.552
4907 9 1 -0.1800 26.25 360.89320000000004 -3.63
4908 9 3 0.0600 23.394000000000002 361.51820000000004 -1.019
4909 9 3 0.0600 23.398000000000003 362.0742 0.748
4910 9 7 0.0300 25.728 360.8202 0.851
4911 9 3 0.0600 25.623 360.95120000000003 -4.521
4912 9 3 0.0600 26.569000000000003 359.84720000000004 -3.418
4913 9 3 0.0600 27.192 361.43420000000003 -3.859
4914 9 2 -0.1200 27.328 361.4082 0.0
4915 9 9 0.2200 28.836000000000002 361.4082 0.0
4916 9 6 -0.3300 29.376 360.2122 0.49
4917 9 4 0.5100 29.137 358.98220000000003 -0.083
4918 9 5 -0.4300 28.401 358.8562 -1.107
4919 9 1 -0.1800 29.758 357.7782 0.515
4920 9 3 0.0600 26.902 360.3892 -0.11
4921 9 3 0.0600 26.906000000000002 362.1562 -0.666
4922 9 7 0.0300 29.236 362.2592 0.588
4923 9 3 0.0600 29.131 356.8872 0.457
4924 9 3 0.0600 30.077 357.9902 1.561
4925 9 3 0.0600 30.7 357.54920000000004 -0.026
4926 9 2 -0.1200 30.836 361.4082 0.0
4927 9 9 0.2200 32.344 361.4082 0.0
4928 9 6 -0.3300 32.884 361.89820000000003 -1.196
4929 9 4 0.5100 32.645 361.3252 -2.426
4930 9 5 -0.4300 31.909 360.3012 -2.552
4931 9 1 -0.1800 33.266 361.9232 -3.63
4932 9 3 0.0600 30.41 361.2982 -1.019
4933 9 3 0.0600 30.414 360.7422 0.748
4934 9 7 0.0300 32.744 361.99620000000004 0.851
4935 9 3 0.0600 32.639 361.8652 -4.521
4936 9 3 0.0600 33.585 362.9692 -3.418
4937 9 3 0.0600 34.208 361.3822 -3.859
4938 9 2 -0.1200 34.344 361.4082 0.0
4939 9 9 0.2200 35.852 361.4082 0.0
4940 9 6 -0.3300 36.391999999999996 360.2122 0.49
4941 9 4 0.5100 36.153 358.98220000000003 -0.083
4942 9 5 -0.4300 35.417 358.8562 -1.107
4943 9 1 -0.1800 36.774 357.7782 0.515
4944 9 3 0.0600 33.918 360.3892 -0.11
4945 9 3 0.0600 33.922 362.1562 -0.666
4946 9 7 0.0300 36.251999999999995 362.2592 0.588
4947 9 3 0.0600 36.147 356.8872 0.457
4948 9 3 0.0600 37.092999999999996 357.9902 1.561
4949 9 3 0.0600 37.716 357.54920000000004 -0.026
4950 9 2 -0.1200 37.852000000000004 361.4082 0.0
4951 9 9 0.2200 39.36 361.4082 0.0
4952 9 6 -0.3300 39.9 361.89820000000003 -1.196
4953 9 4 0.5100 39.661 361.3252 -2.426
4954 9 5 -0.4300 38.925000000000004 360.3012 -2.552
4955 9 1 -0.1800 40.282000000000004 361.9232 -3.63
4956 9 3 0.0600 37.426 361.2982 -1.019
4957 9 3 0.0600 37.43 360.7422 0.748
4958 9 7 0.0300 39.760000000000005 361.99620000000004 0.851
4959 9 3 0.0600 39.655 361.8652 -4.521
4960 9 3 0.0600 40.601 362.9692 -3.418
4961 9 3 0.0600 41.224000000000004 361.3822 -3.859
4962 9 2 -0.1200 41.36 361.4082 0.0
4963 9 9 0.2200 42.867999999999995 361.4082 0.0
4964 9 6 -0.3300 43.407999999999994 360.2122 -0.49
4965 9 4 0.5100 43.169 358.98220000000003 0.083
4966 9 5 -0.4300 42.433 358.8562 1.107
4967 9 1 -0.1800 43.79 357.7782 -0.515
4968 9 3 0.0600 40.934 360.3892 0.11
4969 9 3 0.0600 40.937999999999995 362.1562 0.666
4970 9 7 0.0300 43.268 362.2592 -0.588
4971 9 3 0.0600 43.163 356.8872 -0.457
4972 9 3 0.0600 44.108999999999995 357.9902 -1.561
4973 9 3 0.0600 44.732 357.54920000000004 0.026
4974 9 2 -0.1200 44.868 361.4082 0.0
4975 9 9 0.2200 46.376 361.4082 0.0
4976 9 6 -0.3300 46.916 360.9182 -1.196
4977 9 4 0.5100 46.677 361.49120000000005 -2.426
4978 9 5 -0.4300 45.941 362.51520000000005 -2.552
4979 9 1 -0.1800 47.298 360.89320000000004 -3.63
4980 9 3 0.0600 44.442 361.51820000000004 -1.019
4981 9 3 0.0600 44.446 362.0742 0.748
4982 9 7 0.0300 46.775999999999996 360.8202 0.851
4983 9 3 0.0600 46.671 360.95120000000003 -4.521
4984 9 3 0.0600 47.617 359.84720000000004 -3.418
4985 9 3 0.0600 48.24 361.43420000000003 -3.859
4986 9 2 -0.1200 48.376000000000005 361.4082 0.0
4987 9 9 0.2200 49.884 361.4082 0.0
4988 9 6 -0.3300 50.424 360.2122 -0.49
4989 9 4 0.5100 50.185 358.98220000000003 0.083
4990 9 5 -0.4300 49.449000000000005 358.8562 1.107
4991 9 1 -0.1800 50.806000000000004 357.7782 -0.515
4992 9 3 0.0600 47.95 360.3892 0.11
4993 9 3 0.0600 47.954 362.1562 0.666
4994 9 7 0.0300 50.284000000000006 362.2592 -0.588
4995 9 3 0.0600 50.179 356.8872 -0.457
4996 9 3 0.0600 51.125 357.9902 -1.561
4997 9 3 0.0600 51.748000000000005 357.54920000000004 0.026
4998 9 2 -0.1200 51.884 361.4082 0.0
4999 9 9 0.2200 53.391999999999996 361.4082 0.0
5000 9 6 -0.3300 53.931999999999995 360.9182 -1.196
5001 9 4 0.5100 53.693 361.49120000000005 -2.426
5002 9 5 -0.4300 52.957 362.51520000000005 -2.552
5003 9 1 -0.1800 54.314 360.89320000000004 -3.63
5004 9 3 0.0600 51.458 361.51820000000004 -1.019
5005 9 3 0.0600 51.461999999999996 362.0742 0.748
5006 9 7 0.0300 53.792 360.8202 0.851
5007 9 3 0.0600 53.687 360.95120000000003 -4.521
5008 9 3 0.0600 54.632999999999996 359.84720000000004 -3.418
5009 9 3 0.0600 55.256 361.43420000000003 -3.859
5010 9 2 -0.1200 55.392 361.4082 0.0
5011 9 9 0.2200 56.9 361.4082 0.0
5012 9 6 -0.3300 57.44 360.2122 -0.49
5013 9 4 0.5100 57.201 358.98220000000003 0.083
5014 9 5 -0.4300 56.465 358.8562 1.107
5015 9 1 -0.1800 57.822 357.7782 -0.515
5016 9 3 0.0600 54.966 360.3892 0.11
5017 9 3 0.0600 54.97 362.1562 0.666
5018 9 7 0.0300 57.3 362.2592 -0.588
5019 9 3 0.0600 57.195 356.8872 -0.457
5020 9 3 0.0600 58.141 357.9902 -1.561
5021 9 3 0.0600 58.764 357.54920000000004 0.026
5022 9 2 -0.1200 58.900000000000006 361.4082 0.0
5023 9 9 0.2200 60.408 361.4082 0.0
5024 9 6 -0.3300 60.948 361.89820000000003 -1.196
5025 9 4 0.5100 60.709 361.3252 -2.426
5026 9 5 -0.4300 59.973000000000006 360.3012 -2.552
5027 9 1 -0.1800 61.330000000000005 361.9232 -3.63
5028 9 3 0.0600 58.474000000000004 361.2982 -1.019
5029 9 3 0.0600 58.478 360.7422 0.748
5030 9 7 0.0300 60.80800000000001 361.99620000000004 0.851
5031 9 3 0.0600 60.703 361.8652 -4.521
5032 9 3 0.0600 61.649 362.9692 -3.418
5033 9 3 0.0600 62.272000000000006 361.3822 -3.859
5034 9 2 -0.1200 62.408 361.4082 0.0
5035 9 9 0.2200 63.916 361.4082 0.0
5036 9 6 -0.3300 64.456 360.2122 -0.49
5037 9 4 0.5100 64.217 358.98220000000003 0.083
5038 9 5 -0.4300 63.481 358.8562 1.107
5039 9 1 -0.1800 64.838 357.7782 -0.515
5040 9 3 0.0600 61.982 360.3892 0.11
5041 9 3 0.0600 61.986 362.1562 0.666
5042 9 7 0.0300 64.316 362.2592 -0.588
5043 9 3 0.0600 64.211 356.8872 -0.457
5044 9 3 0.0600 65.157 357.9902 -1.561
5045 9 3 0.0600 65.78 357.54920000000004 0.026
5046 9 2 -0.1200 65.916 361.4082 0.0
5047 9 9 0.2200 67.424 361.4082 0.0
5048 9 6 -0.3300 67.964 361.89820000000003 -1.196
5049 9 4 0.5100 67.72500000000001 361.3252 -2.426
5050 9 5 -0.4300 66.989 360.3012 -2.552
5051 9 1 -0.1800 68.346 361.9232 -3.63
5052 9 3 0.0600 65.49 361.2982 -1.019
5053 9 3 0.0600 65.494 360.7422 0.748
5054 9 7 0.0300 67.824 361.99620000000004 0.851
5055 9 3 0.0600 67.71900000000001 361.8652 -4.521
5056 9 3 0.0600 68.665 362.9692 -3.418
5057 9 3 0.0600 69.288 361.3822 -3.859
5058 9 2 -0.1200 69.42399999999999 361.4082 0.0
5059 9 9 0.2200 70.932 361.4082 0.0
5060 9 6 -0.3300 71.472 360.2122 -0.49
5061 9 4 0.5100 71.233 358.98220000000003 0.083
5062 9 5 -0.4300 70.497 358.8562 1.107
5063 9 1 -0.1800 71.854 357.7782 -0.515
5064 9 3 0.0600 68.99799999999999 360.3892 0.11
5065 9 3 0.0600 69.002 362.1562 0.666
5066 9 7 0.0300 71.332 362.2592 -0.588
5067 9 3 0.0600 71.227 356.8872 -0.457
5068 9 3 0.0600 72.173 357.9902 -1.561
5069 9 3 0.0600 72.79599999999999 357.54920000000004 0.026
5070 9 2 -0.1200 72.932 361.4082 0.0
5071 9 9 0.2200 74.44000000000001 361.4082 0.0
5072 9 6 -0.3300 74.98 360.9182 -1.196
5073 9 4 0.5100 74.74100000000001 361.49120000000005 -2.426
5074 9 5 -0.4300 74.00500000000001 362.51520000000005 -2.552
5075 9 1 -0.1800 75.36200000000001 360.89320000000004 -3.63
5076 9 3 0.0600 72.506 361.51820000000004 -1.019
5077 9 3 0.0600 72.51 362.0742 0.748
5078 9 7 0.0300 74.84 360.8202 0.851
5079 9 3 0.0600 74.73500000000001 360.95120000000003 -4.521
5080 9 3 0.0600 75.68100000000001 359.84720000000004 -3.418
5081 9 3 0.0600 76.304 361.43420000000003 -3.859
5082 9 2 -0.1200 76.44 361.4082 0.0
5083 9 9 0.2200 77.94800000000001 361.4082 0.0
5084 9 6 -0.3300 78.488 360.2122 0.49
5085 9 4 0.5100 78.24900000000001 358.98220000000003 -0.083
5086 9 5 -0.4300 77.513 358.8562 -1.107
5087 9 1 -0.1800 78.87 357.7782 0.515
5088 9 3 0.0600 76.014 360.3892 -0.11
5089 9 3 0.0600 76.018 362.1562 -0.666
5090 9 7 0.0300 78.348 362.2592 0.588
5091 9 3 0.0600 78.24300000000001 356.8872 0.457
5092 9 3 0.0600 79.18900000000001 357.9902 1.561
5093 9 3 0.0600 79.812 357.54920000000004 -0.026
5094 9 2 -0.1200 79.948 361.4082 0.0
5095 9 9 0.2200 81.456 361.4082 0.0
5096 9 6 -0.3300 81.996 360.9182 -1.196
5097 9 4 0.5100 81.757 361.49120000000005 -2.426
5098 9 5 -0.4300 81.021 362.51520000000005 -2.552
5099 9 1 -0.1800 82.378 360.89320000000004 -3.63
5100 9 3 0.0600 79.52199999999999 361.51820000000004 -1.019
5101 9 3 0.0600 79.526 362.0742 0.748
5102 9 7 0.0300 81.856 360.8202 0.851
5103 9 3 0.0600 81.751 360.95120000000003 -4.521
5104 9 3 0.0600 82.697 359.84720000000004 -3.418
5105 9 3 0.0600 83.32 361.43420000000003 -3.859
5106 9 2 -0.1200 83.45599999999999 361.4082 0.0
5107 9 9 0.2200 84.964 361.4082 0.0
5108 9 6 -0.3300 85.50399999999999 360.2122 -0.49
5109 9 4 0.5100 85.265 358.98220000000003 0.083
5110 9 5 -0.4300 84.529 358.8562 1.107
5111 9 1 -0.1800 85.886 357.7782 -0.515
5112 9 3 0.0600 83.02999999999999 360.3892 0.11
5113 9 3 0.0600 83.03399999999999 362.1562 0.666
5114 9 7 0.0300 85.36399999999999 362.2592 -0.588
5115 9 3 0.0600 85.259 356.8872 -0.457
5116 9 3 0.0600 86.205 357.9902 -1.561
5117 9 3 0.0600 86.82799999999999 357.54920000000004 0.026
5118 9 2 -0.1200 86.964 361.4082 0.0
5119 9 9 0.2200 88.47200000000001 361.4082 0.0
5120 9 6 -0.3300 89.012 360.9182 -1.196
5121 9 4 0.5100 88.77300000000001 361.49120000000005 -2.426
5122 9 5 -0.4300 88.037 362.51520000000005 -2.552
5123 9 1 -0.1800 89.394 360.89320000000004 -3.63
5124 9 3 0.0600 86.538 361.51820000000004 -1.019
5125 9 3 0.0600 86.542 362.0742 0.748
5126 9 7 0.0300 88.872 360.8202 0.851
5127 9 3 0.0600 88.76700000000001 360.95120000000003 -4.521
5128 9 3 0.0600 89.71300000000001 359.84720000000004 -3.418
5129 9 3 0.0600 90.336 361.43420000000003 -3.859
5130 9 2 -0.1200 90.472 361.4082 0.0
5131 9 9 0.2200 91.98 361.4082 0.0
5132 9 6 -0.3300 92.52 360.2122 0.49
5133 9 4 0.5100 92.281 358.98220000000003 -0.083
5134 9 5 -0.4300 91.545 358.8562 -1.107
5135 9 1 -0.1800 92.902 357.7782 0.515
5136 9 3 0.0600 90.04599999999999 360.3892 -0.11
5137 9 3 0.0600 90.05 362.1562 -0.666
5138 9 7 0.0300 92.38 362.2592 0.588
5139 9 3 0.0600 92.275 356.8872 0.457
5140 9 3 0.0600 93.221 357.9902 1.561
5141 9 3 0.0600 93.844 357.54920000000004 -0.026
5142 9 2 -0.1200 93.97999999999999 361.4082 0.0
5143 9 9 0.2200 95.488 361.4082 0.0
5144 9 6 -0.3300 96.02799999999999 360.9182 -1.196
5145 9 4 0.5100 95.789 361.49120000000005 -2.426
5146 9 5 -0.4300 95.053 362.51520000000005 -2.552
5147 9 1 -0.1800 96.41 360.89320000000004 -3.63
5148 9 3 0.0600 93.55399999999999 361.51820000000004 -1.019
5149 9 3 0.0600 93.55799999999999 362.0742 0.748
5150 9 7 0.0300 95.88799999999999 360.8202 0.851
5151 9 3 0.0600 95.783 360.95120000000003 -4.521
5152 9 3 0.0600 96.729 359.84720000000004 -3.418
5153 9 3 0.0600 97.35199999999999 361.43420000000003 -3.859
5154 9 2 -0.1200 97.488 361.4082 0.0
5155 9 9 0.2200 98.99600000000001 361.4082 0.0
5156 9 6 -0.3300 99.536 360.2122 -0.49
5157 9 4 0.5100 99.29700000000001 358.98220000000003 0.083
5158 9 5 -0.4300 98.561 358.8562 1.107
5159 9 1 -0.1800 99.918 357.7782 -0.515
5160 9 3 0.0600 97.062 360.3892 0.11
5161 9 3 0.0600 97.066 362.1562 0.666
5162 9 7 0.0300 99.396 362.2592 -0.588
5163 9 3 0.0600 99.29100000000001 356.8872 -0.457
5164 9 3 0.0600 100.23700000000001 357.9902 -1.561
5165 9 3 0.0600 100.86 357.54920000000004 0.026
5166 9 2 -0.1200 100.996 361.4082 0.0
5167 9 9 0.2200 102.504 361.4082 0.0
5168 9 6 -0.3300 103.044 360.9182 -1.196
5169 9 4 0.5100 102.805 361.49120000000005 -2.426
5170 9 5 -0.4300 102.069 362.51520000000005 -2.552
5171 9 1 -0.1800 103.426 360.89320000000004 -3.63
5172 9 3 0.0600 100.57 361.51820000000004 -1.019
5173 9 3 0.0600 100.574 362.0742 0.748
5174 9 7 0.0300 102.904 360.8202 0.851
5175 9 3 0.0600 102.799 360.95120000000003 -4.521
5176 9 3 0.0600 103.745 359.84720000000004 -3.418
5177 9 3 0.0600 104.368 361.43420000000003 -3.859
5178 9 2 -0.1200 104.50399999999999 361.4082 0.0
5179 9 9 0.2200 106.012 361.4082 0.0
5180 9 6 -0.3300 106.55199999999999 360.2122 -0.49
5181 9 4 0.5100 106.313 358.98220000000003 0.083
5182 9 5 -0.4300 105.577 358.8562 1.107
5183 9 1 -0.1800 106.934 357.7782 -0.515
5184 9 3 0.0600 104.07799999999999 360.3892 0.11
5185 9 3 0.0600 104.082 362.1562 0.666
5186 9 7 0.0300 106.41199999999999 362.2592 -0.588
5187 9 3 0.0600 106.307 356.8872 -0.457
5188 9 3 0.0600 107.253 357.9902 -1.561
5189 9 3 0.0600 107.87599999999999 357.54920000000004 0.026
5190 9 2 -0.1200 108.012 361.4082 0.0
5191 9 9 0.2200 109.52000000000001 361.4082 0.0
5192 9 6 -0.3300 110.06 360.9182 -1.196
5193 9 4 0.5100 109.82100000000001 361.49120000000005 -2.426
5194 9 5 -0.4300 109.08500000000001 362.51520000000005 -2.552
5195 9 1 -0.1800 110.44200000000001 360.89320000000004 -3.63
5196 9 3 0.0600 107.586 361.51820000000004 -1.019
5197 9 3 0.0600 107.59 362.0742 0.748
5198 9 7 0.0300 109.92 360.8202 0.851
5199 9 3 0.0600 109.81500000000001 360.95120000000003 -4.521
5200 9 3 0.0600 110.76100000000001 359.84720000000004 -3.418
5201 9 3 0.0600 111.384 361.43420000000003 -3.859
5202 9 2 -0.1200 111.52 361.4082 0.0
5203 9 9 0.2200 113.028 361.4082 0.0
5204 9 6 -0.3300 113.568 360.2122 -0.49
5205 9 4 0.5100 113.32900000000001 358.98220000000003 0.083
5206 9 5 -0.4300 112.593 358.8562 1.107
5207 9 1 -0.1800 113.95 357.7782 -0.515
5208 9 3 0.0600 111.094 360.3892 0.11
5209 9 3 0.0600 111.098 362.1562 0.666
5210 9 7 0.0300 113.428 362.2592 -0.588
5211 9 3 0.0600 113.32300000000001 356.8872 -0.457
5212 9 3 0.0600 114.269 357.9902 -1.561
5213 9 3 0.0600 114.892 357.54920000000004 0.026
5214 9 2 -0.1200 115.02799999999999 361.4082 0.0
5215 9 9 0.2200 116.536 361.4082 0.0
5216 9 6 -0.3300 117.076 361.89820000000003 -1.196
5217 9 4 0.5100 116.837 361.3252 -2.426
5218 9 5 -0.4300 116.101 360.3012 -2.552
5219 9 1 -0.1800 117.458 361.9232 -3.63
5220 9 3 0.0600 114.60199999999999 361.2982 -1.019
5221 9 3 0.0600 114.606 360.7422 0.748
5222 9 7 0.0300 116.93599999999999 361.99620000000004 0.851
5223 9 3 0.0600 116.831 361.8652 -4.521
5224 9 3 0.0600 117.777 362.9692 -3.418
5225 9 3 0.0600 118.39999999999999 361.3822 -3.859
5226 9 2 -0.1200 118.536 361.4082 0.0
5227 9 9 0.2200 120.04400000000001 361.4082 0.0
5228 9 6 -0.3300 120.584 360.2122 0.49
5229 9 4 0.5100 120.34500000000001 358.98220000000003 -0.083
5230 9 5 -0.4300 119.60900000000001 358.8562 -1.107
5231 9 1 -0.1800 120.96600000000001 357.7782 0.515
5232 9 3 0.0600 118.11 360.3892 -0.11
5233 9 3 0.0600 118.114 362.1562 -0.666
5234 9 7 0.0300 120.444 362.2592 0.588
5235 9 3 0.0600 120.33900000000001 356.8872 0.457
5236 9 3 0.0600 121.28500000000001 357.9902 1.561
5237 9 3 0.0600 121.908 357.54920000000004 -0.026
5238 9 2 -0.1200 122.044 361.4082 0.0
5239 9 9 0.2200 123.552 361.4082 0.0
5240 9 6 -0.3300 124.092 360.9182 -1.196
5241 9 4 0.5100 123.85300000000001 361.49120000000005 -2.426
5242 9 5 -0.4300 123.117 362.51520000000005 -2.552
5243 9 1 -0.1800 124.474 360.89320000000004 -3.63
5244 9 3 0.0600 121.618 361.51820000000004 -1.019
5245 9 3 0.0600 121.622 362.0742 0.748
5246 9 7 0.0300 123.952 360.8202 0.851
5247 9 3 0.0600 123.84700000000001 360.95120000000003 -4.521
5248 9 3 0.0600 124.793 359.84720000000004 -3.418
5249 9 3 0.0600 125.416 361.43420000000003 -3.859
5250 9 2 -0.1200 125.55199999999999 361.4082 0.0
5251 9 9 0.2200 127.06 361.4082 0.0
5252 9 6 -0.3300 127.6 360.2122 -0.49
5253 9 4 0.5100 127.361 358.98220000000003 0.083
5254 9 5 -0.4300 126.625 358.8562 1.107
5255 9 1 -0.1800 127.982 357.7782 -0.515
5256 9 3 0.0600 125.12599999999999 360.3892 0.11
5257 9 3 0.0600 125.13 362.1562 0.666
5258 9 7 0.0300 127.46 362.2592 -0.588
5259 9 3 0.0600 127.355 356.8872 -0.457
5260 9 3 0.0600 128.301 357.9902 -1.561
5261 9 3 0.0600 128.924 357.54920000000004 0.026
5262 9 2 -0.1200 129.06 361.4082 0.0
5263 9 9 0.2200 130.56799999999998 361.4082 0.0
5264 9 6 -0.3300 131.108 361.89820000000003 -1.196
5265 9 4 0.5100 130.869 361.3252 -2.426
5266 9 5 -0.4300 130.13299999999998 360.3012 -2.552
5267 9 1 -0.1800 131.48999999999998 361.9232 -3.63
5268 9 3 0.0600 128.634 361.2982 -1.019
5269 9 3 0.0600 128.638 360.7422 0.748
5270 9 7 0.0300 130.968 361.99620000000004 0.851
5271 9 3 0.0600 130.863 361.8652 -4.521
5272 9 3 0.0600 131.809 362.9692 -3.418
5273 9 3 0.0600 132.432 361.3822 -3.859
5274 9 2 -0.1200 132.568 361.4082 0.0
5275 9 9 0.2200 134.076 361.4082 0.0
5276 9 6 -0.3300 134.616 360.2122 0.49
5277 9 4 0.5100 134.377 358.98220000000003 -0.083
5278 9 5 -0.4300 133.641 358.8562 -1.107
5279 9 1 -0.1800 134.998 357.7782 0.515
5280 9 3 0.0600 132.142 360.3892 -0.11
5281 9 3 0.0600 132.14600000000002 362.1562 -0.666
5282 9 7 0.0300 134.476 362.2592 0.588
5283 9 3 0.0600 134.371 356.8872 0.457
5284 9 3 0.0600 135.317 357.9902 1.561
5285 9 3 0.0600 135.94 357.54920000000004 -0.026
5286 9 2 -0.1200 136.07600000000002 361.4082 0.0
5287 9 9 0.2200 137.584 361.4082 0.0
5288 9 6 -0.3300 138.12400000000002 361.89820000000003 -1.196
5289 9 4 0.5100 137.88500000000002 361.3252 -2.426
5290 9 5 -0.4300 137.149 360.3012 -2.552
5291 9 1 -0.1800 138.506 361.9232 -3.63
5292 9 3 0.0600 135.65 361.2982 -1.019
5293 9 3 0.0600 135.65400000000002 360.7422 0.748
5294 9 7 0.0300 137.984 361.99620000000004 0.851
5295 9 3 0.0600 137.87900000000002 361.8652 -4.521
5296 9 3 0.0600 138.82500000000002 362.9692 -3.418
5297 9 3 0.0600 139.448 361.3822 -3.859
5298 9 2 -0.1200 139.584 361.4082 0.0
5299 9 9 0.2200 141.09199999999998 361.4082 0.0
5300 9 6 -0.3300 141.632 360.2122 0.49
5301 9 4 0.5100 141.393 358.98220000000003 -0.083
5302 9 5 -0.4300 140.65699999999998 358.8562 -1.107
5303 9 1 -0.1800 142.01399999999998 357.7782 0.515
5304 9 3 0.0600 139.158 360.3892 -0.11
5305 9 3 0.0600 139.162 362.1562 -0.666
5306 9 7 0.0300 141.492 362.2592 0.588
5307 9 3 0.0600 141.387 356.8872 0.457
5308 9 3 0.0600 142.333 357.9902 1.561
5309 9 3 0.0600 142.956 357.54920000000004 -0.026
5310 9 2 -0.1200 143.092 361.4082 0.0
5311 9 9 0.2200 144.6 361.4082 0.0
5312 9 6 -0.3300 145.14000000000001 360.9182 -1.196
5313 9 4 0.5100 144.901 361.49120000000005 -2.426
5314 9 5 -0.4300 144.165 362.51520000000005 -2.552
5315 9 1 -0.1800 145.522 360.89320000000004 -3.63
5316 9 3 0.0600 142.666 361.51820000000004 -1.019
5317 9 3 0.0600 142.67000000000002 362.0742 0.748
5318 9 7 0.0300 145.0 360.8202 0.851
5319 9 3 0.0600 144.895 360.95120000000003 -4.521
5320 9 3 0.0600 145.841 359.84720000000004 -3.418
5321 9 3 0.0600 146.464 361.43420000000003 -3.859
5322 9 2 -0.1200 146.60000000000002 361.4082 0.0
5323 9 9 0.2200 148.108 361.4082 0.0
5324 9 6 -0.3300 148.64800000000002 360.2122 -0.49
5325 9 4 0.5100 148.40900000000002 358.98220000000003 0.083
5326 9 5 -0.4300 147.673 358.8562 1.107
5327 9 1 -0.1800 149.03 357.7782 -0.515
5328 9 3 0.0600 146.174 360.3892 0.11
5329 9 3 0.0600 146.17800000000003 362.1562 0.666
5330 9 7 0.0300 148.508 362.2592 -0.588
5331 9 3 0.0600 148.40300000000002 356.8872 -0.457
5332 9 3 0.0600 149.34900000000002 357.9902 -1.561
5333 9 3 0.0600 149.972 357.54920000000004 0.026
5334 9 2 -0.1200 150.108 361.4082 0.0
5335 9 9 0.2200 151.61599999999999 361.4082 0.0
5336 9 6 -0.3300 152.156 360.9182 -1.196
5337 9 4 0.5100 151.917 361.49120000000005 -2.426
5338 9 5 -0.4300 151.18099999999998 362.51520000000005 -2.552
5339 9 1 -0.1800 152.53799999999998 360.89320000000004 -3.63
5340 9 3 0.0600 149.682 361.51820000000004 -1.019
5341 9 3 0.0600 149.686 362.0742 0.748
5342 9 7 0.0300 152.016 360.8202 0.851
5343 9 3 0.0600 151.911 360.95120000000003 -4.521
5344 9 3 0.0600 152.857 359.84720000000004 -3.418
5345 9 3 0.0600 153.48 361.43420000000003 -3.859
5346 9 2 -0.1200 153.616 361.4082 0.0
5347 9 9 0.2200 155.124 361.4082 0.0
5348 9 6 -0.3300 155.66400000000002 360.2122 0.49
5349 9 4 0.5100 155.425 358.98220000000003 -0.083
5350 9 5 -0.4300 154.689 358.8562 -1.107
5351 9 1 -0.1800 156.046 357.7782 0.515
5352 9 3 0.0600 153.19 360.3892 -0.11
5353 9 3 0.0600 153.19400000000002 362.1562 -0.666
5354 9 7 0.0300 155.524 362.2592 0.588
5355 9 3 0.0600 155.419 356.8872 0.457
5356 9 3 0.0600 156.365 357.9902 1.561
5357 9 3 0.0600 156.988 357.54920000000004 -0.026
5358 9 2 -0.1200 157.124 361.4082 0.0
5359 9 9 0.2200 158.63199999999998 361.4082 0.0
5360 9 6 -0.3300 159.172 360.9182 -1.196
5361 9 4 0.5100 158.933 361.49120000000005 -2.426
5362 9 5 -0.4300 158.19699999999997 362.51520000000005 -2.552
5363 9 1 -0.1800 159.55399999999997 360.89320000000004 -3.63
5364 9 3 0.0600 156.69799999999998 361.51820000000004 -1.019
5365 9 3 0.0600 156.702 362.0742 0.748
5366 9 7 0.0300 159.03199999999998 360.8202 0.851
5367 9 3 0.0600 158.927 360.95120000000003 -4.521
5368 9 3 0.0600 159.873 359.84720000000004 -3.418
5369 9 3 0.0600 160.49599999999998 361.43420000000003 -3.859
5370 9 2 -0.1200 160.632 361.4082 0.0
5371 9 9 0.2200 162.14 361.4082 0.0
5372 9 6 -0.3300 162.68 360.2122 0.49
5373 9 4 0.5100 162.441 358.98220000000003 -0.083
5374 9 5 -0.4300 161.70499999999998 358.8562 -1.107
5375 9 1 -0.1800 163.06199999999998 357.7782 0.515
5376 9 3 0.0600 160.206 360.3892 -0.11
5377 9 3 0.0600 160.21 362.1562 -0.666
5378 9 7 0.0300 162.54 362.2592 0.588
5379 9 3 0.0600 162.435 356.8872 0.457
5380 9 3 0.0600 163.381 357.9902 1.561
5381 9 3 0.0600 164.004 357.54920000000004 -0.026
5382 9 2 -0.1200 164.14000000000001 361.4082 0.0
5383 9 9 0.2200 165.648 361.4082 0.0
5384 9 6 -0.3300 166.18800000000002 361.89820000000003 -1.196
5385 9 4 0.5100 165.949 361.3252 -2.426
5386 9 5 -0.4300 165.213 360.3012 -2.552
5387 9 1 -0.1800 166.57 361.9232 -3.63
5388 9 3 0.0600 163.714 361.2982 -1.019
5389 9 3 0.0600 163.71800000000002 360.7422 0.748
5390 9 7 0.0300 166.048 361.99620000000004 0.851
5391 9 3 0.0600 165.943 361.8652 -4.521
5392 9 3 0.0600 166.889 362.9692 -3.418
5393 9 3 0.0600 167.512 361.3822 -3.859
5394 9 2 -0.1200 167.648 361.4082 0.0
5395 9 9 0.2200 169.15599999999998 361.4082 0.0
5396 9 6 -0.3300 169.696 360.2122 0.49
5397 9 4 0.5100 169.457 358.98220000000003 -0.083
5398 9 5 -0.4300 168.72099999999998 358.8562 -1.107
5399 9 1 -0.1800 170.07799999999997 357.7782 0.515
5400 9 3 0.0600 167.22199999999998 360.3892 -0.11
5401 9 3 0.0600 167.226 362.1562 -0.666
5402 9 7 0.0300 169.55599999999998 362.2592 0.588
5403 9 3 0.0600 169.451 356.8872 0.457
5404 9 3 0.0600 170.397 357.9902 1.561
5405 9 3 0.0600 171.01999999999998 357.54920000000004 -0.026
5406 9 2 -0.1200 169.43 361.4082 0.0
5407 9 8 0.1900 170.003 360.9212 1.269
5408 9 6 -0.3300 171.335 360.51120000000003 1.192
5409 9 4 0.5100 172.383 361.3442 0.807
5410 9 5 -0.4300 172.147 362.5512 0.5039999999999999
5411 9 1 -0.1800 173.79 360.8312 0.748
5412 9 3 0.0600 169.243 362.4572 -0.11600000000000008
5413 9 3 0.0600 169.179 360.6992 -0.759
5414 9 7 0.0300 169.404 360.0312 1.587
5415 9 7 0.0300 169.864 361.6652 2.079
5416 9 3 0.0600 174.263 360.8552 1.738
5417 9 3 0.0600 173.767 359.75620000000004 0.4330000000000001
5418 9 3 0.0600 174.39 361.4082 0.0
5419 10 1 -0.1800 179.9411 361.4082 0.0
5420 10 9 0.2200 181.46710000000002 361.4082 0.0
5421 10 6 -0.3300 181.9101 360.9152 -1.254
5422 10 4 0.5100 183.2991 360.84720000000004 -1.426
5423 10 5 -0.4300 184.0891 361.2042 -0.517
5424 10 1 -0.1800 183.8771 360.3442 -2.705
5425 10 3 0.0600 179.57510000000002 360.3852 -0.168
5426 10 3 0.0600 179.5651 361.78020000000004 0.973
5427 10 3 0.0600 179.6311 362.0582 -0.832
5428 10 7 0.0300 181.8771 362.4082 0.146
5429 10 3 0.0600 183.06910000000002 359.9562 -3.336
5430 10 3 0.0600 184.4951 361.12420000000003 -3.204
5431 10 3 0.0600 184.5911 359.5332 -2.397
5432 10 2 -0.1200 183.47610000000003 361.4082 0.0
5433 10 9 0.2200 184.9841 361.4082 0.0
5434 10 6 -0.3300 185.52410000000003 360.9182 -1.196
5435 10 4 0.5100 185.28510000000003 361.49120000000005 -2.426
5436 10 5 -0.4300 184.5491 362.51520000000005 -2.552
5437 10 1 -0.1800 185.9061 360.89320000000004 -3.63
5438 10 3 0.0600 183.05010000000001 361.51820000000004 -1.019
5439 10 3 0.0600 183.05410000000003 362.0742 0.748
5440 10 7 0.0300 185.38410000000002 360.8202 0.851
5441 10 3 0.0600 185.27910000000003 360.95120000000003 -4.521
5442 10 3 0.0600 186.22510000000003 359.84720000000004 -3.418
5443 10 3 0.0600 186.84810000000002 361.43420000000003 -3.859
5444 10 2 -0.1200 186.9841 361.4082 0.0
5445 10 9 0.2200 188.4921 361.4082 0.0
5446 10 6 -0.3300 189.0321 360.2122 0.49
5447 10 4 0.5100 188.7931 358.98220000000003 -0.083
5448 10 5 -0.4300 188.0571 358.8562 -1.107
5449 10 1 -0.1800 189.4141 357.7782 0.515
5450 10 3 0.0600 186.5581 360.3892 -0.11
5451 10 3 0.0600 186.56210000000002 362.1562 -0.666
5452 10 7 0.0300 188.8921 362.2592 0.588
5453 10 3 0.0600 188.7871 356.8872 0.457
5454 10 3 0.0600 189.7331 357.9902 1.561
5455 10 3 0.0600 190.3561 357.54920000000004 -0.026
5456 10 2 -0.1200 190.49210000000002 361.4082 0.0
5457 10 9 0.2200 192.0001 361.4082 0.0
5458 10 6 -0.3300 192.54010000000002 361.89820000000003 -1.196
5459 10 4 0.5100 192.30110000000002 361.3252 -2.426
5460 10 5 -0.4300 191.5651 360.3012 -2.552
5461 10 1 -0.1800 192.9221 361.9232 -3.63
5462 10 3 0.0600 190.0661 361.2982 -1.019
5463 10 3 0.0600 190.07010000000002 360.7422 0.748
5464 10 7 0.0300 192.4001 361.99620000000004 0.851
5465 10 3 0.0600 192.29510000000002 361.8652 -4.521
5466 10 3 0.0600 193.24110000000002 362.9692 -3.418
5467 10 3 0.0600 193.8641 361.3822 -3.859
5468 10 2 -0.1200 194.00010000000003 361.4082 0.0
5469 10 9 0.2200 195.5081 361.4082 0.0
5470 10 6 -0.3300 196.04810000000003 360.2122 0.49
5471 10 4 0.5100 195.80910000000003 358.98220000000003 -0.083
5472 10 5 -0.4300 195.0731 358.8562 -1.107
5473 10 1 -0.1800 196.4301 357.7782 0.515
5474 10 3 0.0600 193.57410000000002 360.3892 -0.11
5475 10 3 0.0600 193.57810000000003 362.1562 -0.666
5476 10 7 0.0300 195.90810000000002 362.2592 0.588
5477 10 3 0.0600 195.80310000000003 356.8872 0.457
5478 10 3 0.0600 196.74910000000003 357.9902 1.561
5479 10 3 0.0600 197.37210000000002 357.54920000000004 -0.026
5480 10 2 -0.1200 197.5081 361.4082 0.0
5481 10 9 0.2200 199.0161 361.4082 0.0
5482 10 6 -0.3300 199.55610000000001 360.9182 -1.196
5483 10 4 0.5100 199.3171 361.49120000000005 -2.426
5484 10 5 -0.4300 198.5811 362.51520000000005 -2.552
5485 10 1 -0.1800 199.9381 360.89320000000004 -3.63
5486 10 3 0.0600 197.0821 361.51820000000004 -1.019
5487 10 3 0.0600 197.08610000000002 362.0742 0.748
5488 10 7 0.0300 199.4161 360.8202 0.851
5489 10 3 0.0600 199.3111 360.95120000000003 -4.521
5490 10 3 0.0600 200.2571 359.84720000000004 -3.418
5491 10 3 0.0600 200.8801 361.43420000000003 -3.859
5492 10 2 -0.1200 201.01610000000002 361.4082 0.0
5493 10 9 0.2200 202.5241 361.4082 0.0
5494 10 6 -0.3300 203.06410000000002 360.2122 0.49
5495 10 4 0.5100 202.82510000000002 358.98220000000003 -0.083
5496 10 5 -0.4300 202.0891 358.8562 -1.107
5497 10 1 -0.1800 203.4461 357.7782 0.515
5498 10 3 0.0600 200.5901 360.3892 -0.11
5499 10 3 0.0600 200.59410000000003 362.1562 -0.666
5500 10 7 0.0300 202.9241 362.2592 0.588
5501 10 3 0.0600 202.81910000000002 356.8872 0.457
5502 10 3 0.0600 203.76510000000002 357.9902 1.561
5503 10 3 0.0600 204.3881 357.54920000000004 -0.026
5504 10 2 -0.1200 204.52410000000003 361.4082 0.0
5505 10 9 0.2200 206.0321 361.4082 0.0
5506 10 6 -0.3300 206.57210000000003 361.89820000000003 -1.196
5507 10 4 0.5100 206.33310000000003 361.3252 -2.426
5508 10 5 -0.4300 205.5971 360.3012 -2.552
5509 10 1 -0.1800 206.9541 361.9232 -3.63
5510 10 3 0.0600 204.09810000000002 361.2982 -1.019
5511 10 3 0.0600 204.10210000000004 360.7422 0.748
5512 10 7 0.0300 206.43210000000002 361.99620000000004 0.851
5513 10 3 0.0600 206.32710000000003 361.8652 -4.521
5514 10 3 0.0600 207.27310000000003 362.9692 -3.418
5515 10 3 0.0600 207.89610000000002 361.3822 -3.859
5516 10 2 -0.1200 208.0321 361.4082 0.0
5517 10 9 0.2200 209.5401 361.4082 0.0
5518 10 6 -0.3300 210.08010000000002 360.2122 -0.49
5519 10 4 0.5100 209.8411 358.98220000000003 0.083
5520 10 5 -0.4300 209.1051 358.8562 1.107
5521 10 1 -0.1800 210.4621 357.7782 -0.515
5522 10 3 0.0600 207.6061 360.3892 0.11
5523 10 3 0.0600 207.61010000000002 362.1562 0.666
5524 10 7 0.0300 209.9401 362.2592 -0.588
5525 10 3 0.0600 209.8351 356.8872 -0.457
5526 10 3 0.0600 210.7811 357.9902 -1.561
5527 10 3 0.0600 211.4041 357.54920000000004 0.026
5528 10 2 -0.1200 211.54010000000002 361.4082 0.0
5529 10 9 0.2200 213.0481 361.4082 0.0
5530 10 6 -0.3300 213.58810000000003 361.89820000000003 -1.196
5531 10 4 0.5100 213.34910000000002 361.3252 -2.426
5532 10 5 -0.4300 212.6131 360.3012 -2.552
5533 10 1 -0.1800 213.9701 361.9232 -3.63
5534 10 3 0.0600 211.1141 361.2982 -1.019
5535 10 3 0.0600 211.11810000000003 360.7422 0.748
5536 10 7 0.0300 213.4481 361.99620000000004 0.851
5537 10 3 0.0600 213.34310000000002 361.8652 -4.521
5538 10 3 0.0600 214.28910000000002 362.9692 -3.418
5539 10 3 0.0600 214.9121 361.3822 -3.859
5540 10 2 -0.1200 215.0481 361.4082 0.0
5541 10 9 0.2200 216.5561 361.4082 0.0
5542 10 6 -0.3300 217.0961 360.2122 0.49
5543 10 4 0.5100 216.8571 358.98220000000003 -0.083
5544 10 5 -0.4300 216.12109999999998 358.8562 -1.107
5545 10 1 -0.1800 217.47809999999998 357.7782 0.515
5546 10 3 0.0600 214.6221 360.3892 -0.11
5547 10 3 0.0600 214.6261 362.1562 -0.666
5548 10 7 0.0300 216.9561 362.2592 0.588
5549 10 3 0.0600 216.8511 356.8872 0.457
5550 10 3 0.0600 217.7971 357.9902 1.561
5551 10 3 0.0600 218.4201 357.54920000000004 -0.026
5552 10 2 -0.1200 218.55610000000001 361.4082 0.0
5553 10 9 0.2200 220.0641 361.4082 0.0
5554 10 6 -0.3300 220.60410000000002 360.9182 -1.196
5555 10 4 0.5100 220.3651 361.49120000000005 -2.426
5556 10 5 -0.4300 219.6291 362.51520000000005 -2.552
5557 10 1 -0.1800 220.9861 360.89320000000004 -3.63
5558 10 3 0.0600 218.1301 361.51820000000004 -1.019
5559 10 3 0.0600 218.13410000000002 362.0742 0.748
5560 10 7 0.0300 220.4641 360.8202 0.851
5561 10 3 0.0600 220.3591 360.95120000000003 -4.521
5562 10 3 0.0600 221.3051 359.84720000000004 -3.418
5563 10 3 0.0600 221.9281 361.43420000000003 -3.859
5564 10 2 -0.1200 222.06410000000002 361.4082 0.0
5565 10 9 0.2200 223.5721 361.4082 0.0
5566 10 6 -0.3300 224.11210000000003 360.2122 0.49
5567 10 4 0.5100 223.87310000000002 358.98220000000003 -0.083
5568 10 5 -0.4300 223.1371 358.8562 -1.107
5569 10 1 -0.1800 224.4941 357.7782 0.515
5570 10 3 0.0600 221.6381 360.3892 -0.11
5571 10 3 0.0600 221.64210000000003 362.1562 -0.666
5572 10 7 0.0300 223.9721 362.2592 0.588
5573 10 3 0.0600 223.86710000000002 356.8872 0.457
5574 10 3 0.0600 224.81310000000002 357.9902 1.561
5575 10 3 0.0600 225.4361 357.54920000000004 -0.026
5576 10 2 -0.1200 225.5721 361.4082 0.0
5577 10 9 0.2200 227.0801 361.4082 0.0
5578 10 6 -0.3300 227.6201 360.9182 -1.196
5579 10 4 0.5100 227.3811 361.49120000000005 -2.426
5580 10 5 -0.4300 226.64509999999999 362.51520000000005 -2.552
5581 10 1 -0.1800 228.00209999999998 360.89320000000004 -3.63
5582 10 3 0.0600 225.1461 361.51820000000004 -1.019
5583 10 3 0.0600 225.1501 362.0742 0.748
5584 10 7 0.0300 227.4801 360.8202 0.851
5585 10 3 0.0600 227.3751 360.95120000000003 -4.521
5586 10 3 0.0600 228.3211 359.84720000000004 -3.418
5587 10 3 0.0600 228.9441 361.43420000000003 -3.859
5588 10 2 -0.1200 229.08010000000002 361.4082 0.0
5589 10 9 0.2200 230.5881 361.4082 0.0
5590 10 6 -0.3300 231.12810000000002 360.2122 0.49
5591 10 4 0.5100 230.8891 358.98220000000003 -0.083
5592 10 5 -0.4300 230.1531 358.8562 -1.107
5593 10 1 -0.1800 231.5101 357.7782 0.515
5594 10 3 0.0600 228.6541 360.3892 -0.11
5595 10 3 0.0600 228.65810000000002 362.1562 -0.666
5596 10 7 0.0300 230.9881 362.2592 0.588
5597 10 3 0.0600 230.8831 356.8872 0.457
5598 10 3 0.0600 231.8291 357.9902 1.561
5599 10 3 0.0600 232.4521 357.54920000000004 -0.026
5600 10 2 -0.1200 232.58810000000003 361.4082 0.0
5601 10 9 0.2200 234.0961 361.4082 0.0
5602 10 6 -0.3300 234.63610000000003 360.9182 -1.196
5603 10 4 0.5100 234.39710000000002 361.49120000000005 -2.426
5604 10 5 -0.4300 233.6611 362.51520000000005 -2.552
5605 10 1 -0.1800 235.0181 360.89320000000004 -3.63
5606 10 3 0.0600 232.1621 361.51820000000004 -1.019
5607 10 3 0.0600 232.16610000000003 362.0742 0.748
5608 10 7 0.0300 234.4961 360.8202 0.851
5609 10 3 0.0600 234.39110000000002 360.95120000000003 -4.521
5610 10 3 0.0600 235.33710000000002 359.84720000000004 -3.418
5611 10 3 0.0600 235.9601 361.43420000000003 -3.859
5612 10 2 -0.1200 236.0961 361.4082 0.0
5613 10 9 0.2200 237.6041 361.4082 0.0
5614 10 6 -0.3300 238.1441 360.2122 0.49
5615 10 4 0.5100 237.9051 358.98220000000003 -0.083
5616 10 5 -0.4300 237.1691 358.8562 -1.107
5617 10 1 -0.1800 238.52609999999999 357.7782 0.515
5618 10 3 0.0600 235.6701 360.3892 -0.11
5619 10 3 0.0600 235.6741 362.1562 -0.666
5620 10 7 0.0300 238.0041 362.2592 0.588
5621 10 3 0.0600 237.8991 356.8872 0.457
5622 10 3 0.0600 238.8451 357.9902 1.561
5623 10 3 0.0600 239.4681 357.54920000000004 -0.026
5624 10 2 -0.1200 239.60410000000002 361.4082 0.0
5625 10 9 0.2200 241.1121 361.4082 0.0
5626 10 6 -0.3300 241.65210000000002 360.9182 -1.196
5627 10 4 0.5100 241.41310000000001 361.49120000000005 -2.426
5628 10 5 -0.4300 240.6771 362.51520000000005 -2.552
5629 10 1 -0.1800 242.0341 360.89320000000004 -3.63
5630 10 3 0.0600 239.1781 361.51820000000004 -1.019
5631 10 3 0.0600 239.18210000000002 362.0742 0.748
5632 10 7 0.0300 241.5121 360.8202 0.851
5633 10 3 0.0600 241.4071 360.95120000000003 -4.521
5634 10 3 0.0600 242.3531 359.84720000000004 -3.418
5635 10 3 0.0600 242.9761 361.43420000000003 -3.859
5636 10 2 -0.1200 243.11210000000003 361.4082 0.0
5637 10 9 0.2200 244.6201 361.4082 0.0
5638 10 6 -0.3300 245.16010000000003 360.2122 0.49
5639 10 4 0.5100 244.92110000000002 358.98220000000003 -0.083
5640 10 5 -0.4300 244.1851 358.8562 -1.107
5641 10 1 -0.1800 245.5421 357.7782 0.515
5642 10 3 0.0600 242.6861 360.3892 -0.11
5643 10 3 0.0600 242.69010000000003 362.1562 -0.666
5644 10 7 0.0300 245.0201 362.2592 0.588
5645 10 3 0.0600 244.91510000000002 356.8872 0.457
5646 10 3 0.0600 245.86110000000002 357.9902 1.561
5647 10 3 0.0600 246.4841 357.54920000000004 -0.026
5648 10 2 -0.1200 246.6201 361.4082 0.0
5649 10 9 0.2200 248.1281 361.4082 0.0
5650 10 6 -0.3300 248.6681 360.9182 -1.196
5651 10 4 0.5100 248.4291 361.49120000000005 -2.426
5652 10 5 -0.4300 247.6931 362.51520000000005 -2.552
5653 10 1 -0.1800 249.0501 360.89320000000004 -3.63
5654 10 3 0.0600 246.1941 361.51820000000004 -1.019
5655 10 3 0.0600 246.1981 362.0742 0.748
5656 10 7 0.0300 248.5281 360.8202 0.851
5657 10 3 0.0600 248.4231 360.95120000000003 -4.521
5658 10 3 0.0600 249.3691 359.84720000000004 -3.418
5659 10 3 0.0600 249.9921 361.43420000000003 -3.859
5660 10 2 -0.1200 250.12810000000002 361.4082 0.0
5661 10 9 0.2200 251.6361 361.4082 0.0
5662 10 6 -0.3300 252.17610000000002 360.2122 -0.49
5663 10 4 0.5100 251.93710000000002 358.98220000000003 0.083
5664 10 5 -0.4300 251.2011 358.8562 1.107
5665 10 1 -0.1800 252.5581 357.7782 -0.515
5666 10 3 0.0600 249.7021 360.3892 0.11
5667 10 3 0.0600 249.70610000000002 362.1562 0.666
5668 10 7 0.0300 252.0361 362.2592 -0.588
5669 10 3 0.0600 251.93110000000001 356.8872 -0.457
5670 10 3 0.0600 252.8771 357.9902 -1.561
5671 10 3 0.0600 253.5001 357.54920000000004 0.026
5672 10 2 -0.1200 253.63610000000003 361.4082 0.0
5673 10 9 0.2200 255.1441 361.4082 0.0
5674 10 6 -0.3300 255.68410000000003 361.89820000000003 -1.196
5675 10 4 0.5100 255.44510000000002 361.3252 -2.426
5676 10 5 -0.4300 254.7091 360.3012 -2.552
5677 10 1 -0.1800 256.0661 361.9232 -3.63
5678 10 3 0.0600 253.2101 361.2982 -1.019
5679 10 3 0.0600 253.21410000000003 360.7422 0.748
5680 10 7 0.0300 255.54410000000001 361.99620000000004 0.851
5681 10 3 0.0600 255.43910000000002 361.8652 -4.521
5682 10 3 0.0600 256.3851 362.9692 -3.418
5683 10 3 0.0600 257.0081 361.3822 -3.859
5684 10 2 -0.1200 257.1441 361.4082 0.0
5685 10 9 0.2200 258.6521 361.4082 0.0
5686 10 6 -0.3300 259.1921 360.2122 -0.49
5687 10 4 0.5100 258.9531 358.98220000000003 0.083
5688 10 5 -0.4300 258.2171 358.8562 1.107
5689 10 1 -0.1800 259.5741 357.7782 -0.515
5690 10 3 0.0600 256.7181 360.3892 0.11
5691 10 3 0.0600 256.7221 362.1562 0.666
5692 10 7 0.0300 259.0521 362.2592 -0.588
5693 10 3 0.0600 258.9471 356.8872 -0.457
5694 10 3 0.0600 259.8931 357.9902 -1.561
5695 10 3 0.0600 260.5161 357.54920000000004 0.026
5696 10 2 -0.1200 260.6521 361.4082 0.0
5697 10 9 0.2200 262.16010000000006 361.4082 0.0
5698 10 6 -0.3300 262.7001 360.9182 -1.196
5699 10 4 0.5100 262.46110000000004 361.49120000000005 -2.426
5700 10 5 -0.4300 261.72510000000005 362.51520000000005 -2.552
5701 10 1 -0.1800 263.0821 360.89320000000004 -3.63
5702 10 3 0.0600 260.22610000000003 361.51820000000004 -1.019
5703 10 3 0.0600 260.23010000000005 362.0742 0.748
5704 10 7 0.0300 262.56010000000003 360.8202 0.851
5705 10 3 0.0600 262.4551 360.95120000000003 -4.521
5706 10 3 0.0600 263.40110000000004 359.84720000000004 -3.418
5707 10 3 0.0600 264.02410000000003 361.43420000000003 -3.859
5708 10 2 -0.1200 264.1601 361.4082 0.0
5709 10 9 0.2200 265.66810000000004 361.4082 0.0
5710 10 6 -0.3300 266.2081 360.2122 0.49
5711 10 4 0.5100 265.9691 358.98220000000003 -0.083
5712 10 5 -0.4300 265.23310000000004 358.8562 -1.107
5713 10 1 -0.1800 266.5901 357.7782 0.515
5714 10 3 0.0600 263.7341 360.3892 -0.11
5715 10 3 0.0600 263.73810000000003 362.1562 -0.666
5716 10 7 0.0300 266.0681 362.2592 0.588
5717 10 3 0.0600 265.9631 356.8872 0.457
5718 10 3 0.0600 266.9091 357.9902 1.561
5719 10 3 0.0600 267.5321 357.54920000000004 -0.026
5720 10 2 -0.1200 267.6681 361.4082 0.0
5721 10 9 0.2200 269.1761 361.4082 0.0
5722 10 6 -0.3300 269.7161 360.9182 -1.196
5723 10 4 0.5100 269.4771 361.49120000000005 -2.426
5724 10 5 -0.4300 268.7411 362.51520000000005 -2.552
5725 10 1 -0.1800 270.0981 360.89320000000004 -3.63
5726 10 3 0.0600 267.2421 361.51820000000004 -1.019
5727 10 3 0.0600 267.2461 362.0742 0.748
5728 10 7 0.0300 269.5761 360.8202 0.851
5729 10 3 0.0600 269.4711 360.95120000000003 -4.521
5730 10 3 0.0600 270.4171 359.84720000000004 -3.418
5731 10 3 0.0600 271.0401 361.43420000000003 -3.859
5732 10 2 -0.1200 271.1761 361.4082 0.0
5733 10 9 0.2200 272.68410000000006 361.4082 0.0
5734 10 6 -0.3300 273.2241 360.2122 0.49
5735 10 4 0.5100 272.98510000000005 358.98220000000003 -0.083
5736 10 5 -0.4300 272.24910000000006 358.8562 -1.107
5737 10 1 -0.1800 273.6061 357.7782 0.515
5738 10 3 0.0600 270.75010000000003 360.3892 -0.11
5739 10 3 0.0600 270.75410000000005 362.1562 -0.666
5740 10 7 0.0300 273.08410000000003 362.2592 0.588
5741 10 3 0.0600 272.9791 356.8872 0.457
5742 10 3 0.0600 273.92510000000004 357.9902 1.561
5743 10 3 0.0600 274.54810000000003 357.54920000000004 -0.026
5744 10 2 -0.1200 274.6841 361.4082 0.0
5745 10 9 0.2200 276.19210000000004 361.4082 0.0
5746 10 6 -0.3300 276.7321 360.9182 -1.196
5747 10 4 0.5100 276.4931 361.49120000000005 -2.426
5748 10 5 -0.4300 275.75710000000004 362.51520000000005 -2.552
5749 10 1 -0.1800 277.1141 360.89320000000004 -3.63
5750 10 3 0.0600 274.2581 361.51820000000004 -1.019
5751 10 3 0.0600 274.26210000000003 362.0742 0.748
5752 10 7 0.0300 276.5921 360.8202 0.851
5753 10 3 0.0600 276.4871 360.95120000000003 -4.521
5754 10 3 0.0600 277.4331 359.84720000000004 -3.418
5755 10 3 0.0600 278.0561 361.43420000000003 -3.859
5756 10 2 -0.1200 278.1921 361.4082 0.0
5757 10 9 0.2200 279.7001 361.4082 0.0
5758 10 6 -0.3300 280.2401 360.2122 0.49
5759 10 4 0.5100 280.0011 358.98220000000003 -0.083
5760 10 5 -0.4300 279.2651 358.8562 -1.107
5761 10 1 -0.1800 280.6221 357.7782 0.515
5762 10 3 0.0600 277.7661 360.3892 -0.11
5763 10 3 0.0600 277.7701 362.1562 -0.666
5764 10 7 0.0300 280.1001 362.2592 0.588
5765 10 3 0.0600 279.9951 356.8872 0.457
5766 10 3 0.0600 280.9411 357.9902 1.561
5767 10 3 0.0600 281.5641 357.54920000000004 -0.026
5768 10 2 -0.1200 281.7001 361.4082 0.0
5769 10 9 0.2200 283.20810000000006 361.4082 0.0
5770 10 6 -0.3300 283.7481 360.9182 -1.196
5771 10 4 0.5100 283.50910000000005 361.49120000000005 -2.426
5772 10 5 -0.4300 282.77310000000006 362.51520000000005 -2.552
5773 10 1 -0.1800 284.1301 360.89320000000004 -3.63
5774 10 3 0.0600 281.27410000000003 361.51820000000004 -1.019
5775 10 3 0.0600 281.27810000000005 362.0742 0.748
5776 10 7 0.0300 283.60810000000004 360.8202 0.851
5777 10 3 0.0600 283.5031 360.95120000000003 -4.521
5778 10 3 0.0600 284.44910000000004 359.84720000000004 -3.418
5779 10 3 0.0600 285.07210000000003 361.43420000000003 -3.859
5780 10 2 -0.1200 285.2081 361.4082 0.0
5781 10 9 0.2200 286.71610000000004 361.4082 0.0
5782 10 6 -0.3300 287.2561 360.2122 0.49
5783 10 4 0.5100 287.0171 358.98220000000003 -0.083
5784 10 5 -0.4300 286.28110000000004 358.8562 -1.107
5785 10 1 -0.1800 287.6381 357.7782 0.515
5786 10 3 0.0600 284.7821 360.3892 -0.11
5787 10 3 0.0600 284.78610000000003 362.1562 -0.666
5788 10 7 0.0300 287.1161 362.2592 0.588
5789 10 3 0.0600 287.0111 356.8872 0.457
5790 10 3 0.0600 287.9571 357.9902 1.561
5791 10 3 0.0600 288.5801 357.54920000000004 -0.026
5792 10 2 -0.1200 288.7161 361.4082 0.0
5793 10 9 0.2200 290.2241 361.4082 0.0
5794 10 6 -0.3300 290.7641 361.89820000000003 -1.196
5795 10 4 0.5100 290.5251 361.3252 -2.426
5796 10 5 -0.4300 289.7891 360.3012 -2.552
5797 10 1 -0.1800 291.1461 361.9232 -3.63
5798 10 3 0.0600 288.2901 361.2982 -1.019
5799 10 3 0.0600 288.2941 360.7422 0.748
5800 10 7 0.0300 290.6241 361.99620000000004 0.851
5801 10 3 0.0600 290.5191 361.8652 -4.521
5802 10 3 0.0600 291.4651 362.9692 -3.418
5803 10 3 0.0600 292.0881 361.3822 -3.859
5804 10 2 -0.1200 292.2241 361.4082 0.0
5805 10 9 0.2200 293.73210000000006 361.4082 0.0
5806 10 6 -0.3300 294.2721 360.2122 -0.49
5807 10 4 0.5100 294.03310000000005 358.98220000000003 0.083
5808 10 5 -0.4300 293.29710000000006 358.8562 1.107
5809 10 1 -0.1800 294.6541 357.7782 -0.515
5810 10 3 0.0600 291.79810000000003 360.3892 0.11
5811 10 3 0.0600 291.80210000000005 362.1562 0.666
5812 10 7 0.0300 294.13210000000004 362.2592 -0.588
5813 10 3 0.0600 294.0271 356.8872 -0.457
5814 10 3 0.0600 294.97310000000004 357.9902 -1.561
5815 10 3 0.0600 295.59610000000004 357.54920000000004 0.026
5816 10 2 -0.1200 295.7321 361.4082 0.0
5817 10 9 0.2200 297.24010000000004 361.4082 0.0
5818 10 6 -0.3300 297.7801 361.89820000000003 -1.196
5819 10 4 0.5100 297.54110000000003 361.3252 -2.426
5820 10 5 -0.4300 296.80510000000004 360.3012 -2.552
5821 10 1 -0.1800 298.1621 361.9232 -3.63
5822 10 3 0.0600 295.3061 361.2982 -1.019
5823 10 3 0.0600 295.31010000000003 360.7422 0.748
5824 10 7 0.0300 297.6401 361.99620000000004 0.851
5825 10 3 0.0600 297.5351 361.8652 -4.521
5826 10 3 0.0600 298.4811 362.9692 -3.418
5827 10 3 0.0600 299.1041 361.3822 -3.859
5828 10 2 -0.1200 299.2401 361.4082 0.0
5829 10 9 0.2200 300.7481 361.4082 0.0
5830 10 6 -0.3300 301.2881 360.2122 0.49
5831 10 4 0.5100 301.0491 358.98220000000003 -0.083
5832 10 5 -0.4300 300.3131 358.8562 -1.107
5833 10 1 -0.1800 301.6701 357.7782 0.515
5834 10 3 0.0600 298.8141 360.3892 -0.11
5835 10 3 0.0600 298.8181 362.1562 -0.666
5836 10 7 0.0300 301.1481 362.2592 0.588
5837 10 3 0.0600 301.0431 356.8872 0.457
5838 10 3 0.0600 301.9891 357.9902 1.561
5839 10 3 0.0600 302.6121 357.54920000000004 -0.026
5840 10 2 -0.1200 302.7481 361.4082 0.0
5841 10 9 0.2200 304.25610000000006 361.4082 0.0
5842 10 6 -0.3300 304.7961 360.9182 -1.196
5843 10 4 0.5100 304.55710000000005 361.49120000000005 -2.426
5844 10 5 -0.4300 303.82110000000006 362.51520000000005 -2.552
5845 10 1 -0.1800 305.17810000000003 360.89320000000004 -3.63
5846 10 3 0.0600 302.32210000000003 361.51820000000004 -1.019
5847 10 3 0.0600 302.32610000000005 362.0742 0.748
5848 10 7 0.0300 304.65610000000004 360.8202 0.851
5849 10 3 0.0600 304.5511 360.95120000000003 -4.521
5850 10 3 0.0600 305.49710000000005 359.84720000000004 -3.418
5851 10 3 0.0600 306.12010000000004 361.43420000000003 -3.859
5852 10 2 -0.1200 306.2561 361.4082 0.0
5853 10 9 0.2200 307.76410000000004 361.4082 0.0
5854 10 6 -0.3300 308.3041 360.2122 0.49
5855 10 4 0.5100 308.06510000000003 358.98220000000003 -0.083
5856 10 5 -0.4300 307.32910000000004 358.8562 -1.107
5857 10 1 -0.1800 308.6861 357.7782 0.515
5858 10 3 0.0600 305.8301 360.3892 -0.11
5859 10 3 0.0600 305.83410000000003 362.1562 -0.666
5860 10 7 0.0300 308.1641 362.2592 0.588
5861 10 3 0.0600 308.0591 356.8872 0.457
5862 10 3 0.0600 309.0051 357.9902 1.561
5863 10 3 0.0600 309.6281 357.54920000000004 -0.026
5864 10 2 -0.1200 309.7641 361.4082 0.0
5865 10 9 0.2200 311.2721 361.4082 0.0
5866 10 6 -0.3300 311.8121 360.9182 -1.196
5867 10 4 0.5100 311.5731 361.49120000000005 -2.426
5868 10 5 -0.4300 310.8371 362.51520000000005 -2.552
5869 10 1 -0.1800 312.1941 360.89320000000004 -3.63
5870 10 3 0.0600 309.3381 361.51820000000004 -1.019
5871 10 3 0.0600 309.3421 362.0742 0.748
5872 10 7 0.0300 311.6721 360.8202 0.851
5873 10 3 0.0600 311.5671 360.95120000000003 -4.521
5874 10 3 0.0600 312.5131 359.84720000000004 -3.418
5875 10 3 0.0600 313.1361 361.43420000000003 -3.859
5876 10 2 -0.1200 313.2721 361.4082 0.0
5877 10 9 0.2200 314.78010000000006 361.4082 0.0
5878 10 6 -0.3300 315.3201 360.2122 0.49
5879 10 4 0.5100 315.08110000000005 358.98220000000003 -0.083
5880 10 5 -0.4300 314.34510000000006 358.8562 -1.107
5881 10 1 -0.1800 315.70210000000003 357.7782 0.515
5882 10 3 0.0600 312.84610000000004 360.3892 -0.11
5883 10 3 0.0600 312.85010000000005 362.1562 -0.666
5884 10 7 0.0300 315.18010000000004 362.2592 0.588
5885 10 3 0.0600 315.0751 356.8872 0.457
5886 10 3 0.0600 316.02110000000005 357.9902 1.561
5887 10 3 0.0600 316.64410000000004 357.54920000000004 -0.026
5888 10 2 -0.1200 316.7801 361.4082 0.0
5889 10 9 0.2200 318.28810000000004 361.4082 0.0
5890 10 6 -0.3300 318.8281 360.9182 -1.196
5891 10 4 0.5100 318.58910000000003 361.49120000000005 -2.426
5892 10 5 -0.4300 317.85310000000004 362.51520000000005 -2.552
5893 10 1 -0.1800 319.2101 360.89320000000004 -3.63
5894 10 3 0.0600 316.3541 361.51820000000004 -1.019
5895 10 3 0.0600 316.35810000000004 362.0742 0.748
5896 10 7 0.0300 318.6881 360.8202 0.851
5897 10 3 0.0600 318.5831 360.95120000000003 -4.521
5898 10 3 0.0600 319.5291 359.84720000000004 -3.418
5899 10 3 0.0600 320.1521 361.43420000000003 -3.859
5900 10 2 -0.1200 320.2881 361.4082 0.0
5901 10 9 0.2200 321.7961 361.4082 0.0
5902 10 6 -0.3300 322.3361 360.2122 -0.49
5903 10 4 0.5100 322.0971 358.98220000000003 0.083
5904 10 5 -0.4300 321.3611 358.8562 1.107
5905 10 1 -0.1800 322.7181 357.7782 -0.515
5906 10 3 0.0600 319.8621 360.3892 0.11
5907 10 3 0.0600 319.8661 362.1562 0.666
5908 10 7 0.0300 322.1961 362.2592 -0.588
5909 10 3 0.0600 322.0911 356.8872 -0.457
5910 10 3 0.0600 323.0371 357.9902 -1.561
5911 10 3 0.0600 323.6601 357.54920000000004 0.026
5912 10 2 -0.1200 323.7961 361.4082 0.0
5913 10 9 0.2200 325.30410000000006 361.4082 0.0
5914 10 6 -0.3300 325.8441 360.9182 -1.196
5915 10 4 0.5100 325.60510000000005 361.49120000000005 -2.426
5916 10 5 -0.4300 324.86910000000006 362.51520000000005 -2.552
5917 10 1 -0.1800 326.22610000000003 360.89320000000004 -3.63
5918 10 3 0.0600 323.37010000000004 361.51820000000004 -1.019
5919 10 3 0.0600 323.37410000000006 362.0742 0.748
5920 10 7 0.0300 325.70410000000004 360.8202 0.851
5921 10 3 0.0600 325.5991 360.95120000000003 -4.521
5922 10 3 0.0600 326.54510000000005 359.84720000000004 -3.418
5923 10 3 0.0600 327.16810000000004 361.43420000000003 -3.859
5924 10 2 -0.1200 327.3041 361.4082 0.0
5925 10 9 0.2200 328.81210000000004 361.4082 0.0
5926 10 6 -0.3300 329.3521 360.2122 0.49
5927 10 4 0.5100 329.11310000000003 358.98220000000003 -0.083
5928 10 5 -0.4300 328.37710000000004 358.8562 -1.107
5929 10 1 -0.1800 329.7341 357.7782 0.515
5930 10 3 0.0600 326.8781 360.3892 -0.11
5931 10 3 0.0600 326.88210000000004 362.1562 -0.666
5932 10 7 0.0300 329.2121 362.2592 0.588
5933 10 3 0.0600 329.1071 356.8872 0.457
5934 10 3 0.0600 330.05310000000003 357.9902 1.561
5935 10 3 0.0600 330.6761 357.54920000000004 -0.026
5936 10 2 -0.1200 330.8121 361.4082 0.0
5937 10 9 0.2200 332.3201 361.4082 0.0
5938 10 6 -0.3300 332.8601 361.89820000000003 -1.196
5939 10 4 0.5100 332.6211 361.3252 -2.426
5940 10 5 -0.4300 331.8851 360.3012 -2.552
5941 10 1 -0.1800 333.2421 361.9232 -3.63
5942 10 3 0.0600 330.3861 361.2982 -1.019
5943 10 3 0.0600 330.3901 360.7422 0.748
5944 10 7 0.0300 332.7201 361.99620000000004 0.851
5945 10 3 0.0600 332.6151 361.8652 -4.521
5946 10 3 0.0600 333.5611 362.9692 -3.418
5947 10 3 0.0600 334.1841 361.3822 -3.859
5948 10 2 -0.1200 334.3201 361.4082 0.0
5949 10 9 0.2200 335.82810000000006 361.4082 0.0
5950 10 6 -0.3300 336.3681 360.2122 -0.49
5951 10 4 0.5100 336.12910000000005 358.98220000000003 0.083
5952 10 5 -0.4300 335.39310000000006 358.8562 1.107
5953 10 1 -0.1800 336.75010000000003 357.7782 -0.515
5954 10 3 0.0600 333.89410000000004 360.3892 0.11
5955 10 3 0.0600 333.89810000000006 362.1562 0.666
5956 10 7 0.0300 336.22810000000004 362.2592 -0.588
5957 10 3 0.0600 336.1231 356.8872 -0.457
5958 10 3 0.0600 337.06910000000005 357.9902 -1.561
5959 10 3 0.0600 337.69210000000004 357.54920000000004 0.026
5960 10 2 -0.1200 337.82809999999995 361.4082 0.0
5961 10 9 0.2200 339.3361 361.4082 0.0
5962 10 6 -0.3300 339.87609999999995 361.89820000000003 -1.196
5963 10 4 0.5100 339.6371 361.3252 -2.426
5964 10 5 -0.4300 338.9011 360.3012 -2.552
5965 10 1 -0.1800 340.25809999999996 361.9232 -3.63
5966 10 3 0.0600 337.40209999999996 361.2982 -1.019
5967 10 3 0.0600 337.4061 360.7422 0.748
5968 10 7 0.0300 339.73609999999996 361.99620000000004 0.851
5969 10 3 0.0600 339.63109999999995 361.8652 -4.521
5970 10 3 0.0600 340.5771 362.9692 -3.418
5971 10 3 0.0600 341.20009999999996 361.3822 -3.859
5972 10 2 -0.1200 341.3361 361.4082 0.0
5973 10 9 0.2200 342.8441 361.4082 0.0
5974 10 6 -0.3300 343.3841 360.2122 -0.49
5975 10 4 0.5100 343.1451 358.98220000000003 0.083
5976 10 5 -0.4300 342.4091 358.8562 1.107
5977 10 1 -0.1800 343.7661 357.7782 -0.515
5978 10 3 0.0600 340.9101 360.3892 0.11
5979 10 3 0.0600 340.9141 362.1562 0.666
5980 10 7 0.0300 343.2441 362.2592 -0.588
5981 10 3 0.0600 343.1391 356.8872 -0.457
5982 10 3 0.0600 344.0851 357.9902 -1.561
5983 10 3 0.0600 344.7081 357.54920000000004 0.026
5984 10 2 -0.1200 344.8441 361.4082 0.0
5985 10 9 0.2200 346.35210000000006 361.4082 0.0
5986 10 6 -0.3300 346.8921 360.9182 -1.196
5987 10 4 0.5100 346.65310000000005 361.49120000000005 -2.426
5988 10 5 -0.4300 345.91710000000006 362.51520000000005 -2.552
5989 10 1 -0.1800 347.27410000000003 360.89320000000004 -3.63
5990 10 3 0.0600 344.41810000000004 361.51820000000004 -1.019
5991 10 3 0.0600 344.42210000000006 362.0742 0.748
5992 10 7 0.0300 346.75210000000004 360.8202 0.851
5993 10 3 0.0600 346.6471 360.95120000000003 -4.521
5994 10 3 0.0600 347.59310000000005 359.84720000000004 -3.418
5995 10 3 0.0600 348.21610000000004 361.43420000000003 -3.859
5996 10 2 -0.1200 348.35209999999995 361.4082 0.0
5997 10 9 0.2200 349.8601 361.4082 0.0
5998 10 6 -0.3300 350.40009999999995 360.2122 -0.49
5999 10 4 0.5100 350.1611 358.98220000000003 0.083
6000 10 5 -0.4300 349.4251 358.8562 1.107
6001 10 1 -0.1800 350.78209999999996 357.7782 -0.515
6002 10 3 0.0600 347.92609999999996 360.3892 0.11
6003 10 3 0.0600 347.9301 362.1562 0.666
6004 10 7 0.0300 350.26009999999997 362.2592 -0.588
6005 10 3 0.0600 350.15509999999995 356.8872 -0.457
6006 10 3 0.0600 351.1011 357.9902 -1.561
6007 10 3 0.0600 351.72409999999996 357.54920000000004 0.026
6008 10 2 -0.1200 350.1341 361.4082 0.0
6009 10 8 0.1900 350.7071 360.9212 1.269
6010 10 6 -0.3300 352.0391 360.51120000000003 1.192
6011 10 4 0.5100 353.0871 361.3442 0.807
6012 10 5 -0.4300 352.85110000000003 362.5512 0.5039999999999999
6013 10 1 -0.1800 354.4941 360.8312 0.748
6014 10 3 0.0600 349.94710000000003 362.4572 -0.11600000000000008
6015 10 3 0.0600 349.8831 360.6992 -0.759
6016 10 7 0.0300 350.10810000000004 360.0312 1.587
6017 10 7 0.0300 350.5681 361.6652 2.079
6018 10 3 0.0600 354.9671 360.8552 1.738
6019 10 3 0.0600 354.47110000000004 359.75620000000004 0.4330000000000001
6020 10 3 0.0600 355.0941 361.4082 0.0

Bonds

1 19 1 2
2 26 2 3
3 6 3 4
4 1 4 5
5 2 4 6
6 27 1 7
7 27 1 8
8 27 1 9
9 34 2 10
10 27 6 11
11 27 6 12
12 27 6 13
13 20 14 15
14 26 15 16
15 6 16 17
16 1 17 18
17 2 17 19
18 29 14 20
19 29 14 21
20 34 15 22
21 27 19 23
22 27 19 24
23 27 19 25
24 20 26 27
25 26 27 28
26 6 28 29
27 1 29 30
28 2 29 31
29 29 26 32
30 29 26 33
31 34 27 34
32 27 31 35
33 27 31 36
34 27 31 37
35 20 38 39
36 26 39 40
37 6 40 41
38 1 41 42
39 2 41 43
40 29 38 44
41 29 38 45
42 34 39 46
43 27 43 47
44 27 43 48
45 27 43 49
46 20 50 51
47 26 51 52
48 6 52 53
49 1 53 54
50 2 53 55
51 29 50 56
52 29 50 57
53 34 51 58
54 27 55 59
55 27 55 60
56 27 55 61
57 20 62 63
58 26 63 64
59 6 64 65
60 1 65 66
61 2 65 67
62 29 62 68
63 29 62 69
64 34 63 70
65 27 67 71
66 27 67 72
67 27 67 73
68 20 74 75
69 26 75 76
70 6 76 77
71 1 77 78
72 2 77 79
73 29 74 80
74 29 74 81
75 34 75 82
76 27 79 83
77 27 79 84
78 27 79 85
79 20 86 87
80 26 87 88
81 6 88 89
82 1 89 90
83 2 89 91
84 29 86 92
85 29 86 93
86 34 87 94
87 27 91 95
88 27 91 96
89 27 91 97
90 20 98 99
91 26 99 100
92 6 100 101
93 1 101 102
94 2 101 103
95 29 98 104
96 29 98 105
97 34 99 106
98 27 103 107
99 27 103 108
100 27 103 109
101 20 110 111
102 26 111 112
103 6 112 113
104 1 113 114
105 2 113 115
106 29 110 116
107 29 110 117
108 34 111 118
109 27 115 119
110 27 115 120
111 27 115 121
112 20 122 123
113 26 123 124
114 6 124 125
115 1 125 126
116 2 125 127
117 29 122 128
118 29 122 129
119 34 123 130
120 27 127 131
121 27 127 132
122 27 127 133
123 20 134 135
124 26 135 136
125 6 136 137
126 1 137 138
127 2 137 139
128 29 134 140
129 29 134 141
130 34 135 142
131 27 139 143
132 27 139 144
133 27 139 145
134 20 146 147
135 26 147 148
136 6 148 149
137 1 149 150
138 2 149 151
139 29 146 152
140 29 146 153
141 34 147 154
142 27 151 155
143 27 151 156
144 27 151 157
145 20 158 159
146 26 159 160
147 6 160 161
148 1 161 162
149 2 161 163
150 29 158 164
151 29 158 165
152 34 159 166
153 27 163 167
154 27 163 168
155 27 163 169
156 20 170 171
157 26 171 172
158 6 172 173
159 1 173 174
160 2 173 175
161 29 170 176
162 29 170 177
163 34 171 178
164 27 175 179
165 27 175 180
166 27 175 181
167 20 182 183
168 26 183 184
169 6 184 185
170 1 185 186
171 2 185 187
172 29 182 188
173 29 182 189
174 34 183 190
175 27 187 191
176 27 187 192
177 27 187 193
178 20 194 195
179 26 195 196
180 6 196 197
181 1 197 198
182 2 197 199
183 29 194 200
184 29 194 201
185 34 195 202
186 27 199 203
187 27 199 204
188 27 199 205
189 20 206 207
190 26 207 208
191 6 208 209
192 1 209 210
193 2 209 211
194 29 206 212
195 29 206 213
196 34 207 214
197 27 211 215
198 27 211 216
199 27 211 217
200 20 218 219
201 26 219 220
202 6 220 221
203 1 221 222
204 2 221 223
205 29 218 224
206 29 218 225
207 34 219 226
208 27 223 227
209 27 223 228
210 27 223 229
211 20 230 231
212 26 231 232
213 6 232 233
214 1 233 234
215 2 233 235
216 29 230 236
217 29 230 237
218 34 231 238
219 27 235 239
220 27 235 240
221 27 235 241
222 20 242 243
223 26 243 244
224 6 244 245
225 1 245 246
226 2 245 247
227 29 242 248
228 29 242 249
229 34 243 250
230 27 247 251
231 27 247 252
232 27 247 253
233 20 254 255
234 26 255 256
235 6 256 257
236 1 257 258
237 2 257 259
238 29 254 260
239 29 254 261
240 34 255 262
241 27 259 263
242 27 259 264
243 27 259 265
244 20 266 267
245 26 267 268
246 6 268 269
247 1 269 270
248 2 269 271
249 29 266 272
250 29 266 273
251 34 267 274
252 27 271 275
253 27 271 276
254 27 271 277
255 20 278 279
256 26 279 280
257 6 280 281
258 1 281 282
259 2 281 283
260 29 278 284
261 29 278 285
262 34 279 286
263 27 283 287
264 27 283 288
265 27 283 289
266 20 290 291
267 26 291 292
268 6 292 293
269 1 293 294
270 2 293 295
271 29 290 296
272 29 290 297
273 34 291 298
274 27 295 299
275 27 295 300
276 27 295 301
277 20 302 303
278 26 303 304
279 6 304 305
280 1 305 306
281 2 305 307
282 29 302 308
283 29 302 309
284 34 303 310
285 27 307 311
286 27 307 312
287 27 307 313
288 20 314 315
289 26 315 316
290 6 316 317
291 1 317 318
292 2 317 319
293 29 314 320
294 29 314 321
295 34 315 322
296 27 319 323
297 27 319 324
298 27 319 325
299 20 326 327
300 26 327 328
301 6 328 329
302 1 329 330
303 2 329 331
304 29 326 332
305 29 326 333
306 34 327 334
307 27 331 335
308 27 331 336
309 27 331 337
310 20 338 339
311 26 339 340
312 6 340 341
313 1 341 342
314 2 341 343
315 29 338 344
316 29 338 345
317 34 339 346
318 27 343 347
319 27 343 348
320 27 343 349
321 20 350 351
322 26 351 352
323 6 352 353
324 1 353 354
325 2 353 355
326 29 350 356
327 29 350 357
328 34 351 358
329 27 355 359
330 27 355 360
331 27 355 361
332 20 362 363
333 26 363 364
334 6 364 365
335 1 365 366
336 2 365 367
337 29 362 368
338 29 362 369
339 34 363 370
340 27 367 371
341 27 367 372
342 27 367 373
343 20 374 375
344 26 375 376
345 6 376 377
346 1 377 378
347 2 377 379
348 29 374 380
349 29 374 381
350 34 375 382
351 27 379 383
352 27 379 384
353 27 379 385
354 20 386 387
355 26 387 388
356 6 388 389
357 1 389 390
358 2 389 391
359 29 386 392
360 29 386 393
361 34 387 394
362 27 391 395
363 27 391 396
364 27 391 397
365 20 398 399
366 26 399 400
367 6 400 401
368 1 401 402
369 2 401 403
370 29 398 404
371 29 398 405
372 34 399 406
373 27 403 407
374 27 403 408
375 27 403 409
376 20 410 411
377 26 411 412
378 6 412 413
379 1 413 414
380 2 413 415
381 29 410 416
382 29 410 417
383 34 411 418
384 27 415 419
385 27 415 420
386 27 415 421
387 20 422 423
388 26 423 424
389 6 424 425
390 1 425 426
391 2 425 427
392 29 422 428
393 29 422 429
394 34 423 430
395 27 427 431
396 27 427 432
397 27 427 433
398 20 434 435
399 26 435 436
400 6 436 437
401 1 437 438
402 2 437 439
403 29 434 440
404 29 434 441
405 34 435 442
406 27 439 443
407 27 439 444
408 27 439 445
409 20 446 447
410 26 447 448
411 6 448 449
412 1 449 450
413 2 449 451
414 29 446 452
415 29 446 453
416 34 447 454
417 27 451 455
418 27 451 456
419 27 451 457
420 20 458 459
421 26 459 460
422 6 460 461
423 1 461 462
424 2 461 463
425 29 458 464
426 29 458 465
427 34 459 466
428 27 463 467
429 27 463 468
430 27 463 469
431 20 470 471
432 26 471 472
433 6 472 473
434 1 473 474
435 2 473 475
436 29 470 476
437 29 470 477
438 34 471 478
439 27 475 479
440 27 475 480
441 27 475 481
442 20 482 483
443 26 483 484
444 6 484 485
445 1 485 486
446 2 485 487
447 29 482 488
448 29 482 489
449 34 483 490
450 27 487 491
451 27 487 492
452 27 487 493
453 20 494 495
454 26 495 496
455 6 496 497
456 1 497 498
457 2 497 499
458 29 494 500
459 29 494 501
460 34 495 502
461 27 499 503
462 27 499 504
463 27 499 505
464 20 506 507
465 26 507 508
466 6 508 509
467 1 509 510
468 2 509 511
469 29 506 512
470 29 506 513
471 34 507 514
472 27 511 515
473 27 511 516
474 27 511 517
475 20 518 519
476 26 519 520
477 6 520 521
478 1 521 522
479 2 521 523
480 29 518 524
481 29 518 525
482 34 519 526
483 27 523 527
484 27 523 528
485 27 523 529
486 20 530 531
487 26 531 532
488 6 532 533
489 1 533 534
490 2 533 535
491 29 530 536
492 29 530 537
493 34 531 538
494 27 535 539
495 27 535 540
496 27 535 541
497 20 542 543
498 26 543 544
499 6 544 545
500 1 545 546
501 2 545 547
502 29 542 548
503 29 542 549
504 34 543 550
505 27 547 551
506 27 547 552
507 27 547 553
508 20 554 555
509 26 555 556
510 6 556 557
511 1 557 558
512 2 557 559
513 29 554 560
514 29 554 561
515 34 555 562
516 27 559 563
517 27 559 564
518 27 559 565
519 20 566 567
520 26 567 568
521 6 568 569
522 1 569 570
523 2 569 571
524 29 566 572
525 29 566 573
526 34 567 574
527 27 571 575
528 27 571 576
529 27 571 577
530 20 578 579
531 26 579 580
532 6 580 581
533 1 581 582
534 2 581 583
535 29 578 584
536 29 578 585
537 34 579 586
538 27 583 587
539 27 583 588
540 27 583 589
541 16 590 591
542 25 591 592
543 6 592 593
544 1 593 594
545 2 593 595
546 29 590 596
547 29 590 597
548 32 591 598
549 32 591 599
550 27 595 600
551 27 595 601
552 27 595 602
553 20 2 14
554 20 15 26
555 20 27 38
556 20 39 50
557 20 51 62
558 20 63 74
559 20 75 86
560 20 87 98
561 20 99 110
562 20 111 122
563 20 123 134
564 20 135 146
565 20 147 158
566 20 159 170
567 20 171 182
568 20 183 194
569 20 195 206
570 20 207 218
571 20 219 230
572 20 231 242
573 20 243 254
574 20 255 266
575 20 267 278
576 20 279 290
577 20 291 302
578 20 303 314
579 20 315 326
580 20 327 338
581 20 339 350
582 20 351 362
583 20 363 374
584 20 375 386
585 20 387 398
586 20 399 410
587 20 411 422
588 20 423 434
589 20 435 446
590 20 447 458
591 20 459 470
592 20 471 482
593 20 483 494
594 20 495 506
595 20 507 518
596 20 519 530
597 20 531 542
598 20 543 554
599 20 555 566
600 20 567 578
601 20 579 590
602 19 603 604
603 26 604 605
604 6 605 606
605 1 606 607
606 2 606 608
607 27 603 609
608 27 603 610
609 27 603 611
610 34 604 612
611 27 608 613
612 27 608 614
613 27 608 615
614 20 616 617
615 26 617 618
616 6 618 619
617 1 619 620
618 2 619 621
619 29 616 622
620 29 616 623
621 34 617 624
622 27 621 625
623 27 621 626
624 27 621 627
625 20 628 629
626 26 629 630
627 6 630 631
628 1 631 632
629 2 631 633
630 29 628 634
631 29 628 635
632 34 629 636
633 27 633 637
634 27 633 638
635 27 633 639
636 20 640 641
637 26 641 642
638 6 642 643
639 1 643 644
640 2 643 645
641 29 640 646
642 29 640 647
643 34 641 648
644 27 645 649
645 27 645 650
646 27 645 651
647 20 652 653
648 26 653 654
649 6 654 655
650 1 655 656
651 2 655 657
652 29 652 658
653 29 652 659
654 34 653 660
655 27 657 661
656 27 657 662
657 27 657 663
658 20 664 665
659 26 665 666
660 6 666 667
661 1 667 668
662 2 667 669
663 29 664 670
664 29 664 671
665 34 665 672
666 27 669 673
667 27 669 674
668 27 669 675
669 20 676 677
670 26 677 678
671 6 678 679
672 1 679 680
673 2 679 681
674 29 676 682
675 29 676 683
676 34 677 684
677 27 681 685
678 27 681 686
679 27 681 687
680 20 688 689
681 26 689 690
682 6 690 691
683 1 691 692
684 2 691 693
685 29 688 694
686 29 688 695
687 34 689 696
688 27 693 697
689 27 693 698
690 27 693 699
691 20 700 701
692 26 701 702
693 6 702 703
694 1 703 704
695 2 703 705
696 29 700 706
697 29 700 707
698 34 701 708
699 27 705 709
700 27 705 710
701 27 705 711
702 20 712 713
703 26 713 714
704 6 714 715
705 1 715 716
706 2 715 717
707 29 712 718
708 29 712 719
709 34 713 720
710 27 717 721
711 27 717 722
712 27 717 723
713 20 724 725
714 26 725 726
715 6 726 727
716 1 727 728
717 2 727 729
718 29 724 730
719 29 724 731
720 34 725 732
721 27 729 733
722 27 729 734
723 27 729 735
724 20 736 737
725 26 737 738
726 6 738 739
727 1 739 740
728 2 739 741
729 29 736 742
730 29 736 743
731 34 737 744
732 27 741 745
733 27 741 746
734 27 741 747
735 20 748 749
736 26 749 750
737 6 750 751
738 1 751 752
739 2 751 753
740 29 748 754
741 29 748 755
742 34 749 756
743 27 753 757
744 27 753 758
745 27 753 759
746 20 760 761
747 26 761 762
748 6 762 763
749 1 763 764
750 2 763 765
751 29 760 766
752 29 760 767
753 34 761 768
754 27 765 769
755 27 765 770
756 27 765 771
757 20 772 773
758 26 773 774
759 6 774 775
760 1 775 776
761 2 775 777
762 29 772 778
763 29 772 779
764 34 773 780
765 27 777 781
766 27 777 782
767 27 777 783
768 20 784 785
769 26 785 786
770 6 786 787
771 1 787 788
772 2 787 789
773 29 784 790
774 29 784 791
775 34 785 792
776 27 789 793
777 27 789 794
778 27 789 795
779 20 796 797
780 26 797 798
781 6 798 799
782 1 799 800
783 2 799 801
784 29 796 802
785 29 796 803
786 34 797 804
787 27 801 805
788 27 801 806
789 27 801 807
790 20 808 809
791 26 809 810
792 6 810 811
793 1 811 812
794 2 811 813
795 29 808 814
796 29 808 815
797 34 809 816
798 27 813 817
799 27 813 818
800 27 813 819
801 20 820 821
802 26 821 822
803 6 822 823
804 1 823 824
805 2 823 825
806 29 820 826
807 29 820 827
808 34 821 828
809 27 825 829
810 27 825 830
811 27 825 831
812 20 832 833
813 26 833 834
814 6 834 835
815 1 835 836
816 2 835 837
817 29 832 838
818 29 832 839
819 34 833 840
820 27 837 841
821 27 837 842
822 27 837 843
823 20 844 845
824 26 845 846
825 6 846 847
826 1 847 848
827 2 847 849
828 29 844 850
829 29 844 851
830 34 845 852
831 27 849 853
832 27 849 854
833 27 849 855
834 20 856 857
835 26 857 858
836 6 858 859
837 1 859 860
838 2 859 861
839 29 856 862
840 29 856 863
841 34 857 864
842 27 861 865
843 27 861 866
844 27 861 867
845 20 868 869
846 26 869 870
847 6 870 871
848 1 871 872
849 2 871 873
850 29 868 874
851 29 868 875
852 34 869 876
853 27 873 877
854 27 873 878
855 27 873 879
856 20 880 881
857 26 881 882
858 6 882 883
859 1 883 884
860 2 883 885
861 29 880 886
862 29 880 887
863 34 881 888
864 27 885 889
865 27 885 890
866 27 885 891
867 20 892 893
868 26 893 894
869 6 894 895
870 1 895 896
871 2 895 897
872 29 892 898
873 29 892 899
874 34 893 900
875 27 897 901
876 27 897 902
877 27 897 903
878 20 904 905
879 26 905 906
880 6 906 907
881 1 907 908
882 2 907 909
883 29 904 910
884 29 904 911
885 34 905 912
886 27 909 913
887 27 909 914
888 27 909 915
889 20 916 917
890 26 917 918
891 6 918 919
892 1 919 920
893 2 919 921
894 29 916 922
895 29 916 923
896 34 917 924
897 27 921 925
898 27 921 926
899 27 921 927
900 20 928 929
901 26 929 930
902 6 930 931
903 1 931 932
904 2 931 933
905 29 928 934
906 29 928 935
907 34 929 936
908 27 933 937
909 27 933 938
910 27 933 939
911 20 940 941
912 26 941 942
913 6 942 943
914 1 943 944
915 2 943 945
916 29 940 946
917 29 940 947
918 34 941 948
919 27 945 949
920 27 945 950
921 27 945 951
922 20 952 953
923 26 953 954
924 6 954 955
925 1 955 956
926 2 955 957
927 29 952 958
928 29 952 959
929 34 953 960
930 27 957 961
931 27 957 962
932 27 957 963
933 20 964 965
934 26 965 966
935 6 966 967
936 1 967 968
937 2 967 969
938 29 964 970
939 29 964 971
940 34 965 972
941 27 969 973
942 27 969 974
943 27 969 975
944 20 976 977
945 26 977 978
946 6 978 979
947 1 979 980
948 2 979 981
949 29 976 982
950 29 976 983
951 34 977 984
952 27 981 985
953 27 981 986
954 27 981 987
955 20 988 989
956 26 989 990
957 6 990 991
958 1 991 992
959 2 991 993
960 29 988 994
961 29 988 995
962 34 989 996
963 27 993 997
964 27 993 998
965 27 993 999
966 20 1000 1001
967 26 1001 1002
968 6 1002 1003
969 1 1003 1004
970 2 1003 1005
971 29 1000 1006
972 29 1000 1007
973 34 1001 1008
974 27 1005 1009
975 27 1005 1010
976 27 1005 1011
977 20 1012 1013
978 26 1013 1014
979 6 1014 1015
980 1 1015 1016
981 2 1015 1017
982 29 1012 1018
983 29 1012 1019
984 34 1013 1020
985 27 1017 1021
986 27 1017 1022
987 27 1017 1023
988 20 1024 1025
989 26 1025 1026
990 6 1026 1027
991 1 1027 1028
992 2 1027 1029
993 29 1024 1030
994 29 1024 1031
995 34 1025 1032
996 27 1029 1033
997 27 1029 1034
998 27 1029 1035
999 20 1036 1037
1000 26 1037 1038
1001 6 1038 1039
1002 1 1039 1040
1003 2 1039 1041
1004 29 1036 1042
1005 29 1036 1043
1006 34 1037 1044
1007 27 1041 1045
1008 27 1041 1046
1009 27 1041 1047
1010 20 1048 1049
1011 26 1049 1050
1012 6 1050 1051
1013 1 1051 1052
1014 2 1051 1053
1015 29 1048 1054
1016 29 1048 1055
1017 34 1049 1056
1018 27 1053 1057
1019 27 1053 1058
1020 27 1053 1059
1021 20 1060 1061
1022 26 1061 1062
1023 6 1062 1063
1024 1 1063 1064
1025 2 1063 1065
1026 29 1060 1066
1027 29 1060 1067
1028 34 1061 1068
1029 27 1065 1069
1030 27 1065 1070
1031 27 1065 1071
1032 20 1072 1073
1033 26 1073 1074
1034 6 1074 1075
1035 1 1075 1076
1036 2 1075 1077
1037 29 1072 1078
1038 29 1072 1079
1039 34 1073 1080
1040 27 1077 1081
1041 27 1077 1082
1042 27 1077 1083
1043 20 1084 1085
1044 26 1085 1086
1045 6 1086 1087
1046 1 1087 1088
1047 2 1087 1089
1048 29 1084 1090
1049 29 1084 1091
1050 34 1085 1092
1051 27 1089 1093
1052 27 1089 1094
1053 27 1089 1095
1054 20 1096 1097
1055 26 1097 1098
1056 6 1098 1099
1057 1 1099 1100
1058 2 1099 1101
1059 29 1096 1102
1060 29 1096 1103
1061 34 1097 1104
1062 27 1101 1105
1063 27 1101 1106
1064 27 1101 1107
1065 20 1108 1109
1066 26 1109 1110
1067 6 1110 1111
1068 1 1111 1112
1069 2 1111 1113
1070 29 1108 1114
1071 29 1108 1115
1072 34 1109 1116
1073 27 1113 1117
1074 27 1113 1118
1075 27 1113 1119
1076 20 1120 1121
1077 26 1121 1122
1078 6 1122 1123
1079 1 1123 1124
1080 2 1123 1125
1081 29 1120 1126
1082 29 1120 1127
1083 34 1121 1128
1084 27 1125 1129
1085 27 1125 1130
1086 27 1125 1131
1087 20 1132 1133
1088 26 1133 1134
1089 6 1134 1135
1090 1 1135 1136
1091 2 1135 1137
1092 29 1132 1138
1093 29 1132 1139
1094 34 1133 1140
1095 27 1137 1141
1096 27 1137 1142
1097 27 1137 1143
1098 20 1144 1145
1099 26 1145 1146
1100 6 1146 1147
1101 1 1147 1148
1102 2 1147 1149
1103 29 1144 1150
1104 29 1144 1151
1105 34 1145 1152
1106 27 1149 1153
1107 27 1149 1154
1108 27 1149 1155
1109 20 1156 1157
1110 26 1157 1158
1111 6 1158 1159
1112 1 1159 1160
1113 2 1159 1161
1114 29 1156 1162
1115 29 1156 1163
1116 34 1157 1164
1117 27 1161 1165
1118 27 1161 1166
1119 27 1161 1167
1120 20 1168 1169
1121 26 1169 1170
1122 6 1170 1171
1123 1 1171 1172
1124 2 1171 1173
1125 29 1168 1174
1126 29 1168 1175
1127 34 1169 1176
1128 27 1173 1177
1129 27 1173 1178
1130 27 1173 1179
1131 20 1180 1181
1132 26 1181 1182
1133 6 1182 1183
1134 1 1183 1184
1135 2 1183 1185
1136 29 1180 1186
1137 29 1180 1187
1138 34 1181 1188
1139 27 1185 1189
1140 27 1185 1190
1141 27 1185 1191
1142 16 1192 1193
1143 25 1193 1194
1144 6 1194 1195
1145 1 1195 1196
1146 2 1195 1197
1147 29 1192 1198
1148 29 1192 1199
1149 32 1193 1200
1150 32 1193 1201
1151 27 1197 1202
1152 27 1197 1203
1153 27 1197 1204
1154 20 604 616
1155 20 617 628
1156 20 629 640
1157 20 641 652
1158 20 653 664
1159 20 665 676
1160 20 677 688
1161 20 689 700
1162 20 701 712
1163 20 713 724
1164 20 725 736
1165 20 737 748
1166 20 749 760
1167 20 761 772
1168 20 773 784
1169 20 785 796
1170 20 797 808
1171 20 809 820
1172 20 821 832
1173 20 833 844
1174 20 845 856
1175 20 857 868
1176 20 869 880
1177 20 881 892
1178 20 893 904
1179 20 905 916
1180 20 917 928
1181 20 929 940
1182 20 941 952
1183 20 953 964
1184 20 965 976
1185 20 977 988
1186 20 989 1000
1187 20 1001 1012
1188 20 1013 1024
1189 20 1025 1036
1190 20 1037 1048
1191 20 1049 1060
1192 20 1061 1072
1193 20 1073 1084
1194 20 1085 1096
1195 20 1097 1108
1196 20 1109 1120
1197 20 1121 1132
1198 20 1133 1144
1199 20 1145 1156
1200 20 1157 1168
1201 20 1169 1180
1202 20 1181 1192
1203 19 1205 1206
1204 26 1206 1207
1205 6 1207 1208
1206 1 1208 1209
1207 2 1208 1210
1208 27 1205 1211
1209 27 1205 1212
1210 27 1205 1213
1211 34 1206 1214
1212 27 1210 1215
1213 27 1210 1216
1214 27 1210 1217
1215 20 1218 1219
1216 26 1219 1220
1217 6 1220 1221
1218 1 1221 1222
1219 2 1221 1223
1220 29 1218 1224
1221 29 1218 1225
1222 34 1219 1226
1223 27 1223 1227
1224 27 1223 1228
1225 27 1223 1229
1226 20 1230 1231
1227 26 1231 1232
1228 6 1232 1233
1229 1 1233 1234
1230 2 1233 1235
1231 29 1230 1236
1232 29 1230 1237
1233 34 1231 1238
1234 27 1235 1239
1235 27 1235 1240
1236 27 1235 1241
1237 20 1242 1243
1238 26 1243 1244
1239 6 1244 1245
1240 1 1245 1246
1241 2 1245 1247
1242 29 1242 1248
1243 29 1242 1249
1244 34 1243 1250
1245 27 1247 1251
1246 27 1247 1252
1247 27 1247 1253
1248 20 1254 1255
1249 26 1255 1256
1250 6 1256 1257
1251 1 1257 1258
1252 2 1257 1259
1253 29 1254 1260
1254 29 1254 1261
1255 34 1255 1262
1256 27 1259 1263
1257 27 1259 1264
1258 27 1259 1265
1259 20 1266 1267
1260 26 1267 1268
1261 6 1268 1269
1262 1 1269 1270
1263 2 1269 1271
1264 29 1266 1272
1265 29 1266 1273
1266 34 1267 1274
1267 27 1271 1275
1268 27 1271 1276
1269 27 1271 1277
1270 20 1278 1279
1271 26 1279 1280
1272 6 1280 1281
1273 1 1281 1282
1274 2 1281 1283
1275 29 1278 1284
1276 29 1278 1285
1277 34 1279 1286
1278 27 1283 1287
1279 27 1283 1288
1280 27 1283 1289
1281 20 1290 1291
1282 26 1291 1292
1283 6 1292 1293
1284 1 1293 1294
1285 2 1293 1295
1286 29 1290 1296
1287 29 1290 1297
1288 34 1291 1298
1289 27 1295 1299
1290 27 1295 1300
1291 27 1295 1301
1292 20 1302 1303
1293 26 1303 1304
1294 6 1304 1305
1295 1 1305 1306
1296 2 1305 1307
1297 29 1302 1308
1298 29 1302 1309
1299 34 1303 1310
1300 27 1307 1311
1301 27 1307 1312
1302 27 1307 1313
1303 20 1314 1315
1304 26 1315 1316
1305 6 1316 1317
1306 1 1317 1318
1307 2 1317 1319
1308 29 1314 1320
1309 29 1314 1321
1310 34 1315 1322
1311 27 1319 1323
1312 27 1319 1324
1313 27 1319 1325
1314 20 1326 1327
1315 26 1327 1328
1316 6 1328 1329
1317 1 1329 1330
1318 2 1329 1331
1319 29 1326 1332
1320 29 1326 1333
1321 34 1327 1334
1322 27 1331 1335
1323 27 1331 1336
1324 27 1331 1337
1325 20 1338 1339
1326 26 1339 1340
1327 6 1340 1341
1328 1 1341 1342
1329 2 1341 1343
1330 29 1338 1344
1331 29 1338 1345
1332 34 1339 1346
1333 27 1343 1347
1334 27 1343 1348
1335 27 1343 1349
1336 20 1350 1351
1337 26 1351 1352
1338 6 1352 1353
1339 1 1353 1354
1340 2 1353 1355
1341 29 1350 1356
1342 29 1350 1357
1343 34 1351 1358
1344 27 1355 1359
1345 27 1355 1360
1346 27 1355 1361
1347 20 1362 1363
1348 26 1363 1364
1349 6 1364 1365
1350 1 1365 1366
1351 2 1365 1367
1352 29 1362 1368
1353 29 1362 1369
1354 34 1363 1370
1355 27 1367 1371
1356 27 1367 1372
1357 27 1367 1373
1358 20 1374 1375
1359 26 1375 1376
1360 6 1376 1377
1361 1 1377 1378
1362 2 1377 1379
1363 29 1374 1380
1364 29 1374 1381
1365 34 1375 1382
1366 27 1379 1383
1367 27 1379 1384
1368 27 1379 1385
1369 20 1386 1387
1370 26 1387 1388
1371 6 1388 1389
1372 1 1389 1390
1373 2 1389 1391
1374 29 1386 1392
1375 29 1386 1393
1376 34 1387 1394
1377 27 1391 1395
1378 27 1391 1396
1379 27 1391 1397
1380 20 1398 1399
1381 26 1399 1400
1382 6 1400 1401
1383 1 1401 1402
1384 2 1401 1403
1385 29 1398 1404
1386 29 1398 1405
1387 34 1399 1406
1388 27 1403 1407
1389 27 1403 1408
1390 27 1403 1409
1391 20 1410 1411
1392 26 1411 1412
1393 6 1412 1413
1394 1 1413 1414
1395 2 1413 1415
1396 29 1410 1416
1397 29 1410 1417
1398 34 1411 1418
1399 27 1415 1419
1400 27 1415 1420
1401 27 1415 1421
1402 20 1422 1423
1403 26 1423 1424
1404 6 1424 1425
1405 1 1425 1426
1406 2 1425 1427
1407 29 1422 1428
1408 29 1422 1429
1409 34 1423 1430
1410 27 1427 1431
1411 27 1427 1432
1412 27 1427 1433
1413 20 1434 1435
1414 26 1435 1436
1415 6 1436 1437
1416 1 1437 1438
1417 2 1437 1439
1418 29 1434 1440
1419 29 1434 1441
1420 34 1435 1442
1421 27 1439 1443
1422 27 1439 1444
1423 27 1439 1445
1424 20 1446 1447
1425 26 1447 1448
1426 6 1448 1449
1427 1 1449 1450
1428 2 1449 1451
1429 29 1446 1452
1430 29 1446 1453
1431 34 1447 1454
1432 27 1451 1455
1433 27 1451 1456
1434 27 1451 1457
1435 20 1458 1459
1436 26 1459 1460
1437 6 1460 1461
1438 1 1461 1462
1439 2 1461 1463
1440 29 1458 1464
1441 29 1458 1465
1442 34 1459 1466
1443 27 1463 1467
1444 27 1463 1468
1445 27 1463 1469
1446 20 1470 1471
1447 26 1471 1472
1448 6 1472 1473
1449 1 1473 1474
1450 2 1473 1475
1451 29 1470 1476
1452 29 1470 1477
1453 34 1471 1478
1454 27 1475 1479
1455 27 1475 1480
1456 27 1475 1481
1457 20 1482 1483
1458 26 1483 1484
1459 6 1484 1485
1460 1 1485 1486
1461 2 1485 1487
1462 29 1482 1488
1463 29 1482 1489
1464 34 1483 1490
1465 27 1487 1491
1466 27 1487 1492
1467 27 1487 1493
1468 20 1494 1495
1469 26 1495 1496
1470 6 1496 1497
1471 1 1497 1498
1472 2 1497 1499
1473 29 1494 1500
1474 29 1494 1501
1475 34 1495 1502
1476 27 1499 1503
1477 27 1499 1504
1478 27 1499 1505
1479 20 1506 1507
1480 26 1507 1508
1481 6 1508 1509
1482 1 1509 1510
1483 2 1509 1511
1484 29 1506 1512
1485 29 1506 1513
1486 34 1507 1514
1487 27 1511 1515
1488 27 1511 1516
1489 27 1511 1517
1490 20 1518 1519
1491 26 1519 1520
1492 6 1520 1521
1493 1 1521 1522
1494 2 1521 1523
1495 29 1518 1524
1496 29 1518 1525
1497 34 1519 1526
1498 27 1523 1527
1499 27 1523 1528
1500 27 1523 1529
1501 20 1530 1531
1502 26 1531 1532
1503 6 1532 1533
1504 1 1533 1534
1505 2 1533 1535
1506 29 1530 1536
1507 29 1530 1537
1508 34 1531 1538
1509 27 1535 1539
1510 27 1535 1540
1511 27 1535 1541
1512 20 1542 1543
1513 26 1543 1544
1514 6 1544 1545
1515 1 1545 1546
1516 2 1545 1547
1517 29 1542 1548
1518 29 1542 1549
1519 34 1543 1550
1520 27 1547 1551
1521 27 1547 1552
1522 27 1547 1553
1523 20 1554 1555
1524 26 1555 1556
1525 6 1556 1557
1526 1 1557 1558
1527 2 1557 1559
1528 29 1554 1560
1529 29 1554 1561
1530 34 1555 1562
1531 27 1559 1563
1532 27 1559 1564
1533 27 1559 1565
1534 20 1566 1567
1535 26 1567 1568
1536 6 1568 1569
1537 1 1569 1570
1538 2 1569 1571
1539 29 1566 1572
1540 29 1566 1573
1541 34 1567 1574
1542 27 1571 1575
1543 27 1571 1576
1544 27 1571 1577
1545 20 1578 1579
1546 26 1579 1580
1547 6 1580 1581
1548 1 1581 1582
1549 2 1581 1583
1550 29 1578 1584
1551 29 1578 1585
1552 34 1579 1586
1553 27 1583 1587
1554 27 1583 1588
1555 27 1583 1589
1556 20 1590 1591
1557 26 1591 1592
1558 6 1592 1593
1559 1 1593 1594
1560 2 1593 1595
1561 29 1590 1596
1562 29 1590 1597
1563 34 1591 1598
1564 27 1595 1599
1565 27 1595 1600
1566 27 1595 1601
1567 20 1602 1603
1568 26 1603 1604
1569 6 1604 1605
1570 1 1605 1606
1571 2 1605 1607
1572 29 1602 1608
1573 29 1602 1609
1574 34 1603 1610
1575 27 1607 1611
1576 27 1607 1612
1577 27 1607 1613
1578 20 1614 1615
1579 26 1615 1616
1580 6 1616 1617
1581 1 1617 1618
1582 2 1617 1619
1583 29 1614 1620
1584 29 1614 1621
1585 34 1615 1622
1586 27 1619 1623
1587 27 1619 1624
1588 27 1619 1625
1589 20 1626 1627
1590 26 1627 1628
1591 6 1628 1629
1592 1 1629 1630
1593 2 1629 1631
1594 29 1626 1632
1595 29 1626 1633
1596 34 1627 1634
1597 27 1631 1635
1598 27 1631 1636
1599 27 1631 1637
1600 20 1638 1639
1601 26 1639 1640
1602 6 1640 1641
1603 1 1641 1642
1604 2 1641 1643
1605 29 1638 1644
1606 29 1638 1645
1607 34 1639 1646
1608 27 1643 1647
1609 27 1643 1648
1610 27 1643 1649
1611 20 1650 1651
1612 26 1651 1652
1613 6 1652 1653
1614 1 1653 1654
1615 2 1653 1655
1616 29 1650 1656
1617 29 1650 1657
1618 34 1651 1658
1619 27 1655 1659
1620 27 1655 1660
1621 27 1655 1661
1622 20 1662 1663
1623 26 1663 1664
1624 6 1664 1665
1625 1 1665 1666
1626 2 1665 1667
1627 29 1662 1668
1628 29 1662 1669
1629 34 1663 1670
1630 27 1667 1671
1631 27 1667 1672
1632 27 1667 1673
1633 20 1674 1675
1634 26 1675 1676
1635 6 1676 1677
1636 1 1677 1678
1637 2 1677 1679
1638 29 1674 1680
1639 29 1674 1681
1640 34 1675 1682
1641 27 1679 1683
1642 27 1679 1684
1643 27 1679 1685
1644 20 1686 1687
1645 26 1687 1688
1646 6 1688 1689
1647 1 1689 1690
1648 2 1689 1691
1649 29 1686 1692
1650 29 1686 1693
1651 34 1687 1694
1652 27 1691 1695
1653 27 1691 1696
1654 27 1691 1697
1655 20 1698 1699
1656 26 1699 1700
1657 6 1700 1701
1658 1 1701 1702
1659 2 1701 1703
1660 29 1698 1704
1661 29 1698 1705
1662 34 1699 1706
1663 27 1703 1707
1664 27 1703 1708
1665 27 1703 1709
1666 20 1710 1711
1667 26 1711 1712
1668 6 1712 1713
1669 1 1713 1714
1670 2 1713 1715
1671 29 1710 1716
1672 29 1710 1717
1673 34 1711 1718
1674 27 1715 1719
1675 27 1715 1720
1676 27 1715 1721
1677 20 1722 1723
1678 26 1723 1724
1679 6 1724 1725
1680 1 1725 1726
1681 2 1725 1727
1682 29 1722 1728
1683 29 1722 1729
1684 34 1723 1730
1685 27 1727 1731
1686 27 1727 1732
1687 27 1727 1733
1688 20 1734 1735
1689 26 1735 1736
1690 6 1736 1737
1691 1 1737 1738
1692 2 1737 1739
1693 29 1734 1740
1694 29 1734 1741
1695 34 1735 1742
1696 27 1739 1743
1697 27 1739 1744
1698 27 1739 1745
1699 20 1746 1747
1700 26 1747 1748
1701 6 1748 1749
1702 1 1749 1750
1703 2 1749 1751
1704 29 1746 1752
1705 29 1746 1753
1706 34 1747 1754
1707 27 1751 1755
1708 27 1751 1756
1709 27 1751 1757
1710 20 1758 1759
1711 26 1759 1760
1712 6 1760 1761
1713 1 1761 1762
1714 2 1761 1763
1715 29 1758 1764
1716 29 1758 1765
1717 34 1759 1766
1718 27 1763 1767
1719 27 1763 1768
1720 27 1763 1769
1721 20 1770 1771
1722 26 1771 1772
1723 6 1772 1773
1724 1 1773 1774
1725 2 1773 1775
1726 29 1770 1776
1727 29 1770 1777
1728 34 1771 1778
1729 27 1775 1779
1730 27 1775 1780
1731 27 1775 1781
1732 20 1782 1783
1733 26 1783 1784
1734 6 1784 1785
1735 1 1785 1786
1736 2 1785 1787
1737 29 1782 1788
1738 29 1782 1789
1739 34 1783 1790
1740 27 1787 1791
1741 27 1787 1792
1742 27 1787 1793
1743 16 1794 1795
1744 25 1795 1796
1745 6 1796 1797
1746 1 1797 1798
1747 2 1797 1799
1748 29 1794 1800
1749 29 1794 1801
1750 32 1795 1802
1751 32 1795 1803
1752 27 1799 1804
1753 27 1799 1805
1754 27 1799 1806
1755 20 1206 1218
1756 20 1219 1230
1757 20 1231 1242
1758 20 1243 1254
1759 20 1255 1266
1760 20 1267 1278
1761 20 1279 1290
1762 20 1291 1302
1763 20 1303 1314
1764 20 1315 1326
1765 20 1327 1338
1766 20 1339 1350
1767 20 1351 1362
1768 20 1363 1374
1769 20 1375 1386
1770 20 1387 1398
1771 20 1399 1410
1772 20 1411 1422
1773 20 1423 1434
1774 20 1435 1446
1775 20 1447 1458
1776 20 1459 1470
1777 20 1471 1482
1778 20 1483 1494
1779 20 1495 1506
1780 20 1507 1518
1781 20 1519 1530
1782 20 1531 1542
1783 20 1543 1554
1784 20 1555 1566
1785 20 1567 1578
1786 20 1579 1590
1787 20 1591 1602
1788 20 1603 1614
1789 20 1615 1626
1790 20 1627 1638
1791 20 1639 1650
1792 20 1651 1662
1793 20 1663 1674
1794 20 1675 1686
1795 20 1687 1698
1796 20 1699 1710
1797 20 1711 1722
1798 20 1723 1734
1799 20 1735 1746
1800 20 1747 1758
1801 20 1759 1770
1802 20 1771 1782
1803 20 1783 1794
1804 19 1807 1808
1805 26 1808 1809
1806 6 1809 1810
1807 1 1810 1811
1808 2 1810 1812
1809 27 1807 1813
1810 27 1807 1814
1811 27 1807 1815
1812 34 1808 1816
1813 27 1812 1817
1814 27 1812 1818
1815 27 1812 1819
1816 20 1820 1821
1817 26 1821 1822
1818 6 1822 1823
1819 1 1823 1824
1820 2 1823 1825
1821 29 1820 1826
1822 29 1820 1827
1823 34 1821 1828
1824 27 1825 1829
1825 27 1825 1830
1826 27 1825 1831
1827 20 1832 1833
1828 26 1833 1834
1829 6 1834 1835
1830 1 1835 1836
1831 2 1835 1837
1832 29 1832 1838
1833 29 1832 1839
1834 34 1833 1840
1835 27 1837 1841
1836 27 1837 1842
1837 27 1837 1843
1838 20 1844 1845
1839 26 1845 1846
1840 6 1846 1847
1841 1 1847 1848
1842 2 1847 1849
1843 29 1844 1850
1844 29 1844 1851
1845 34 1845 1852
1846 27 1849 1853
1847 27 1849 1854
1848 27 1849 1855
1849 20 1856 1857
1850 26 1857 1858
1851 6 1858 1859
1852 1 1859 1860
1853 2 1859 1861
1854 29 1856 1862
1855 29 1856 1863
1856 34 1857 1864
1857 27 1861 1865
1858 27 1861 1866
1859 27 1861 1867
1860 20 1868 1869
1861 26 1869 1870
1862 6 1870 1871
1863 1 1871 1872
1864 2 1871 1873
1865 29 1868 1874
1866 29 1868 1875
1867 34 1869 1876
1868 27 1873 1877
1869 27 1873 1878
1870 27 1873 1879
1871 20 1880 1881
1872 26 1881 1882
1873 6 1882 1883
1874 1 1883 1884
1875 2 1883 1885
1876 29 1880 1886
1877 29 1880 1887
1878 34 1881 1888
1879 27 1885 1889
1880 27 1885 1890
1881 27 1885 1891
1882 20 1892 1893
1883 26 1893 1894
1884 6 1894 1895
1885 1 1895 1896
1886 2 1895 1897
1887 29 1892 1898
1888 29 1892 1899
1889 34 1893 1900
1890 27 1897 1901
1891 27 1897 1902
1892 27 1897 1903
1893 20 1904 1905
1894 26 1905 1906
1895 6 1906 1907
1896 1 1907 1908
1897 2 1907 1909
1898 29 1904 1910
1899 29 1904 1911
1900 34 1905 1912
1901 27 1909 1913
1902 27 1909 1914
1903 27 1909 1915
1904 20 1916 1917
1905 26 1917 1918
1906 6 1918 1919
1907 1 1919 1920
1908 2 1919 1921
1909 29 1916 1922
1910 29 1916 1923
1911 34 1917 1924
1912 27 1921 1925
1913 27 1921 1926
1914 27 1921 1927
1915 20 1928 1929
1916 26 1929 1930
1917 6 1930 1931
1918 1 1931 1932
1919 2 1931 1933
1920 29 1928 1934
1921 29 1928 1935
1922 34 1929 1936
1923 27 1933 1937
1924 27 1933 1938
1925 27 1933 1939
1926 20 1940 1941
1927 26 1941 1942
1928 6 1942 1943
1929 1 1943 1944
1930 2 1943 1945
1931 29 1940 1946
1932 29 1940 1947
1933 34 1941 1948
1934 27 1945 1949
1935 27 1945 1950
1936 27 1945 1951
1937 20 1952 1953
1938 26 1953 1954
1939 6 1954 1955
1940 1 1955 1956
1941 2 1955 1957
1942 29 1952 1958
1943 29 1952 1959
1944 34 1953 1960
1945 27 1957 1961
1946 27 1957 1962
1947 27 1957 1963
1948 20 1964 1965
1949 26 1965 1966
1950 6 1966 1967
1951 1 1967 1968
1952 2 1967 1969
1953 29 1964 1970
1954 29 1964 1971
1955 34 1965 1972
1956 27 1969 1973
1957 27 1969 1974
1958 27 1969 1975
1959 20 1976 1977
1960 26 1977 1978
1961 6 1978 1979
1962 1 1979 1980
1963 2 1979 1981
1964 29 1976 1982
1965 29 1976 1983
1966 34 1977 1984
1967 27 1981 1985
1968 27 1981 1986
1969 27 1981 1987
1970 20 1988 1989
1971 26 1989 1990
1972 6 1990 1991
1973 1 1991 1992
1974 2 1991 1993
1975 29 1988 1994
1976 29 1988 1995
1977 34 1989 1996
1978 27 1993 1997
1979 27 1993 1998
1980 27 1993 1999
1981 20 2000 2001
1982 26 2001 2002
1983 6 2002 2003
1984 1 2003 2004
1985 2 2003 2005
1986 29 2000 2006
1987 29 2000 2007
1988 34 2001 2008
1989 27 2005 2009
1990 27 2005 2010
1991 27 2005 2011
1992 20 2012 2013
1993 26 2013 2014
1994 6 2014 2015
1995 1 2015 2016
1996 2 2015 2017
1997 29 2012 2018
1998 29 2012 2019
1999 34 2013 2020
2000 27 2017 2021
2001 27 2017 2022
2002 27 2017 2023
2003 20 2024 2025
2004 26 2025 2026
2005 6 2026 2027
2006 1 2027 2028
2007 2 2027 2029
2008 29 2024 2030
2009 29 2024 2031
2010 34 2025 2032
2011 27 2029 2033
2012 27 2029 2034
2013 27 2029 2035
2014 20 2036 2037
2015 26 2037 2038
2016 6 2038 2039
2017 1 2039 2040
2018 2 2039 2041
2019 29 2036 2042
2020 29 2036 2043
2021 34 2037 2044
2022 27 2041 2045
2023 27 2041 2046
2024 27 2041 2047
2025 20 2048 2049
2026 26 2049 2050
2027 6 2050 2051
2028 1 2051 2052
2029 2 2051 2053
2030 29 2048 2054
2031 29 2048 2055
2032 34 2049 2056
2033 27 2053 2057
2034 27 2053 2058
2035 27 2053 2059
2036 20 2060 2061
2037 26 2061 2062
2038 6 2062 2063
2039 1 2063 2064
2040 2 2063 2065
2041 29 2060 2066
2042 29 2060 2067
2043 34 2061 2068
2044 27 2065 2069
2045 27 2065 2070
2046 27 2065 2071
2047 20 2072 2073
2048 26 2073 2074
2049 6 2074 2075
2050 1 2075 2076
2051 2 2075 2077
2052 29 2072 2078
2053 29 2072 2079
2054 34 2073 2080
2055 27 2077 2081
2056 27 2077 2082
2057 27 2077 2083
2058 20 2084 2085
2059 26 2085 2086
2060 6 2086 2087
2061 1 2087 2088
2062 2 2087 2089
2063 29 2084 2090
2064 29 2084 2091
2065 34 2085 2092
2066 27 2089 2093
2067 27 2089 2094
2068 27 2089 2095
2069 20 2096 2097
2070 26 2097 2098
2071 6 2098 2099
2072 1 2099 2100
2073 2 2099 2101
2074 29 2096 2102
2075 29 2096 2103
2076 34 2097 2104
2077 27 2101 2105
2078 27 2101 2106
2079 27 2101 2107
2080 20 2108 2109
2081 26 2109 2110
2082 6 2110 2111
2083 1 2111 2112
2084 2 2111 2113
2085 29 2108 2114
2086 29 2108 2115
2087 34 2109 2116
2088 27 2113 2117
2089 27 2113 2118
2090 27 2113 2119
2091 20 2120 2121
2092 26 2121 2122
2093 6 2122 2123
2094 1 2123 2124
2095 2 2123 2125
2096 29 2120 2126
2097 29 2120 2127
2098 34 2121 2128
2099 27 2125 2129
2100 27 2125 2130
2101 27 2125 2131
2102 20 2132 2133
2103 26 2133 2134
2104 6 2134 2135
2105 1 2135 2136
2106 2 2135 2137
2107 29 2132 2138
2108 29 2132 2139
2109 34 2133 2140
2110 27 2137 2141
2111 27 2137 2142
2112 27 2137 2143
2113 20 2144 2145
2114 26 2145 2146
2115 6 2146 2147
2116 1 2147 2148
2117 2 2147 2149
2118 29 2144 2150
2119 29 2144 2151
2120 34 2145 2152
2121 27 2149 2153
2122 27 2149 2154
2123 27 2149 2155
2124 20 2156 2157
2125 26 2157 2158
2126 6 2158 2159
2127 1 2159 2160
2128 2 2159 2161
2129 29 2156 2162
2130 29 2156 2163
2131 34 2157 2164
2132 27 2161 2165
2133 27 2161 2166
2134 27 2161 2167
2135 20 2168 2169
2136 26 2169 2170
2137 6 2170 2171
2138 1 2171 2172
2139 2 2171 2173
2140 29 2168 2174
2141 29 2168 2175
2142 34 2169 2176
2143 27 2173 2177
2144 27 2173 2178
2145 27 2173 2179
2146 20 2180 2181
2147 26 2181 2182
2148 6 2182 2183
2149 1 2183 2184
2150 2 2183 2185
2151 29 2180 2186
2152 29 2180 2187
2153 34 2181 2188
2154 27 2185 2189
2155 27 2185 2190
2156 27 2185 2191
2157 20 2192 2193
2158 26 2193 2194
2159 6 2194 2195
2160 1 2195 2196
2161 2 2195 2197
2162 29 2192 2198
2163 29 2192 2199
2164 34 2193 2200
2165 27 2197 2201
2166 27 2197 2202
2167 27 2197 2203
2168 20 2204 2205
2169 26 2205 2206
2170 6 2206 2207
2171 1 2207 2208
2172 2 2207 2209
2173 29 2204 2210
2174 29 2204 2211
2175 34 2205 2212
2176 27 2209 2213
2177 27 2209 2214
2178 27 2209 2215
2179 20 2216 2217
2180 26 2217 2218
2181 6 2218 2219
2182 1 2219 2220
2183 2 2219 2221
2184 29 2216 2222
2185 29 2216 2223
2186 34 2217 2224
2187 27 2221 2225
2188 27 2221 2226
2189 27 2221 2227
2190 20 2228 2229
2191 26 2229 2230
2192 6 2230 2231
2193 1 2231 2232
2194 2 2231 2233
2195 29 2228 2234
2196 29 2228 2235
2197 34 2229 2236
2198 27 2233 2237
2199 27 2233 2238
2200 27 2233 2239
2201 20 2240 2241
2202 26 2241 2242
2203 6 2242 2243
2204 1 2243 2244
2205 2 2243 2245
2206 29 2240 2246
2207 29 2240 2247
2208 34 2241 2248
2209 27 2245 2249
2210 27 2245 2250
2211 27 2245 2251
2212 20 2252 2253
2213 26 2253 2254
2214 6 2254 2255
2215 1 2255 2256
2216 2 2255 2257
2217 29 2252 2258
2218 29 2252 2259
2219 34 2253 2260
2220 27 2257 2261
2221 27 2257 2262
2222 27 2257 2263
2223 20 2264 2265
2224 26 2265 2266
2225 6 2266 2267
2226 1 2267 2268
2227 2 2267 2269
2228 29 2264 2270
2229 29 2264 2271
2230 34 2265 2272
2231 27 2269 2273
2232 27 2269 2274
2233 27 2269 2275
2234 20 2276 2277
2235 26 2277 2278
2236 6 2278 2279
2237 1 2279 2280
2238 2 2279 2281
2239 29 2276 2282
2240 29 2276 2283
2241 34 2277 2284
2242 27 2281 2285
2243 27 2281 2286
2244 27 2281 2287
2245 20 2288 2289
2246 26 2289 2290
2247 6 2290 2291
2248 1 2291 2292
2249 2 2291 2293
2250 29 2288 2294
2251 29 2288 2295
2252 34 2289 2296
2253 27 2293 2297
2254 27 2293 2298
2255 27 2293 2299
2256 20 2300 2301
2257 26 2301 2302
2258 6 2302 2303
2259 1 2303 2304
2260 2 2303 2305
2261 29 2300 2306
2262 29 2300 2307
2263 34 2301 2308
2264 27 2305 2309
2265 27 2305 2310
2266 27 2305 2311
2267 20 2312 2313
2268 26 2313 2314
2269 6 2314 2315
2270 1 2315 2316
2271 2 2315 2317
2272 29 2312 2318
2273 29 2312 2319
2274 34 2313 2320
2275 27 2317 2321
2276 27 2317 2322
2277 27 2317 2323
2278 20 2324 2325
2279 26 2325 2326
2280 6 2326 2327
2281 1 2327 2328
2282 2 2327 2329
2283 29 2324 2330
2284 29 2324 2331
2285 34 2325 2332
2286 27 2329 2333
2287 27 2329 2334
2288 27 2329 2335
2289 20 2336 2337
2290 26 2337 2338
2291 6 2338 2339
2292 1 2339 2340
2293 2 2339 2341
2294 29 2336 2342
2295 29 2336 2343
2296 34 2337 2344
2297 27 2341 2345
2298 27 2341 2346
2299 27 2341 2347
2300 20 2348 2349
2301 26 2349 2350
2302 6 2350 2351
2303 1 2351 2352
2304 2 2351 2353
2305 29 2348 2354
2306 29 2348 2355
2307 34 2349 2356
2308 27 2353 2357
2309 27 2353 2358
2310 27 2353 2359
2311 20 2360 2361
2312 26 2361 2362
2313 6 2362 2363
2314 1 2363 2364
2315 2 2363 2365
2316 29 2360 2366
2317 29 2360 2367
2318 34 2361 2368
2319 27 2365 2369
2320 27 2365 2370
2321 27 2365 2371
2322 20 2372 2373
2323 26 2373 2374
2324 6 2374 2375
2325 1 2375 2376
2326 2 2375 2377
2327 29 2372 2378
2328 29 2372 2379
2329 34 2373 2380
2330 27 2377 2381
2331 27 2377 2382
2332 27 2377 2383
2333 20 2384 2385
2334 26 2385 2386
2335 6 2386 2387
2336 1 2387 2388
2337 2 2387 2389
2338 29 2384 2390
2339 29 2384 2391
2340 34 2385 2392
2341 27 2389 2393
2342 27 2389 2394
2343 27 2389 2395
2344 16 2396 2397
2345 25 2397 2398
2346 6 2398 2399
2347 1 2399 2400
2348 2 2399 2401
2349 29 2396 2402
2350 29 2396 2403
2351 32 2397 2404
2352 32 2397 2405
2353 27 2401 2406
2354 27 2401 2407
2355 27 2401 2408
2356 20 1808 1820
2357 20 1821 1832
2358 20 1833 1844
2359 20 1845 1856
2360 20 1857 1868
2361 20 1869 1880
2362 20 1881 1892
2363 20 1893 1904
2364 20 1905 1916
2365 20 1917 1928
2366 20 1929 1940
2367 20 1941 1952
2368 20 1953 1964
2369 20 1965 1976
2370 20 1977 1988
2371 20 1989 2000
2372 20 2001 2012
2373 20 2013 2024
2374 20 2025 2036
2375 20 2037 2048
2376 20 2049 2060
2377 20 2061 2072
2378 20 2073 2084
2379 20 2085 2096
2380 20 2097 2108
2381 20 2109 2120
2382 20 2121 2132
2383 20 2133 2144
2384 20 2145 2156
2385 20 2157 2168
2386 20 2169 2180
2387 20 2181 2192
2388 20 2193 2204
2389 20 2205 2216
2390 20 2217 2228
2391 20 2229 2240
2392 20 2241 2252
2393 20 2253 2264
2394 20 2265 2276
2395 20 2277 2288
2396 20 2289 2300
2397 20 2301 2312
2398 20 2313 2324
2399 20 2325 2336
2400 20 2337 2348
2401 20 2349 2360
2402 20 2361 2372
2403 20 2373 2384
2404 20 2385 2396
2405 19 2409 2410
2406 26 2410 2411
2407 6 2411 2412
2408 1 2412 2413
2409 2 2412 2414
2410 27 2409 2415
2411 27 2409 2416
2412 27 2409 2417
2413 34 2410 2418
2414 27 2414 2419
2415 27 2414 2420
2416 27 2414 2421
2417 20 2422 2423
2418 26 2423 2424
2419 6 2424 2425
2420 1 2425 2426
2421 2 2425 2427
2422 29 2422 2428
2423 29 2422 2429
2424 34 2423 2430
2425 27 2427 2431
2426 27 2427 2432
2427 27 2427 2433
2428 20 2434 2435
2429 26 2435 2436
2430 6 2436 2437
2431 1 2437 2438
2432 2 2437 2439
2433 29 2434 2440
2434 29 2434 2441
2435 34 2435 2442
2436 27 2439 2443
2437 27 2439 2444
2438 27 2439 2445
2439 20 2446 2447
2440 26 2447 2448
2441 6 2448 2449
2442 1 2449 2450
2443 2 2449 2451
2444 29 2446 2452
2445 29 2446 2453
2446 34 2447 2454
2447 27 2451 2455
2448 27 2451 2456
2449 27 2451 2457
2450 20 2458 2459
2451 26 2459 2460
2452 6 2460 2461
2453 1 2461 2462
2454 2 2461 2463
2455 29 2458 2464
2456 29 2458 2465
2457 34 2459 2466
2458 27 2463 2467
2459 27 2463 2468
2460 27 2463 2469
2461 20 2470 2471
2462 26 2471 2472
2463 6 2472 2473
2464 1 2473 2474
2465 2 2473 2475
2466 29 2470 2476
2467 29 2470 2477
2468 34 2471 2478
2469 27 2475 2479
2470 27 2475 2480
2471 27 2475 2481
2472 20 2482 2483
2473 26 2483 2484
2474 6 2484 2485
2475 1 2485 2486
2476 2 2485 2487
2477 29 2482 2488
2478 29 2482 2489
2479 34 2483 2490
2480 27 2487 2491
2481 27 2487 2492
2482 27 2487 2493
2483 20 2494 2495
2484 26 2495 2496
2485 6 2496 2497
2486 1 2497 2498
2487 2 2497 2499
2488 29 2494 2500
2489 29 2494 2501
2490 34 2495 2502
2491 27 2499 2503
2492 27 2499 2504
2493 27 2499 2505
2494 20 2506 2507
2495 26 2507 2508
2496 6 2508 2509
2497 1 2509 2510
2498 2 2509 2511
2499 29 2506 2512
2500 29 2506 2513
2501 34 2507 2514
2502 27 2511 2515
2503 27 2511 2516
2504 27 2511 2517
2505 20 2518 2519
2506 26 2519 2520
2507 6 2520 2521
2508 1 2521 2522
2509 2 2521 2523
2510 29 2518 2524
2511 29 2518 2525
2512 34 2519 2526
2513 27 2523 2527
2514 27 2523 2528
2515 27 2523 2529
2516 20 2530 2531
2517 26 2531 2532
2518 6 2532 2533
2519 1 2533 2534
2520 2 2533 2535
2521 29 2530 2536
2522 29 2530 2537
2523 34 2531 2538
2524 27 2535 2539
2525 27 2535 2540
2526 27 2535 2541
2527 20 2542 2543
2528 26 2543 2544
2529 6 2544 2545
2530 1 2545 2546
2531 2 2545 2547
2532 29 2542 2548
2533 29 2542 2549
2534 34 2543 2550
2535 27 2547 2551
2536 27 2547 2552
2537 27 2547 2553
2538 20 2554 2555
2539 26 2555 2556
2540 6 2556 2557
2541 1 2557 2558
2542 2 2557 2559
2543 29 2554 2560
2544 29 2554 2561
2545 34 2555 2562
2546 27 2559 2563
2547 27 2559 2564
2548 27 2559 2565
2549 20 2566 2567
2550 26 2567 2568
2551 6 2568 2569
2552 1 2569 2570
2553 2 2569 2571
2554 29 2566 2572
2555 29 2566 2573
2556 34 2567 2574
2557 27 2571 2575
2558 27 2571 2576
2559 27 2571 2577
2560 20 2578 2579
2561 26 2579 2580
2562 6 2580 2581
2563 1 2581 2582
2564 2 2581 2583
2565 29 2578 2584
2566 29 2578 2585
2567 34 2579 2586
2568 27 2583 2587
2569 27 2583 2588
2570 27 2583 2589
2571 20 2590 2591
2572 26 2591 2592
2573 6 2592 2593
2574 1 2593 2594
2575 2 2593 2595
2576 29 2590 2596
2577 29 2590 2597
2578 34 2591 2598
2579 27 2595 2599
2580 27 2595 2600
2581 27 2595 2601
2582 20 2602 2603
2583 26 2603 2604
2584 6 2604 2605
2585 1 2605 2606
2586 2 2605 2607
2587 29 2602 2608
2588 29 2602 2609
2589 34 2603 2610
2590 27 2607 2611
2591 27 2607 2612
2592 27 2607 2613
2593 20 2614 2615
2594 26 2615 2616
2595 6 2616 2617
2596 1 2617 2618
2597 2 2617 2619
2598 29 2614 2620
2599 29 2614 2621
2600 34 2615 2622
2601 27 2619 2623
2602 27 2619 2624
2603 27 2619 2625
2604 20 2626 2627
2605 26 2627 2628
2606 6 2628 2629
2607 1 2629 2630
2608 2 2629 2631
2609 29 2626 2632
2610 29 2626 2633
2611 34 2627 2634
2612 27 2631 2635
2613 27 2631 2636
2614 27 2631 2637
2615 20 2638 2639
2616 26 2639 2640
2617 6 2640 2641
2618 1 2641 2642
2619 2 2641 2643
2620 29 2638 2644
2621 29 2638 2645
2622 34 2639 2646
2623 27 2643 2647
2624 27 2643 2648
2625 27 2643 2649
2626 20 2650 2651
2627 26 2651 2652
2628 6 2652 2653
2629 1 2653 2654
2630 2 2653 2655
2631 29 2650 2656
2632 29 2650 2657
2633 34 2651 2658
2634 27 2655 2659
2635 27 2655 2660
2636 27 2655 2661
2637 20 2662 2663
2638 26 2663 2664
2639 6 2664 2665
2640 1 2665 2666
2641 2 2665 2667
2642 29 2662 2668
2643 29 2662 2669
2644 34 2663 2670
2645 27 2667 2671
2646 27 2667 2672
2647 27 2667 2673
2648 20 2674 2675
2649 26 2675 2676
2650 6 2676 2677
2651 1 2677 2678
2652 2 2677 2679
2653 29 2674 2680
2654 29 2674 2681
2655 34 2675 2682
2656 27 2679 2683
2657 27 2679 2684
2658 27 2679 2685
2659 20 2686 2687
2660 26 2687 2688
2661 6 2688 2689
2662 1 2689 2690
2663 2 2689 2691
2664 29 2686 2692
2665 29 2686 2693
2666 34 2687 2694
2667 27 2691 2695
2668 27 2691 2696
2669 27 2691 2697
2670 20 2698 2699
2671 26 2699 2700
2672 6 2700 2701
2673 1 2701 2702
2674 2 2701 2703
2675 29 2698 2704
2676 29 2698 2705
2677 34 2699 2706
2678 27 2703 2707
2679 27 2703 2708
2680 27 2703 2709
2681 20 2710 2711
2682 26 2711 2712
2683 6 2712 2713
2684 1 2713 2714
2685 2 2713 2715
2686 29 2710 2716
2687 29 2710 2717
2688 34 2711 2718
2689 27 2715 2719
2690 27 2715 2720
2691 27 2715 2721
2692 20 2722 2723
2693 26 2723 2724
2694 6 2724 2725
2695 1 2725 2726
2696 2 2725 2727
2697 29 2722 2728
2698 29 2722 2729
2699 34 2723 2730
2700 27 2727 2731
2701 27 2727 2732
2702 27 2727 2733
2703 20 2734 2735
2704 26 2735 2736
2705 6 2736 2737
2706 1 2737 2738
2707 2 2737 2739
2708 29 2734 2740
2709 29 2734 2741
2710 34 2735 2742
2711 27 2739 2743
2712 27 2739 2744
2713 27 2739 2745
2714 20 2746 2747
2715 26 2747 2748
2716 6 2748 2749
2717 1 2749 2750
2718 2 2749 2751
2719 29 2746 2752
2720 29 2746 2753
2721 34 2747 2754
2722 27 2751 2755
2723 27 2751 2756
2724 27 2751 2757
2725 20 2758 2759
2726 26 2759 2760
2727 6 2760 2761
2728 1 2761 2762
2729 2 2761 2763
2730 29 2758 2764
2731 29 2758 2765
2732 34 2759 2766
2733 27 2763 2767
2734 27 2763 2768
2735 27 2763 2769
2736 20 2770 2771
2737 26 2771 2772
2738 6 2772 2773
2739 1 2773 2774
2740 2 2773 2775
2741 29 2770 2776
2742 29 2770 2777
2743 34 2771 2778
2744 27 2775 2779
2745 27 2775 2780
2746 27 2775 2781
2747 20 2782 2783
2748 26 2783 2784
2749 6 2784 2785
2750 1 2785 2786
2751 2 2785 2787
2752 29 2782 2788
2753 29 2782 2789
2754 34 2783 2790
2755 27 2787 2791
2756 27 2787 2792
2757 27 2787 2793
2758 20 2794 2795
2759 26 2795 2796
2760 6 2796 2797
2761 1 2797 2798
2762 2 2797 2799
2763 29 2794 2800
2764 29 2794 2801
2765 34 2795 2802
2766 27 2799 2803
2767 27 2799 2804
2768 27 2799 2805
2769 20 2806 2807
2770 26 2807 2808
2771 6 2808 2809
2772 1 2809 2810
2773 2 2809 2811
2774 29 2806 2812
2775 29 2806 2813
2776 34 2807 2814
2777 27 2811 2815
2778 27 2811 2816
2779 27 2811 2817
2780 20 2818 2819
2781 26 2819 2820
2782 6 2820 2821
2783 1 2821 2822
2784 2 2821 2823
2785 29 2818 2824
2786 29 2818 2825
2787 34 2819 2826
2788 27 2823 2827
2789 27 2823 2828
2790 27 2823 2829
2791 20 2830 2831
2792 26 2831 2832
2793 6 2832 2833
2794 1 2833 2834
2795 2 2833 2835
2796 29 2830 2836
2797 29 2830 2837
2798 34 2831 2838
2799 27 2835 2839
2800 27 2835 2840
2801 27 2835 2841
2802 20 2842 2843
2803 26 2843 2844
2804 6 2844 2845
2805 1 2845 2846
2806 2 2845 2847
2807 29 2842 2848
2808 29 2842 2849
2809 34 2843 2850
2810 27 2847 2851
2811 27 2847 2852
2812 27 2847 2853
2813 20 2854 2855
2814 26 2855 2856
2815 6 2856 2857
2816 1 2857 2858
2817 2 2857 2859
2818 29 2854 2860
2819 29 2854 2861
2820 34 2855 2862
2821 27 2859 2863
2822 27 2859 2864
2823 27 2859 2865
2824 20 2866 2867
2825 26 2867 2868
2826 6 2868 2869
2827 1 2869 2870
2828 2 2869 2871
2829 29 2866 2872
2830 29 2866 2873
2831 34 2867 2874
2832 27 2871 2875
2833 27 2871 2876
2834 27 2871 2877
2835 20 2878 2879
2836 26 2879 2880
2837 6 2880 2881
2838 1 2881 2882
2839 2 2881 2883
2840 29 2878 2884
2841 29 2878 2885
2842 34 2879 2886
2843 27 2883 2887
2844 27 2883 2888
2845 27 2883 2889
2846 20 2890 2891
2847 26 2891 2892
2848 6 2892 2893
2849 1 2893 2894
2850 2 2893 2895
2851 29 2890 2896
2852 29 2890 2897
2853 34 2891 2898
2854 27 2895 2899
2855 27 2895 2900
2856 27 2895 2901
2857 20 2902 2903
2858 26 2903 2904
2859 6 2904 2905
2860 1 2905 2906
2861 2 2905 2907
2862 29 2902 2908
2863 29 2902 2909
2864 34 2903 2910
2865 27 2907 2911
2866 27 2907 2912
2867 27 2907 2913
2868 20 2914 2915
2869 26 2915 2916
2870 6 2916 2917
2871 1 2917 2918
2872 2 2917 2919
2873 29 2914 2920
2874 29 2914 2921
2875 34 2915 2922
2876 27 2919 2923
2877 27 2919 2924
2878 27 2919 2925
2879 20 2926 2927
2880 26 2927 2928
2881 6 2928 2929
2882 1 2929 2930
2883 2 2929 2931
2884 29 2926 2932
2885 29 2926 2933
2886 34 2927 2934
2887 27 2931 2935
2888 27 2931 2936
2889 27 2931 2937
2890 20 2938 2939
2891 26 2939 2940
2892 6 2940 2941
2893 1 2941 2942
2894 2 2941 2943
2895 29 2938 2944
2896 29 2938 2945
2897 34 2939 2946
2898 27 2943 2947
2899 27 2943 2948
2900 27 2943 2949
2901 20 2950 2951
2902 26 2951 2952
2903 6 2952 2953
2904 1 2953 2954
2905 2 2953 2955
2906 29 2950 2956
2907 29 2950 2957
2908 34 2951 2958
2909 27 2955 2959
2910 27 2955 2960
2911 27 2955 2961
2912 20 2962 2963
2913 26 2963 2964
2914 6 2964 2965
2915 1 2965 2966
2916 2 2965 2967
2917 29 2962 2968
2918 29 2962 2969
2919 34 2963 2970
2920 27 2967 2971
2921 27 2967 2972
2922 27 2967 2973
2923 20 2974 2975
2924 26 2975 2976
2925 6 2976 2977
2926 1 2977 2978
2927 2 2977 2979
2928 29 2974 2980
2929 29 2974 2981
2930 34 2975 2982
2931 27 2979 2983
2932 27 2979 2984
2933 27 2979 2985
2934 20 2986 2987
2935 26 2987 2988
2936 6 2988 2989
2937 1 2989 2990
2938 2 2989 2991
2939 29 2986 2992
2940 29 2986 2993
2941 34 2987 2994
2942 27 2991 2995
2943 27 2991 2996
2944 27 2991 2997
2945 16 2998 2999
2946 25 2999 3000
2947 6 3000 3001
2948 1 3001 3002
2949 2 3001 3003
2950 29 2998 3004
2951 29 2998 3005
2952 32 2999 3006
2953 32 2999 3007
2954 27 3003 3008
2955 27 3003 3009
2956 27 3003 3010
2957 20 2410 2422
2958 20 2423 2434
2959 20 2435 2446
2960 20 2447 2458
2961 20 2459 2470
2962 20 2471 2482
2963 20 2483 2494
2964 20 2495 2506
2965 20 2507 2518
2966 20 2519 2530
2967 20 2531 2542
2968 20 2543 2554
2969 20 2555 2566
2970 20 2567 2578
2971 20 2579 2590
2972 20 2591 2602
2973 20 2603 2614
2974 20 2615 2626
2975 20 2627 2638
2976 20 2639 2650
2977 20 2651 2662
2978 20 2663 2674
2979 20 2675 2686
2980 20 2687 2698
2981 20 2699 2710
2982 20 2711 2722
2983 20 2723 2734
2984 20 2735 2746
2985 20 2747 2758
2986 20 2759 2770
2987 20 2771 2782
2988 20 2783 2794
2989 20 2795 2806
2990 20 2807 2818
2991 20 2819 2830
2992 20 2831 2842
2993 20 2843 2854
2994 20 2855 2866
2995 20 2867 2878
2996 20 2879 2890
2997 20 2891 2902
2998 20 2903 2914
2999 20 2915 2926
3000 20 2927 2938
3001 20 2939 2950
3002 20 2951 2962
3003 20 2963 2974
3004 20 2975 2986
3005 20 2987 2998
3006 19 3011 3012
3007 26 3012 3013
3008 6 3013 3014
3009 1 3014 3015
3010 2 3014 3016
3011 27 3011 3017
3012 27 3011 3018
3013 27 3011 3019
3014 34 3012 3020
3015 27 3016 3021
3016 27 3016 3022
3017 27 3016 3023
3018 20 3024 3025
3019 26 3025 3026
3020 6 3026 3027
3021 1 3027 3028
3022 2 3027 3029
3023 29 3024 3030
3024 29 3024 3031
3025 34 3025 3032
3026 27 3029 3033
3027 27 3029 3034
3028 27 3029 3035
3029 20 3036 3037
3030 26 3037 3038
3031 6 3038 3039
3032 1 3039 3040
3033 2 3039 3041
3034 29 3036 3042
3035 29 3036 3043
3036 34 3037 3044
3037 27 3041 3045
3038 27 3041 3046
3039 27 3041 3047
3040 20 3048 3049
3041 26 3049 3050
3042 6 3050 3051
3043 1 3051 3052
3044 2 3051 3053
3045 29 3048 3054
3046 29 3048 3055
3047 34 3049 3056
3048 27 3053 3057
3049 27 3053 3058
3050 27 3053 3059
3051 20 3060 3061
3052 26 3061 3062
3053 6 3062 3063
3054 1 3063 3064
3055 2 3063 3065
3056 29 3060 3066
3057 29 3060 3067
3058 34 3061 3068
3059 27 3065 3069
3060 27 3065 3070
3061 27 3065 3071
3062 20 3072 3073
3063 26 3073 3074
3064 6 3074 3075
3065 1 3075 3076
3066 2 3075 3077
3067 29 3072 3078
3068 29 3072 3079
3069 34 3073 3080
3070 27 3077 3081
3071 27 3077 3082
3072 27 3077 3083
3073 20 3084 3085
3074 26 3085 3086
3075 6 3086 3087
3076 1 3087 3088
3077 2 3087 3089
3078 29 3084 3090
3079 29 3084 3091
3080 34 3085 3092
3081 27 3089 3093
3082 27 3089 3094
3083 27 3089 3095
3084 20 3096 3097
3085 26 3097 3098
3086 6 3098 3099
3087 1 3099 3100
3088 2 3099 3101
3089 29 3096 3102
3090 29 3096 3103
3091 34 3097 3104
3092 27 3101 3105
3093 27 3101 3106
3094 27 3101 3107
3095 20 3108 3109
3096 26 3109 3110
3097 6 3110 3111
3098 1 3111 3112
3099 2 3111 3113
3100 29 3108 3114
3101 29 3108 3115
3102 34 3109 3116
3103 27 3113 3117
3104 27 3113 3118
3105 27 3113 3119
3106 20 3120 3121
3107 26 3121 3122
3108 6 3122 3123
3109 1 3123 3124
3110 2 3123 3125
3111 29 3120 3126
3112 29 3120 3127
3113 34 3121 3128
3114 27 3125 3129
3115 27 3125 3130
3116 27 3125 3131
3117 20 3132 3133
3118 26 3133 3134
3119 6 3134 3135
3120 1 3135 3136
3121 2 3135 3137
3122 29 3132 3138
3123 29 3132 3139
3124 34 3133 3140
3125 27 3137 3141
3126 27 3137 3142
3127 27 3137 3143
3128 20 3144 3145
3129 26 3145 3146
3130 6 3146 3147
3131 1 3147 3148
3132 2 3147 3149
3133 29 3144 3150
3134 29 3144 3151
3135 34 3145 3152
3136 27 3149 3153
3137 27 3149 3154
3138 27 3149 3155
3139 20 3156 3157
3140 26 3157 3158
3141 6 3158 3159
3142 1 3159 3160
3143 2 3159 3161
3144 29 3156 3162
3145 29 3156 3163
3146 34 3157 3164
3147 27 3161 3165
3148 27 3161 3166
3149 27 3161 3167
3150 20 3168 3169
3151 26 3169 3170
3152 6 3170 3171
3153 1 3171 3172
3154 2 3171 3173
3155 29 3168 3174
3156 29 3168 3175
3157 34 3169 3176
3158 27 3173 3177
3159 27 3173 3178
3160 27 3173 3179
3161 20 3180 3181
3162 26 3181 3182
3163 6 3182 3183
3164 1 3183 3184
3165 2 3183 3185
3166 29 3180 3186
3167 29 3180 3187
3168 34 3181 3188
3169 27 3185 3189
3170 27 3185 3190
3171 27 3185 3191
3172 20 3192 3193
3173 26 3193 3194
3174 6 3194 3195
3175 1 3195 3196
3176 2 3195 3197
3177 29 3192 3198
3178 29 3192 3199
3179 34 3193 3200
3180 27 3197 3201
3181 27 3197 3202
3182 27 3197 3203
3183 20 3204 3205
3184 26 3205 3206
3185 6 3206 3207
3186 1 3207 3208
3187 2 3207 3209
3188 29 3204 3210
3189 29 3204 3211
3190 34 3205 3212
3191 27 3209 3213
3192 27 3209 3214
3193 27 3209 3215
3194 20 3216 3217
3195 26 3217 3218
3196 6 3218 3219
3197 1 3219 3220
3198 2 3219 3221
3199 29 3216 3222
3200 29 3216 3223
3201 34 3217 3224
3202 27 3221 3225
3203 27 3221 3226
3204 27 3221 3227
3205 20 3228 3229
3206 26 3229 3230
3207 6 3230 3231
3208 1 3231 3232
3209 2 3231 3233
3210 29 3228 3234
3211 29 3228 3235
3212 34 3229 3236
3213 27 3233 3237
3214 27 3233 3238
3215 27 3233 3239
3216 20 3240 3241
3217 26 3241 3242
3218 6 3242 3243
3219 1 3243 3244
3220 2 3243 3245
3221 29 3240 3246
3222 29 3240 3247
3223 34 3241 3248
3224 27 3245 3249
3225 27 3245 3250
3226 27 3245 3251
3227 20 3252 3253
3228 26 3253 3254
3229 6 3254 3255
3230 1 3255 3256
3231 2 3255 3257
3232 29 3252 3258
3233 29 3252 3259
3234 34 3253 3260
3235 27 3257 3261
3236 27 3257 3262
3237 27 3257 3263
3238 20 3264 3265
3239 26 3265 3266
3240 6 3266 3267
3241 1 3267 3268
3242 2 3267 3269
3243 29 3264 3270
3244 29 3264 3271
3245 34 3265 3272
3246 27 3269 3273
3247 27 3269 3274
3248 27 3269 3275
3249 20 3276 3277
3250 26 3277 3278
3251 6 3278 3279
3252 1 3279 3280
3253 2 3279 3281
3254 29 3276 3282
3255 29 3276 3283
3256 34 3277 3284
3257 27 3281 3285
3258 27 3281 3286
3259 27 3281 3287
3260 20 3288 3289
3261 26 3289 3290
3262 6 3290 3291
3263 1 3291 3292
3264 2 3291 3293
3265 29 3288 3294
3266 29 3288 3295
3267 34 3289 3296
3268 27 3293 3297
3269 27 3293 3298
3270 27 3293 3299
3271 20 3300 3301
3272 26 3301 3302
3273 6 3302 3303
3274 1 3303 3304
3275 2 3303 3305
3276 29 3300 3306
3277 29 3300 3307
3278 34 3301 3308
3279 27 3305 3309
3280 27 3305 3310
3281 27 3305 3311
3282 20 3312 3313
3283 26 3313 3314
3284 6 3314 3315
3285 1 3315 3316
3286 2 3315 3317
3287 29 3312 3318
3288 29 3312 3319
3289 34 3313 3320
3290 27 3317 3321
3291 27 3317 3322
3292 27 3317 3323
3293 20 3324 3325
3294 26 3325 3326
3295 6 3326 3327
3296 1 3327 3328
3297 2 3327 3329
3298 29 3324 3330
3299 29 3324 3331
3300 34 3325 3332
3301 27 3329 3333
3302 27 3329 3334
3303 27 3329 3335
3304 20 3336 3337
3305 26 3337 3338
3306 6 3338 3339
3307 1 3339 3340
3308 2 3339 3341
3309 29 3336 3342
3310 29 3336 3343
3311 34 3337 3344
3312 27 3341 3345
3313 27 3341 3346
3314 27 3341 3347
3315 20 3348 3349
3316 26 3349 3350
3317 6 3350 3351
3318 1 3351 3352
3319 2 3351 3353
3320 29 3348 3354
3321 29 3348 3355
3322 34 3349 3356
3323 27 3353 3357
3324 27 3353 3358
3325 27 3353 3359
3326 20 3360 3361
3327 26 3361 3362
3328 6 3362 3363
3329 1 3363 3364
3330 2 3363 3365
3331 29 3360 3366
3332 29 3360 3367
3333 34 3361 3368
3334 27 3365 3369
3335 27 3365 3370
3336 27 3365 3371
3337 20 3372 3373
3338 26 3373 3374
3339 6 3374 3375
3340 1 3375 3376
3341 2 3375 3377
3342 29 3372 3378
3343 29 3372 3379
3344 34 3373 3380
3345 27 3377 3381
3346 27 3377 3382
3347 27 3377 3383
3348 20 3384 3385
3349 26 3385 3386
3350 6 3386 3387
3351 1 3387 3388
3352 2 3387 3389
3353 29 3384 3390
3354 29 3384 3391
3355 34 3385 3392
3356 27 3389 3393
3357 27 3389 3394
3358 27 3389 3395
3359 20 3396 3397
3360 26 3397 3398
3361 6 3398 3399
3362 1 3399 3400
3363 2 3399 3401
3364 29 3396 3402
3365 29 3396 3403
3366 34 3397 3404
3367 27 3401 3405
3368 27 3401 3406
3369 27 3401 3407
3370 20 3408 3409
3371 26 3409 3410
3372 6 3410 3411
3373 1 3411 3412
3374 2 3411 3413
3375 29 3408 3414
3376 29 3408 3415
3377 34 3409 3416
3378 27 3413 3417
3379 27 3413 3418
3380 27 3413 3419
3381 20 3420 3421
3382 26 3421 3422
3383 6 3422 3423
3384 1 3423 3424
3385 2 3423 3425
3386 29 3420 3426
3387 29 3420 3427
3388 34 3421 3428
3389 27 3425 3429
3390 27 3425 3430
3391 27 3425 3431
3392 20 3432 3433
3393 26 3433 3434
3394 6 3434 3435
3395 1 3435 3436
3396 2 3435 3437
3397 29 3432 3438
3398 29 3432 3439
3399 34 3433 3440
3400 27 3437 3441
3401 27 3437 3442
3402 27 3437 3443
3403 20 3444 3445
3404 26 3445 3446
3405 6 3446 3447
3406 1 3447 3448
3407 2 3447 3449
3408 29 3444 3450
3409 29 3444 3451
3410 34 3445 3452
3411 27 3449 3453
3412 27 3449 3454
3413 27 3449 3455
3414 20 3456 3457
3415 26 3457 3458
3416 6 3458 3459
3417 1 3459 3460
3418 2 3459 3461
3419 29 3456 3462
3420 29 3456 3463
3421 34 3457 3464
3422 27 3461 3465
3423 27 3461 3466
3424 27 3461 3467
3425 20 3468 3469
3426 26 3469 3470
3427 6 3470 3471
3428 1 3471 3472
3429 2 3471 3473
3430 29 3468 3474
3431 29 3468 3475
3432 34 3469 3476
3433 27 3473 3477
3434 27 3473 3478
3435 27 3473 3479
3436 20 3480 3481
3437 26 3481 3482
3438 6 3482 3483
3439 1 3483 3484
3440 2 3483 3485
3441 29 3480 3486
3442 29 3480 3487
3443 34 3481 3488
3444 27 3485 3489
3445 27 3485 3490
3446 27 3485 3491
3447 20 3492 3493
3448 26 3493 3494
3449 6 3494 3495
3450 1 3495 3496
3451 2 3495 3497
3452 29 3492 3498
3453 29 3492 3499
3454 34 3493 3500
3455 27 3497 3501
3456 27 3497 3502
3457 27 3497 3503
3458 20 3504 3505
3459 26 3505 3506
3460 6 3506 3507
3461 1 3507 3508
3462 2 3507 3509
3463 29 3504 3510
3464 29 3504 3511
3465 34 3505 3512
3466 27 3509 3513
3467 27 3509 3514
3468 27 3509 3515
3469 20 3516 3517
3470 26 3517 3518
3471 6 3518 3519
3472 1 3519 3520
3473 2 3519 3521
3474 29 3516 3522
3475 29 3516 3523
3476 34 3517 3524
3477 27 3521 3525
3478 27 3521 3526
3479 27 3521 3527
3480 20 3528 3529
3481 26 3529 3530
3482 6 3530 3531
3483 1 3531 3532
3484 2 3531 3533
3485 29 3528 3534
3486 29 3528 3535
3487 34 3529 3536
3488 27 3533 3537
3489 27 3533 3538
3490 27 3533 3539
3491 20 3540 3541
3492 26 3541 3542
3493 6 3542 3543
3494 1 3543 3544
3495 2 3543 3545
3496 29 3540 3546
3497 29 3540 3547
3498 34 3541 3548
3499 27 3545 3549
3500 27 3545 3550
3501 27 3545 3551
3502 20 3552 3553
3503 26 3553 3554
3504 6 3554 3555
3505 1 3555 3556
3506 2 3555 3557
3507 29 3552 3558
3508 29 3552 3559
3509 34 3553 3560
3510 27 3557 3561
3511 27 3557 3562
3512 27 3557 3563
3513 20 3564 3565
3514 26 3565 3566
3515 6 3566 3567
3516 1 3567 3568
3517 2 3567 3569
3518 29 3564 3570
3519 29 3564 3571
3520 34 3565 3572
3521 27 3569 3573
3522 27 3569 3574
3523 27 3569 3575
3524 20 3576 3577
3525 26 3577 3578
3526 6 3578 3579
3527 1 3579 3580
3528 2 3579 3581
3529 29 3576 3582
3530 29 3576 3583
3531 34 3577 3584
3532 27 3581 3585
3533 27 3581 3586
3534 27 3581 3587
3535 20 3588 3589
3536 26 3589 3590
3537 6 3590 3591
3538 1 3591 3592
3539 2 3591 3593
3540 29 3588 3594
3541 29 3588 3595
3542 34 3589 3596
3543 27 3593 3597
3544 27 3593 3598
3545 27 3593 3599
3546 16 3600 3601
3547 25 3601 3602
3548 6 3602 3603
3549 1 3603 3604
3550 2 3603 3605
3551 29 3600 3606
3552 29 3600 3607
3553 32 3601 3608
3554 32 3601 3609
3555 27 3605 3610
3556 27 3605 3611
3557 27 3605 3612
3558 20 3012 3024
3559 20 3025 3036
3560 20 3037 3048
3561 20 3049 3060
3562 20 3061 3072
3563 20 3073 3084
3564 20 3085 3096
3565 20 3097 3108
3566 20 3109 3120
3567 20 3121 3132
3568 20 3133 3144
3569 20 3145 3156
3570 20 3157 3168
3571 20 3169 3180
3572 20 3181 3192
3573 20 3193 3204
3574 20 3205 3216
3575 20 3217 3228
3576 20 3229 3240
3577 20 3241 3252
3578 20 3253 3264
3579 20 3265 3276
3580 20 3277 3288
3581 20 3289 3300
3582 20 3301 3312
3583 20 3313 3324
3584 20 3325 3336
3585 20 3337 3348
3586 20 3349 3360
3587 20 3361 3372
3588 20 3373 3384
3589 20 3385 3396
3590 20 3397 3408
3591 20 3409 3420
3592 20 3421 3432
3593 20 3433 3444
3594 20 3445 3456
3595 20 3457 3468
3596 20 3469 3480
3597 20 3481 3492
3598 20 3493 3504
3599 20 3505 3516
3600 20 3517 3528
3601 20 3529 3540
3602 20 3541 3552
3603 20 3553 3564
3604 20 3565 3576
3605 20 3577 3588
3606 20 3589 3600
3607 19 3613 3614
3608 26 3614 3615
3609 6 3615 3616
3610 1 3616 3617
3611 2 3616 3618
3612 27 3613 3619
3613 27 3613 3620
3614 27 3613 3621
3615 34 3614 3622
3616 27 3618 3623
3617 27 3618 3624
3618 27 3618 3625
3619 20 3626 3627
3620 26 3627 3628
3621 6 3628 3629
3622 1 3629 3630
3623 2 3629 3631
3624 29 3626 3632
3625 29 3626 3633
3626 34 3627 3634
3627 27 3631 3635
3628 27 3631 3636
3629 27 3631 3637
3630 20 3638 3639
3631 26 3639 3640
3632 6 3640 3641
3633 1 3641 3642
3634 2 3641 3643
3635 29 3638 3644
3636 29 3638 3645
3637 34 3639 3646
3638 27 3643 3647
3639 27 3643 3648
3640 27 3643 3649
3641 20 3650 3651
3642 26 3651 3652
3643 6 3652 3653
3644 1 3653 3654
3645 2 3653 3655
3646 29 3650 3656
3647 29 3650 3657
3648 34 3651 3658
3649 27 3655 3659
3650 27 3655 3660
3651 27 3655 3661
3652 20 3662 3663
3653 26 3663 3664
3654 6 3664 3665
3655 1 3665 3666
3656 2 3665 3667
3657 29 3662 3668
3658 29 3662 3669
3659 34 3663 3670
3660 27 3667 3671
3661 27 3667 3672
3662 27 3667 3673
3663 20 3674 3675
3664 26 3675 3676
3665 6 3676 3677
3666 1 3677 3678
3667 2 3677 3679
3668 29 3674 3680
3669 29 3674 3681
3670 34 3675 3682
3671 27 3679 3683
3672 27 3679 3684
3673 27 3679 3685
3674 20 3686 3687
3675 26 3687 3688
3676 6 3688 3689
3677 1 3689 3690
3678 2 3689 3691
3679 29 3686 3692
3680 29 3686 3693
3681 34 3687 3694
3682 27 3691 3695
3683 27 3691 3696
3684 27 3691 3697
3685 20 3698 3699
3686 26 3699 3700
3687 6 3700 3701
3688 1 3701 3702
3689 2 3701 3703
3690 29 3698 3704
3691 29 3698 3705
3692 34 3699 3706
3693 27 3703 3707
3694 27 3703 3708
3695 27 3703 3709
3696 20 3710 3711
3697 26 3711 3712
3698 6 3712 3713
3699 1 3713 3714
3700 2 3713 3715
3701 29 3710 3716
3702 29 3710 3717
3703 34 3711 3718
3704 27 3715 3719
3705 27 3715 3720
3706 27 3715 3721
3707 20 3722 3723
3708 26 3723 3724
3709 6 3724 3725
3710 1 3725 3726
3711 2 3725 3727
3712 29 3722 3728
3713 29 3722 3729
3714 34 3723 3730
3715 27 3727 3731
3716 27 3727 3732
3717 27 3727 3733
3718 20 3734 3735
3719 26 3735 3736
3720 6 3736 3737
3721 1 3737 3738
3722 2 3737 3739
3723 29 3734 3740
3724 29 3734 3741
3725 34 3735 3742
3726 27 3739 3743
3727 27 3739 3744
3728 27 3739 3745
3729 20 3746 3747
3730 26 3747 3748
3731 6 3748 3749
3732 1 3749 3750
3733 2 3749 3751
3734 29 3746 3752
3735 29 3746 3753
3736 34 3747 3754
3737 27 3751 3755
3738 27 3751 3756
3739 27 3751 3757
3740 20 3758 3759
3741 26 3759 3760
3742 6 3760 3761
3743 1 3761 3762
3744 2 3761 3763
3745 29 3758 3764
3746 29 3758 3765
3747 34 3759 3766
3748 27 3763 3767
3749 27 3763 3768
3750 27 3763 3769
3751 20 3770 3771
3752 26 3771 3772
3753 6 3772 3773
3754 1 3773 3774
3755 2 3773 3775
3756 29 3770 3776
3757 29 3770 3777
3758 34 3771 3778
3759 27 3775 3779
3760 27 3775 3780
3761 27 3775 3781
3762 20 3782 3783
3763 26 3783 3784
3764 6 3784 3785
3765 1 3785 3786
3766 2 3785 3787
3767 29 3782 3788
3768 29 3782 3789
3769 34 3783 3790
3770 27 3787 3791
3771 27 3787 3792
3772 27 3787 3793
3773 20 3794 3795
3774 26 3795 3796
3775 6 3796 3797
3776 1 3797 3798
3777 2 3797 3799
3778 29 3794 3800
3779 29 3794 3801
3780 34 3795 3802
3781 27 3799 3803
3782 27 3799 3804
3783 27 3799 3805
3784 20 3806 3807
3785 26 3807 3808
3786 6 3808 3809
3787 1 3809 3810
3788 2 3809 3811
3789 29 3806 3812
3790 29 3806 3813
3791 34 3807 3814
3792 27 3811 3815
3793 27 3811 3816
3794 27 3811 3817
3795 20 3818 3819
3796 26 3819 3820
3797 6 3820 3821
3798 1 3821 3822
3799 2 3821 3823
3800 29 3818 3824
3801 29 3818 3825
3802 34 3819 3826
3803 27 3823 3827
3804 27 3823 3828
3805 27 3823 3829
3806 20 3830 3831
3807 26 3831 3832
3808 6 3832 3833
3809 1 3833 3834
3810 2 3833 3835
3811 29 3830 3836
3812 29 3830 3837
3813 34 3831 3838
3814 27 3835 3839
3815 27 3835 3840
3816 27 3835 3841
3817 20 3842 3843
3818 26 3843 3844
3819 6 3844 3845
3820 1 3845 3846
3821 2 3845 3847
3822 29 3842 3848
3823 29 3842 3849
3824 34 3843 3850
3825 27 3847 3851
3826 27 3847 3852
3827 27 3847 3853
3828 20 3854 3855
3829 26 3855 3856
3830 6 3856 3857
3831 1 3857 3858
3832 2 3857 3859
3833 29 3854 3860
3834 29 3854 3861
3835 34 3855 3862
3836 27 3859 3863
3837 27 3859 3864
3838 27 3859 3865
3839 20 3866 3867
3840 26 3867 3868
3841 6 3868 3869
3842 1 3869 3870
3843 2 3869 3871
3844 29 3866 3872
3845 29 3866 3873
3846 34 3867 3874
3847 27 3871 3875
3848 27 3871 3876
3849 27 3871 3877
3850 20 3878 3879
3851 26 3879 3880
3852 6 3880 3881
3853 1 3881 3882
3854 2 3881 3883
3855 29 3878 3884
3856 29 3878 3885
3857 34 3879 3886
3858 27 3883 3887
3859 27 3883 3888
3860 27 3883 3889
3861 20 3890 3891
3862 26 3891 3892
3863 6 3892 3893
3864 1 3893 3894
3865 2 3893 3895
3866 29 3890 3896
3867 29 3890 3897
3868 34 3891 3898
3869 27 3895 3899
3870 27 3895 3900
3871 27 3895 3901
3872 20 3902 3903
3873 26 3903 3904
3874 6 3904 3905
3875 1 3905 3906
3876 2 3905 3907
3877 29 3902 3908
3878 29 3902 3909
3879 34 3903 3910
3880 27 3907 3911
3881 27 3907 3912
3882 27 3907 3913
3883 20 3914 3915
3884 26 3915 3916
3885 6 3916 3917
3886 1 3917 3918
3887 2 3917 3919
3888 29 3914 3920
3889 29 3914 3921
3890 34 3915 3922
3891 27 3919 3923
3892 27 3919 3924
3893 27 3919 3925
3894 20 3926 3927
3895 26 3927 3928
3896 6 3928 3929
3897 1 3929 3930
3898 2 3929 3931
3899 29 3926 3932
3900 29 3926 3933
3901 34 3927 3934
3902 27 3931 3935
3903 27 3931 3936
3904 27 3931 3937
3905 20 3938 3939
3906 26 3939 3940
3907 6 3940 3941
3908 1 3941 3942
3909 2 3941 3943
3910 29 3938 3944
3911 29 3938 3945
3912 34 3939 3946
3913 27 3943 3947
3914 27 3943 3948
3915 27 3943 3949
3916 20 3950 3951
3917 26 3951 3952
3918 6 3952 3953
3919 1 3953 3954
3920 2 3953 3955
3921 29 3950 3956
3922 29 3950 3957
3923 34 3951 3958
3924 27 3955 3959
3925 27 3955 3960
3926 27 3955 3961
3927 20 3962 3963
3928 26 3963 3964
3929 6 3964 3965
3930 1 3965 3966
3931 2 3965 3967
3932 29 3962 3968
3933 29 3962 3969
3934 34 3963 3970
3935 27 3967 3971
3936 27 3967 3972
3937 27 3967 3973
3938 20 3974 3975
3939 26 3975 3976
3940 6 3976 3977
3941 1 3977 3978
3942 2 3977 3979
3943 29 3974 3980
3944 29 3974 3981
3945 34 3975 3982
3946 27 3979 3983
3947 27 3979 3984
3948 27 3979 3985
3949 20 3986 3987
3950 26 3987 3988
3951 6 3988 3989
3952 1 3989 3990
3953 2 3989 3991
3954 29 3986 3992
3955 29 3986 3993
3956 34 3987 3994
3957 27 3991 3995
3958 27 3991 3996
3959 27 3991 3997
3960 20 3998 3999
3961 26 3999 4000
3962 6 4000 4001
3963 1 4001 4002
3964 2 4001 4003
3965 29 3998 4004
3966 29 3998 4005
3967 34 3999 4006
3968 27 4003 4007
3969 27 4003 4008
3970 27 4003 4009
3971 20 4010 4011
3972 26 4011 4012
3973 6 4012 4013
3974 1 4013 4014
3975 2 4013 4015
3976 29 4010 4016
3977 29 4010 4017
3978 34 4011 4018
3979 27 4015 4019
3980 27 4015 4020
3981 27 4015 4021
3982 20 4022 4023
3983 26 4023 4024
3984 6 4024 4025
3985 1 4025 4026
3986 2 4025 4027
3987 29 4022 4028
3988 29 4022 4029
3989 34 4023 4030
3990 27 4027 4031
3991 27 4027 4032
3992 27 4027 4033
3993 20 4034 4035
3994 26 4035 4036
3995 6 4036 4037
3996 1 4037 4038
3997 2 4037 4039
3998 29 4034 4040
3999 29 4034 4041
4000 34 4035 4042
4001 27 4039 4043
4002 27 4039 4044
4003 27 4039 4045
4004 20 4046 4047
4005 26 4047 4048
4006 6 4048 4049
4007 1 4049 4050
4008 2 4049 4051
4009 29 4046 4052
4010 29 4046 4053
4011 34 4047 4054
4012 27 4051 4055
4013 27 4051 4056
4014 27 4051 4057
4015 20 4058 4059
4016 26 4059 4060
4017 6 4060 4061
4018 1 4061 4062
4019 2 4061 4063
4020 29 4058 4064
4021 29 4058 4065
4022 34 4059 4066
4023 27 4063 4067
4024 27 4063 4068
4025 27 4063 4069
4026 20 4070 4071
4027 26 4071 4072
4028 6 4072 4073
4029 1 4073 4074
4030 2 4073 4075
4031 29 4070 4076
4032 29 4070 4077
4033 34 4071 4078
4034 27 4075 4079
4035 27 4075 4080
4036 27 4075 4081
4037 20 4082 4083
4038 26 4083 4084
4039 6 4084 4085
4040 1 4085 4086
4041 2 4085 4087
4042 29 4082 4088
4043 29 4082 4089
4044 34 4083 4090
4045 27 4087 4091
4046 27 4087 4092
4047 27 4087 4093
4048 20 4094 4095
4049 26 4095 4096
4050 6 4096 4097
4051 1 4097 4098
4052 2 4097 4099
4053 29 4094 4100
4054 29 4094 4101
4055 34 4095 4102
4056 27 4099 4103
4057 27 4099 4104
4058 27 4099 4105
4059 20 4106 4107
4060 26 4107 4108
4061 6 4108 4109
4062 1 4109 4110
4063 2 4109 4111
4064 29 4106 4112
4065 29 4106 4113
4066 34 4107 4114
4067 27 4111 4115
4068 27 4111 4116
4069 27 4111 4117
4070 20 4118 4119
4071 26 4119 4120
4072 6 4120 4121
4073 1 4121 4122
4074 2 4121 4123
4075 29 4118 4124
4076 29 4118 4125
4077 34 4119 4126
4078 27 4123 4127
4079 27 4123 4128
4080 27 4123 4129
4081 20 4130 4131
4082 26 4131 4132
4083 6 4132 4133
4084 1 4133 4134
4085 2 4133 4135
4086 29 4130 4136
4087 29 4130 4137
4088 34 4131 4138
4089 27 4135 4139
4090 27 4135 4140
4091 27 4135 4141
4092 20 4142 4143
4093 26 4143 4144
4094 6 4144 4145
4095 1 4145 4146
4096 2 4145 4147
4097 29 4142 4148
4098 29 4142 4149
4099 34 4143 4150
4100 27 4147 4151
4101 27 4147 4152
4102 27 4147 4153
4103 20 4154 4155
4104 26 4155 4156
4105 6 4156 4157
4106 1 4157 4158
4107 2 4157 4159
4108 29 4154 4160
4109 29 4154 4161
4110 34 4155 4162
4111 27 4159 4163
4112 27 4159 4164
4113 27 4159 4165
4114 20 4166 4167
4115 26 4167 4168
4116 6 4168 4169
4117 1 4169 4170
4118 2 4169 4171
4119 29 4166 4172
4120 29 4166 4173
4121 34 4167 4174
4122 27 4171 4175
4123 27 4171 4176
4124 27 4171 4177
4125 20 4178 4179
4126 26 4179 4180
4127 6 4180 4181
4128 1 4181 4182
4129 2 4181 4183
4130 29 4178 4184
4131 29 4178 4185
4132 34 4179 4186
4133 27 4183 4187
4134 27 4183 4188
4135 27 4183 4189
4136 20 4190 4191
4137 26 4191 4192
4138 6 4192 4193
4139 1 4193 4194
4140 2 4193 4195
4141 29 4190 4196
4142 29 4190 4197
4143 34 4191 4198
4144 27 4195 4199
4145 27 4195 4200
4146 27 4195 4201
4147 16 4202 4203
4148 25 4203 4204
4149 6 4204 4205
4150 1 4205 4206
4151 2 4205 4207
4152 29 4202 4208
4153 29 4202 4209
4154 32 4203 4210
4155 32 4203 4211
4156 27 4207 4212
4157 27 4207 4213
4158 27 4207 4214
4159 20 3614 3626
4160 20 3627 3638
4161 20 3639 3650
4162 20 3651 3662
4163 20 3663 3674
4164 20 3675 3686
4165 20 3687 3698
4166 20 3699 3710
4167 20 3711 3722
4168 20 3723 3734
4169 20 3735 3746
4170 20 3747 3758
4171 20 3759 3770
4172 20 3771 3782
4173 20 3783 3794
4174 20 3795 3806
4175 20 3807 3818
4176 20 3819 3830
4177 20 3831 3842
4178 20 3843 3854
4179 20 3855 3866
4180 20 3867 3878
4181 20 3879 3890
4182 20 3891 3902
4183 20 3903 3914
4184 20 3915 3926
4185 20 3927 3938
4186 20 3939 3950
4187 20 3951 3962
4188 20 3963 3974
4189 20 3975 3986
4190 20 3987 3998
4191 20 3999 4010
4192 20 4011 4022
4193 20 4023 4034
4194 20 4035 4046
4195 20 4047 4058
4196 20 4059 4070
4197 20 4071 4082
4198 20 4083 4094
4199 20 4095 4106
4200 20 4107 4118
4201 20 4119 4130
4202 20 4131 4142
4203 20 4143 4154
4204 20 4155 4166
4205 20 4167 4178
4206 20 4179 4190
4207 20 4191 4202
4208 19 4215 4216
4209 26 4216 4217
4210 6 4217 4218
4211 1 4218 4219
4212 2 4218 4220
4213 27 4215 4221
4214 27 4215 4222
4215 27 4215 4223
4216 34 4216 4224
4217 27 4220 4225
4218 27 4220 4226
4219 27 4220 4227
4220 20 4228 4229
4221 26 4229 4230
4222 6 4230 4231
4223 1 4231 4232
4224 2 4231 4233
4225 29 4228 4234
4226 29 4228 4235
4227 34 4229 4236
4228 27 4233 4237
4229 27 4233 4238
4230 27 4233 4239
4231 20 4240 4241
4232 26 4241 4242
4233 6 4242 4243
4234 1 4243 4244
4235 2 4243 4245
4236 29 4240 4246
4237 29 4240 4247
4238 34 4241 4248
4239 27 4245 4249
4240 27 4245 4250
4241 27 4245 4251
4242 20 4252 4253
4243 26 4253 4254
4244 6 4254 4255
4245 1 4255 4256
4246 2 4255 4257
4247 29 4252 4258
4248 29 4252 4259
4249 34 4253 4260
4250 27 4257 4261
4251 27 4257 4262
4252 27 4257 4263
4253 20 4264 4265
4254 26 4265 4266
4255 6 4266 4267
4256 1 4267 4268
4257 2 4267 4269
4258 29 4264 4270
4259 29 4264 4271
4260 34 4265 4272
4261 27 4269 4273
4262 27 4269 4274
4263 27 4269 4275
4264 20 4276 4277
4265 26 4277 4278
4266 6 4278 4279
4267 1 4279 4280
4268 2 4279 4281
4269 29 4276 4282
4270 29 4276 4283
4271 34 4277 4284
4272 27 4281 4285
4273 27 4281 4286
4274 27 4281 4287
4275 20 4288 4289
4276 26 4289 4290
4277 6 4290 4291
4278 1 4291 4292
4279 2 4291 4293
4280 29 4288 4294
4281 29 4288 4295
4282 34 4289 4296
4283 27 4293 4297
4284 27 4293 4298
4285 27 4293 4299
4286 20 4300 4301
4287 26 4301 4302
4288 6 4302 4303
4289 1 4303 4304
4290 2 4303 4305
4291 29 4300 4306
4292 29 4300 4307
4293 34 4301 4308
4294 27 4305 4309
4295 27 4305 4310
4296 27 4305 4311
4297 20 4312 4313
4298 26 4313 4314
4299 6 4314 4315
4300 1 4315 4316
4301 2 4315 4317
4302 29 4312 4318
4303 29 4312 4319
4304 34 4313 4320
4305 27 4317 4321
4306 27 4317 4322
4307 27 4317 4323
4308 20 4324 4325
4309 26 4325 4326
4310 6 4326 4327
4311 1 4327 4328
4312 2 4327 4329
4313 29 4324 4330
4314 29 4324 4331
4315 34 4325 4332
4316 27 4329 4333
4317 27 4329 4334
4318 27 4329 4335
4319 20 4336 4337
4320 26 4337 4338
4321 6 4338 4339
4322 1 4339 4340
4323 2 4339 4341
4324 29 4336 4342
4325 29 4336 4343
4326 34 4337 4344
4327 27 4341 4345
4328 27 4341 4346
4329 27 4341 4347
4330 20 4348 4349
4331 26 4349 4350
4332 6 4350 4351
4333 1 4351 4352
4334 2 4351 4353
4335 29 4348 4354
4336 29 4348 4355
4337 34 4349 4356
4338 27 4353 4357
4339 27 4353 4358
4340 27 4353 4359
4341 20 4360 4361
4342 26 4361 4362
4343 6 4362 4363
4344 1 4363 4364
4345 2 4363 4365
4346 29 4360 4366
4347 29 4360 4367
4348 34 4361 4368
4349 27 4365 4369
4350 27 4365 4370
4351 27 4365 4371
4352 20 4372 4373
4353 26 4373 4374
4354 6 4374 4375
4355 1 4375 4376
4356 2 4375 4377
4357 29 4372 4378
4358 29 4372 4379
4359 34 4373 4380
4360 27 4377 4381
4361 27 4377 4382
4362 27 4377 4383
4363 20 4384 4385
4364 26 4385 4386
4365 6 4386 4387
4366 1 4387 4388
4367 2 4387 4389
4368 29 4384 4390
4369 29 4384 4391
4370 34 4385 4392
4371 27 4389 4393
4372 27 4389 4394
4373 27 4389 4395
4374 20 4396 4397
4375 26 4397 4398
4376 6 4398 4399
4377 1 4399 4400
4378 2 4399 4401
4379 29 4396 4402
4380 29 4396 4403
4381 34 4397 4404
4382 27 4401 4405
4383 27 4401 4406
4384 27 4401 4407
4385 20 4408 4409
4386 26 4409 4410
4387 6 4410 4411
4388 1 4411 4412
4389 2 4411 4413
4390 29 4408 4414
4391 29 4408 4415
4392 34 4409 4416
4393 27 4413 4417
4394 27 4413 4418
4395 27 4413 4419
4396 20 4420 4421
4397 26 4421 4422
4398 6 4422 4423
4399 1 4423 4424
4400 2 4423 4425
4401 29 4420 4426
4402 29 4420 4427
4403 34 4421 4428
4404 27 4425 4429
4405 27 4425 4430
4406 27 4425 4431
4407 20 4432 4433
4408 26 4433 4434
4409 6 4434 4435
4410 1 4435 4436
4411 2 4435 4437
4412 29 4432 4438
4413 29 4432 4439
4414 34 4433 4440
4415 27 4437 4441
4416 27 4437 4442
4417 27 4437 4443
4418 20 4444 4445
4419 26 4445 4446
4420 6 4446 4447
4421 1 4447 4448
4422 2 4447 4449
4423 29 4444 4450
4424 29 4444 4451
4425 34 4445 4452
4426 27 4449 4453
4427 27 4449 4454
4428 27 4449 4455
4429 20 4456 4457
4430 26 4457 4458
4431 6 4458 4459
4432 1 4459 4460
4433 2 4459 4461
4434 29 4456 4462
4435 29 4456 4463
4436 34 4457 4464
4437 27 4461 4465
4438 27 4461 4466
4439 27 4461 4467
4440 20 4468 4469
4441 26 4469 4470
4442 6 4470 4471
4443 1 4471 4472
4444 2 4471 4473
4445 29 4468 4474
4446 29 4468 4475
4447 34 4469 4476
4448 27 4473 4477
4449 27 4473 4478
4450 27 4473 4479
4451 20 4480 4481
4452 26 4481 4482
4453 6 4482 4483
4454 1 4483 4484
4455 2 4483 4485
4456 29 4480 4486
4457 29 4480 4487
4458 34 4481 4488
4459 27 4485 4489
4460 27 4485 4490
4461 27 4485 4491
4462 20 4492 4493
4463 26 4493 4494
4464 6 4494 4495
4465 1 4495 4496
4466 2 4495 4497
4467 29 4492 4498
4468 29 4492 4499
4469 34 4493 4500
4470 27 4497 4501
4471 27 4497 4502
4472 27 4497 4503
4473 20 4504 4505
4474 26 4505 4506
4475 6 4506 4507
4476 1 4507 4508
4477 2 4507 4509
4478 29 4504 4510
4479 29 4504 4511
4480 34 4505 4512
4481 27 4509 4513
4482 27 4509 4514
4483 27 4509 4515
4484 20 4516 4517
4485 26 4517 4518
4486 6 4518 4519
4487 1 4519 4520
4488 2 4519 4521
4489 29 4516 4522
4490 29 4516 4523
4491 34 4517 4524
4492 27 4521 4525
4493 27 4521 4526
4494 27 4521 4527
4495 20 4528 4529
4496 26 4529 4530
4497 6 4530 4531
4498 1 4531 4532
4499 2 4531 4533
4500 29 4528 4534
4501 29 4528 4535
4502 34 4529 4536
4503 27 4533 4537
4504 27 4533 4538
4505 27 4533 4539
4506 20 4540 4541
4507 26 4541 4542
4508 6 4542 4543
4509 1 4543 4544
4510 2 4543 4545
4511 29 4540 4546
4512 29 4540 4547
4513 34 4541 4548
4514 27 4545 4549
4515 27 4545 4550
4516 27 4545 4551
4517 20 4552 4553
4518 26 4553 4554
4519 6 4554 4555
4520 1 4555 4556
4521 2 4555 4557
4522 29 4552 4558
4523 29 4552 4559
4524 34 4553 4560
4525 27 4557 4561
4526 27 4557 4562
4527 27 4557 4563
4528 20 4564 4565
4529 26 4565 4566
4530 6 4566 4567
4531 1 4567 4568
4532 2 4567 4569
4533 29 4564 4570
4534 29 4564 4571
4535 34 4565 4572
4536 27 4569 4573
4537 27 4569 4574
4538 27 4569 4575
4539 20 4576 4577
4540 26 4577 4578
4541 6 4578 4579
4542 1 4579 4580
4543 2 4579 4581
4544 29 4576 4582
4545 29 4576 4583
4546 34 4577 4584
4547 27 4581 4585
4548 27 4581 4586
4549 27 4581 4587
4550 20 4588 4589
4551 26 4589 4590
4552 6 4590 4591
4553 1 4591 4592
4554 2 4591 4593
4555 29 4588 4594
4556 29 4588 4595
4557 34 4589 4596
4558 27 4593 4597
4559 27 4593 4598
4560 27 4593 4599
4561 20 4600 4601
4562 26 4601 4602
4563 6 4602 4603
4564 1 4603 4604
4565 2 4603 4605
4566 29 4600 4606
4567 29 4600 4607
4568 34 4601 4608
4569 27 4605 4609
4570 27 4605 4610
4571 27 4605 4611
4572 20 4612 4613
4573 26 4613 4614
4574 6 4614 4615
4575 1 4615 4616
4576 2 4615 4617
4577 29 4612 4618
4578 29 4612 4619
4579 34 4613 4620
4580 27 4617 4621
4581 27 4617 4622
4582 27 4617 4623
4583 20 4624 4625
4584 26 4625 4626
4585 6 4626 4627
4586 1 4627 4628
4587 2 4627 4629
4588 29 4624 4630
4589 29 4624 4631
4590 34 4625 4632
4591 27 4629 4633
4592 27 4629 4634
4593 27 4629 4635
4594 20 4636 4637
4595 26 4637 4638
4596 6 4638 4639
4597 1 4639 4640
4598 2 4639 4641
4599 29 4636 4642
4600 29 4636 4643
4601 34 4637 4644
4602 27 4641 4645
4603 27 4641 4646
4604 27 4641 4647
4605 20 4648 4649
4606 26 4649 4650
4607 6 4650 4651
4608 1 4651 4652
4609 2 4651 4653
4610 29 4648 4654
4611 29 4648 4655
4612 34 4649 4656
4613 27 4653 4657
4614 27 4653 4658
4615 27 4653 4659
4616 20 4660 4661
4617 26 4661 4662
4618 6 4662 4663
4619 1 4663 4664
4620 2 4663 4665
4621 29 4660 4666
4622 29 4660 4667
4623 34 4661 4668
4624 27 4665 4669
4625 27 4665 4670
4626 27 4665 4671
4627 20 4672 4673
4628 26 4673 4674
4629 6 4674 4675
4630 1 4675 4676
4631 2 4675 4677
4632 29 4672 4678
4633 29 4672 4679
4634 34 4673 4680
4635 27 4677 4681
4636 27 4677 4682
4637 27 4677 4683
4638 20 4684 4685
4639 26 4685 4686
4640 6 4686 4687
4641 1 4687 4688
4642 2 4687 4689
4643 29 4684 4690
4644 29 4684 4691
4645 34 4685 4692
4646 27 4689 4693
4647 27 4689 4694
4648 27 4689 4695
4649 20 4696 4697
4650 26 4697 4698
4651 6 4698 4699
4652 1 4699 4700
4653 2 4699 4701
4654 29 4696 4702
4655 29 4696 4703
4656 34 4697 4704
4657 27 4701 4705
4658 27 4701 4706
4659 27 4701 4707
4660 20 4708 4709
4661 26 4709 4710
4662 6 4710 4711
4663 1 4711 4712
4664 2 4711 4713
4665 29 4708 4714
4666 29 4708 4715
4667 34 4709 4716
4668 27 4713 4717
4669 27 4713 4718
4670 27 4713 4719
4671 20 4720 4721
4672 26 4721 4722
4673 6 4722 4723
4674 1 4723 4724
4675 2 4723 4725
4676 29 4720 4726
4677 29 4720 4727
4678 34 4721 4728
4679 27 4725 4729
4680 27 4725 4730
4681 27 4725 4731
4682 20 4732 4733
4683 26 4733 4734
4684 6 4734 4735
4685 1 4735 4736
4686 2 4735 4737
4687 29 4732 4738
4688 29 4732 4739
4689 34 4733 4740
4690 27 4737 4741
4691 27 4737 4742
4692 27 4737 4743
4693 20 4744 4745
4694 26 4745 4746
4695 6 4746 4747
4696 1 4747 4748
4697 2 4747 4749
4698 29 4744 4750
4699 29 4744 4751
4700 34 4745 4752
4701 27 4749 4753
4702 27 4749 4754
4703 27 4749 4755
4704 20 4756 4757
4705 26 4757 4758
4706 6 4758 4759
4707 1 4759 4760
4708 2 4759 4761
4709 29 4756 4762
4710 29 4756 4763
4711 34 4757 4764
4712 27 4761 4765
4713 27 4761 4766
4714 27 4761 4767
4715 20 4768 4769
4716 26 4769 4770
4717 6 4770 4771
4718 1 4771 4772
4719 2 4771 4773
4720 29 4768 4774
4721 29 4768 4775
4722 34 4769 4776
4723 27 4773 4777
4724 27 4773 4778
4725 27 4773 4779
4726 20 4780 4781
4727 26 4781 4782
4728 6 4782 4783
4729 1 4783 4784
4730 2 4783 4785
4731 29 4780 4786
4732 29 4780 4787
4733 34 4781 4788
4734 27 4785 4789
4735 27 4785 4790
4736 27 4785 4791
4737 20 4792 4793
4738 26 4793 4794
4739 6 4794 4795
4740 1 4795 4796
4741 2 4795 4797
4742 29 4792 4798
4743 29 4792 4799
4744 34 4793 4800
4745 27 4797 4801
4746 27 4797 4802
4747 27 4797 4803
4748 16 4804 4805
4749 25 4805 4806
4750 6 4806 4807
4751 1 4807 4808
4752 2 4807 4809
4753 29 4804 4810
4754 29 4804 4811
4755 32 4805 4812
4756 32 4805 4813
4757 27 4809 4814
4758 27 4809 4815
4759 27 4809 4816
4760 20 4216 4228
4761 20 4229 4240
4762 20 4241 4252
4763 20 4253 4264
4764 20 4265 4276
4765 20 4277 4288
4766 20 4289 4300
4767 20 4301 4312
4768 20 4313 4324
4769 20 4325 4336
4770 20 4337 4348
4771 20 4349 4360
4772 20 4361 4372
4773 20 4373 4384
4774 20 4385 4396
4775 20 4397 4408
4776 20 4409 4420
4777 20 4421 4432
4778 20 4433 4444
4779 20 4445 4456
4780 20 4457 4468
4781 20 4469 4480
4782 20 4481 4492
4783 20 4493 4504
4784 20 4505 4516
4785 20 4517 4528
4786 20 4529 4540
4787 20 4541 4552
4788 20 4553 4564
4789 20 4565 4576
4790 20 4577 4588
4791 20 4589 4600
4792 20 4601 4612
4793 20 4613 4624
4794 20 4625 4636
4795 20 4637 4648
4796 20 4649 4660
4797 20 4661 4672
4798 20 4673 4684
4799 20 4685 4696
4800 20 4697 4708
4801 20 4709 4720
4802 20 4721 4732
4803 20 4733 4744
4804 20 4745 4756
4805 20 4757 4768
4806 20 4769 4780
4807 20 4781 4792
4808 20 4793 4804
4809 19 4817 4818
4810 26 4818 4819
4811 6 4819 4820
4812 1 4820 4821
4813 2 4820 4822
4814 27 4817 4823
4815 27 4817 4824
4816 27 4817 4825
4817 34 4818 4826
4818 27 4822 4827
4819 27 4822 4828
4820 27 4822 4829
4821 20 4830 4831
4822 26 4831 4832
4823 6 4832 4833
4824 1 4833 4834
4825 2 4833 4835
4826 29 4830 4836
4827 29 4830 4837
4828 34 4831 4838
4829 27 4835 4839
4830 27 4835 4840
4831 27 4835 4841
4832 20 4842 4843
4833 26 4843 4844
4834 6 4844 4845
4835 1 4845 4846
4836 2 4845 4847
4837 29 4842 4848
4838 29 4842 4849
4839 34 4843 4850
4840 27 4847 4851
4841 27 4847 4852
4842 27 4847 4853
4843 20 4854 4855
4844 26 4855 4856
4845 6 4856 4857
4846 1 4857 4858
4847 2 4857 4859
4848 29 4854 4860
4849 29 4854 4861
4850 34 4855 4862
4851 27 4859 4863
4852 27 4859 4864
4853 27 4859 4865
4854 20 4866 4867
4855 26 4867 4868
4856 6 4868 4869
4857 1 4869 4870
4858 2 4869 4871
4859 29 4866 4872
4860 29 4866 4873
4861 34 4867 4874
4862 27 4871 4875
4863 27 4871 4876
4864 27 4871 4877
4865 20 4878 4879
4866 26 4879 4880
4867 6 4880 4881
4868 1 4881 4882
4869 2 4881 4883
4870 29 4878 4884
4871 29 4878 4885
4872 34 4879 4886
4873 27 4883 4887
4874 27 4883 4888
4875 27 4883 4889
4876 20 4890 4891
4877 26 4891 4892
4878 6 4892 4893
4879 1 4893 4894
4880 2 4893 4895
4881 29 4890 4896
4882 29 4890 4897
4883 34 4891 4898
4884 27 4895 4899
4885 27 4895 4900
4886 27 4895 4901
4887 20 4902 4903
4888 26 4903 4904
4889 6 4904 4905
4890 1 4905 4906
4891 2 4905 4907
4892 29 4902 4908
4893 29 4902 4909
4894 34 4903 4910
4895 27 4907 4911
4896 27 4907 4912
4897 27 4907 4913
4898 20 4914 4915
4899 26 4915 4916
4900 6 4916 4917
4901 1 4917 4918
4902 2 4917 4919
4903 29 4914 4920
4904 29 4914 4921
4905 34 4915 4922
4906 27 4919 4923
4907 27 4919 4924
4908 27 4919 4925
4909 20 4926 4927
4910 26 4927 4928
4911 6 4928 4929
4912 1 4929 4930
4913 2 4929 4931
4914 29 4926 4932
4915 29 4926 4933
4916 34 4927 4934
4917 27 4931 4935
4918 27 4931 4936
4919 27 4931 4937
4920 20 4938 4939
4921 26 4939 4940
4922 6 4940 4941
4923 1 4941 4942
4924 2 4941 4943
4925 29 4938 4944
4926 29 4938 4945
4927 34 4939 4946
4928 27 4943 4947
4929 27 4943 4948
4930 27 4943 4949
4931 20 4950 4951
4932 26 4951 4952
4933 6 4952 4953
4934 1 4953 4954
4935 2 4953 4955
4936 29 4950 4956
4937 29 4950 4957
4938 34 4951 4958
4939 27 4955 4959
4940 27 4955 4960
4941 27 4955 4961
4942 20 4962 4963
4943 26 4963 4964
4944 6 4964 4965
4945 1 4965 4966
4946 2 4965 4967
4947 29 4962 4968
4948 29 4962 4969
4949 34 4963 4970
4950 27 4967 4971
4951 27 4967 4972
4952 27 4967 4973
4953 20 4974 4975
4954 26 4975 4976
4955 6 4976 4977
4956 1 4977 4978
4957 2 4977 4979
4958 29 4974 4980
4959 29 4974 4981
4960 34 4975 4982
4961 27 4979 4983
4962 27 4979 4984
4963 27 4979 4985
4964 20 4986 4987
4965 26 4987 4988
4966 6 4988 4989
4967 1 4989 4990
4968 2 4989 4991
4969 29 4986 4992
4970 29 4986 4993
4971 34 4987 4994
4972 27 4991 4995
4973 27 4991 4996
4974 27 4991 4997
4975 20 4998 4999
4976 26 4999 5000
4977 6 5000 5001
4978 1 5001 5002
4979 2 5001 5003
4980 29 4998 5004
4981 29 4998 5005
4982 34 4999 5006
4983 27 5003 5007
4984 27 5003 5008
4985 27 5003 5009
4986 20 5010 5011
4987 26 5011 5012
4988 6 5012 5013
4989 1 5013 5014
4990 2 5013 5015
4991 29 5010 5016
4992 29 5010 5017
4993 34 5011 5018
4994 27 5015 5019
4995 27 5015 5020
4996 27 5015 5021
4997 20 5022 5023
4998 26 5023 5024
4999 6 5024 5025
5000 1 5025 5026
5001 2 5025 5027
5002 29 5022 5028
5003 29 5022 5029
5004 34 5023 5030
5005 27 5027 5031
5006 27 5027 5032
5007 27 5027 5033
5008 20 5034 5035
5009 26 5035 5036
5010 6 5036 5037
5011 1 5037 5038
5012 2 5037 5039
5013 29 5034 5040
5014 29 5034 5041
5015 34 5035 5042
5016 27 5039 5043
5017 27 5039 5044
5018 27 5039 5045
5019 20 5046 5047
5020 26 5047 5048
5021 6 5048 5049
5022 1 5049 5050
5023 2 5049 5051
5024 29 5046 5052
5025 29 5046 5053
5026 34 5047 5054
5027 27 5051 5055
5028 27 5051 5056
5029 27 5051 5057
5030 20 5058 5059
5031 26 5059 5060
5032 6 5060 5061
5033 1 5061 5062
5034 2 5061 5063
5035 29 5058 5064
5036 29 5058 5065
5037 34 5059 5066
5038 27 5063 5067
5039 27 5063 5068
5040 27 5063 5069
5041 20 5070 5071
5042 26 5071 5072
5043 6 5072 5073
5044 1 5073 5074
5045 2 5073 5075
5046 29 5070 5076
5047 29 5070 5077
5048 34 5071 5078
5049 27 5075 5079
5050 27 5075 5080
5051 27 5075 5081
5052 20 5082 5083
5053 26 5083 5084
5054 6 5084 5085
5055 1 5085 5086
5056 2 5085 5087
5057 29 5082 5088
5058 29 5082 5089
5059 34 5083 5090
5060 27 5087 5091
5061 27 5087 5092
5062 27 5087 5093
5063 20 5094 5095
5064 26 5095 5096
5065 6 5096 5097
5066 1 5097 5098
5067 2 5097 5099
5068 29 5094 5100
5069 29 5094 5101
5070 34 5095 5102
5071 27 5099 5103
5072 27 5099 5104
5073 27 5099 5105
5074 20 5106 5107
5075 26 5107 5108
5076 6 5108 5109
5077 1 5109 5110
5078 2 5109 5111
5079 29 5106 5112
5080 29 5106 5113
5081 34 5107 5114
5082 27 5111 5115
5083 27 5111 5116
5084 27 5111 5117
5085 20 5118 5119
5086 26 5119 5120
5087 6 5120 5121
5088 1 5121 5122
5089 2 5121 5123
5090 29 5118 5124
5091 29 5118 5125
5092 34 5119 5126
5093 27 5123 5127
5094 27 5123 5128
5095 27 5123 5129
5096 20 5130 5131
5097 26 5131 5132
5098 6 5132 5133
5099 1 5133 5134
5100 2 5133 5135
5101 29 5130 5136
5102 29 5130 5137
5103 34 5131 5138
5104 27 5135 5139
5105 27 5135 5140
5106 27 5135 5141
5107 20 5142 5143
5108 26 5143 5144
5109 6 5144 5145
5110 1 5145 5146
5111 2 5145 5147
5112 29 5142 5148
5113 29 5142 5149
5114 34 5143 5150
5115 27 5147 5151
5116 27 5147 5152
5117 27 5147 5153
5118 20 5154 5155
5119 26 5155 5156
5120 6 5156 5157
5121 1 5157 5158
5122 2 5157 5159
5123 29 5154 5160
5124 29 5154 5161
5125 34 5155 5162
5126 27 5159 5163
5127 27 5159 5164
5128 27 5159 5165
5129 20 5166 5167
5130 26 5167 5168
5131 6 5168 5169
5132 1 5169 5170
5133 2 5169 5171
5134 29 5166 5172
5135 29 5166 5173
5136 34 5167 5174
5137 27 5171 5175
5138 27 5171 5176
5139 27 5171 5177
5140 20 5178 5179
5141 26 5179 5180
5142 6 5180 5181
5143 1 5181 5182
5144 2 5181 5183
5145 29 5178 5184
5146 29 5178 5185
5147 34 5179 5186
5148 27 5183 5187
5149 27 5183 5188
5150 27 5183 5189
5151 20 5190 5191
5152 26 5191 5192
5153 6 5192 5193
5154 1 5193 5194
5155 2 5193 5195
5156 29 5190 5196
5157 29 5190 5197
5158 34 5191 5198
5159 27 5195 5199
5160 27 5195 5200
5161 27 5195 5201
5162 20 5202 5203
5163 26 5203 5204
5164 6 5204 5205
5165 1 5205 5206
5166 2 5205 5207
5167 29 5202 5208
5168 29 5202 5209
5169 34 5203 5210
5170 27 5207 5211
5171 27 5207 5212
5172 27 5207 5213
5173 20 5214 5215
5174 26 5215 5216
5175 6 5216 5217
5176 1 5217 5218
5177 2 5217 5219
5178 29 5214 5220
5179 29 5214 5221
5180 34 5215 5222
5181 27 5219 5223
5182 27 5219 5224
5183 27 5219 5225
5184 20 5226 5227
5185 26 5227 5228
5186 6 5228 5229
5187 1 5229 5230
5188 2 5229 5231
5189 29 5226 5232
5190 29 5226 5233
5191 34 5227 5234
5192 27 5231 5235
5193 27 5231 5236
5194 27 5231 5237
5195 20 5238 5239
5196 26 5239 5240
5197 6 5240 5241
5198 1 5241 5242
5199 2 5241 5243
5200 29 5238 5244
5201 29 5238 5245
5202 34 5239 5246
5203 27 5243 5247
5204 27 5243 5248
5205 27 5243 5249
5206 20 5250 5251
5207 26 5251 5252
5208 6 5252 5253
5209 1 5253 5254
5210 2 5253 5255
5211 29 5250 5256
5212 29 5250 5257
5213 34 5251 5258
5214 27 5255 5259
5215 27 5255 5260
5216 27 5255 5261
5217 20 5262 5263
5218 26 5263 5264
5219 6 5264 5265
5220 1 5265 5266
5221 2 5265 5267
5222 29 5262 5268
5223 29 5262 5269
5224 34 5263 5270
5225 27 5267 5271
5226 27 5267 5272
5227 27 5267 5273
5228 20 5274 5275
5229 26 5275 5276
5230 6 5276 5277
5231 1 5277 5278
5232 2 5277 5279
5233 29 5274 5280
5234 29 5274 5281
5235 34 5275 5282
5236 27 5279 5283
5237 27 5279 5284
5238 27 5279 5285
5239 20 5286 5287
5240 26 5287 5288
5241 6 5288 5289
5242 1 5289 5290
5243 2 5289 5291
5244 29 5286 5292
5245 29 5286 5293
5246 34 5287 5294
5247 27 5291 5295
5248 27 5291 5296
5249 27 5291 5297
5250 20 5298 5299
5251 26 5299 5300
5252 6 5300 5301
5253 1 5301 5302
5254 2 5301 5303
5255 29 5298 5304
5256 29 5298 5305
5257 34 5299 5306
5258 27 5303 5307
5259 27 5303 5308
5260 27 5303 5309
5261 20 5310 5311
5262 26 5311 5312
5263 6 5312 5313
5264 1 5313 5314
5265 2 5313 5315
5266 29 5310 5316
5267 29 5310 5317
5268 34 5311 5318
5269 27 5315 5319
5270 27 5315 5320
5271 27 5315 5321
5272 20 5322 5323
5273 26 5323 5324
5274 6 5324 5325
5275 1 5325 5326
5276 2 5325 5327
5277 29 5322 5328
5278 29 5322 5329
5279 34 5323 5330
5280 27 5327 5331
5281 27 5327 5332
5282 27 5327 5333
5283 20 5334 5335
5284 26 5335 5336
5285 6 5336 5337
5286 1 5337 5338
5287 2 5337 5339
5288 29 5334 5340
5289 29 5334 5341
5290 34 5335 5342
5291 27 5339 5343
5292 27 5339 5344
5293 27 5339 5345
5294 20 5346 5347
5295 26 5347 5348
5296 6 5348 5349
5297 1 5349 5350
5298 2 5349 5351
5299 29 5346 5352
5300 29 5346 5353
5301 34 5347 5354
5302 27 5351 5355
5303 27 5351 5356
5304 27 5351 5357
5305 20 5358 5359
5306 26 5359 5360
5307 6 5360 5361
5308 1 5361 5362
5309 2 5361 5363
5310 29 5358 5364
5311 29 5358 5365
5312 34 5359 5366
5313 27 5363 5367
5314 27 5363 5368
5315 27 5363 5369
5316 20 5370 5371
5317 26 5371 5372
5318 6 5372 5373
5319 1 5373 5374
5320 2 5373 5375
5321 29 5370 5376
5322 29 5370 5377
5323 34 5371 5378
5324 27 5375 5379
5325 27 5375 5380
5326 27 5375 5381
5327 20 5382 5383
5328 26 5383 5384
5329 6 5384 5385
5330 1 5385 5386
5331 2 5385 5387
5332 29 5382 5388
5333 29 5382 5389
5334 34 5383 5390
5335 27 5387 5391
5336 27 5387 5392
5337 27 5387 5393
5338 20 5394 5395
5339 26 5395 5396
5340 6 5396 5397
5341 1 5397 5398
5342 2 5397 5399
5343 29 5394 5400
5344 29 5394 5401
5345 34 5395 5402
5346 27 5399 5403
5347 27 5399 5404
5348 27 5399 5405
5349 16 5406 5407
5350 25 5407 5408
5351 6 5408 5409
5352 1 5409 5410
5353 2 5409 5411
5354 29 5406 5412
5355 29 5406 5413
5356 32 5407 5414
5357 32 5407 5415
5358 27 5411 5416
5359 27 5411 5417
5360 27 5411 5418
5361 20 4818 4830
5362 20 4831 4842
5363 20 4843 4854
5364 20 4855 4866
5365 20 4867 4878
5366 20 4879 4890
5367 20 4891 4902
5368 20 4903 4914
5369 20 4915 4926
5370 20 4927 4938
5371 20 4939 4950
5372 20 4951 4962
5373 20 4963 4974
5374 20 4975 4986
5375 20 4987 4998
5376 20 4999 5010
5377 20 5011 5022
5378 20 5023 5034
5379 20 5035 5046
5380 20 5047 5058
5381 20 5059 5070
5382 20 5071 5082
5383 20 5083 5094
5384 20 5095 5106
5385 20 5107 5118
5386 20 5119 5130
5387 20 5131 5142
5388 20 5143 5154
5389 20 5155 5166
5390 20 5167 5178
5391 20 5179 5190
5392 20 5191 5202
5393 20 5203 5214
5394 20 5215 5226
5395 20 5227 5238
5396 20 5239 5250
5397 20 5251 5262
5398 20 5263 5274
5399 20 5275 5286
5400 20 5287 5298
5401 20 5299 5310
5402 20 5311 5322
5403 20 5323 5334
5404 20 5335 5346
5405 20 5347 5358
5406 20 5359 5370
5407 20 5371 5382
5408 20 5383 5394
5409 20 5395 5406
5410 19 5419 5420
5411 26 5420 5421
5412 6 5421 5422
5413 1 5422 5423
5414 2 5422 5424
5415 27 5419 5425
5416 27 5419 5426
5417 27 5419 5427
5418 34 5420 5428
5419 27 5424 5429
5420 27 5424 5430
5421 27 5424 5431
5422 20 5432 5433
5423 26 5433 5434
5424 6 5434 5435
5425 1 5435 5436
5426 2 5435 5437
5427 29 5432 5438
5428 29 5432 5439
5429 34 5433 5440
5430 27 5437 5441
5431 27 5437 5442
5432 27 5437 5443
5433 20 5444 5445
5434 26 5445 5446
5435 6 5446 5447
5436 1 5447 5448
5437 2 5447 5449
5438 29 5444 5450
5439 29 5444 5451
5440 34 5445 5452
5441 27 5449 5453
5442 27 5449 5454
5443 27 5449 5455
5444 20 5456 5457
5445 26 5457 5458
5446 6 5458 5459
5447 1 5459 5460
5448 2 5459 5461
5449 29 5456 5462
5450 29 5456 5463
5451 34 5457 5464
5452 27 5461 5465
5453 27 5461 5466
5454 27 5461 5467
5455 20 5468 5469
5456 26 5469 5470
5457 6 5470 5471
5458 1 5471 5472
5459 2 5471 5473
5460 29 5468 5474
5461 29 5468 5475
5462 34 5469 5476
5463 27 5473 5477
5464 27 5473 5478
5465 27 5473 5479
5466 20 5480 5481
5467 26 5481 5482
5468 6 5482 5483
5469 1 5483 5484
5470 2 5483 5485
5471 29 5480 5486
5472 29 5480 5487
5473 34 5481 5488
5474 27 5485 5489
5475 27 5485 5490
5476 27 5485 5491
5477 20 5492 5493
5478 26 5493 5494
5479 6 5494 5495
5480 1 5495 5496
5481 2 5495 5497
5482 29 5492 5498
5483 29 5492 5499
5484 34 5493 5500
5485 27 5497 5501
5486 27 5497 5502
5487 27 5497 5503
5488 20 5504 5505
5489 26 5505 5506
5490 6 5506 5507
5491 1 5507 5508
5492 2 5507 5509
5493 29 5504 5510
5494 29 5504 5511
5495 34 5505 5512
5496 27 5509 5513
5497 27 5509 5514
5498 27 5509 5515
5499 20 5516 5517
5500 26 5517 5518
5501 6 5518 5519
5502 1 5519 5520
5503 2 5519 5521
5504 29 5516 5522
5505 29 5516 5523
5506 34 5517 5524
5507 27 5521 5525
5508 27 5521 5526
5509 27 5521 5527
5510 20 5528 5529
5511 26 5529 5530
5512 6 5530 5531
5513 1 5531 5532
5514 2 5531 5533
5515 29 5528 5534
5516 29 5528 5535
5517 34 5529 5536
5518 27 5533 5537
5519 27 5533 5538
5520 27 5533 5539
5521 20 5540 5541
5522 26 5541 5542
5523 6 5542 5543
5524 1 5543 5544
5525 2 5543 5545
5526 29 5540 5546
5527 29 5540 5547
5528 34 5541 5548
5529 27 5545 5549
5530 27 5545 5550
5531 27 5545 5551
5532 20 5552 5553
5533 26 5553 5554
5534 6 5554 5555
5535 1 5555 5556
5536 2 5555 5557
5537 29 5552 5558
5538 29 5552 5559
5539 34 5553 5560
5540 27 5557 5561
5541 27 5557 5562
5542 27 5557 5563
5543 20 5564 5565
5544 26 5565 5566
5545 6 5566 5567
5546 1 5567 5568
5547 2 5567 5569
5548 29 5564 5570
5549 29 5564 5571
5550 34 5565 5572
5551 27 5569 5573
5552 27 5569 5574
5553 27 5569 5575
5554 20 5576 5577
5555 26 5577 5578
5556 6 5578 5579
5557 1 5579 5580
5558 2 5579 5581
5559 29 5576 5582
5560 29 5576 5583
5561 34 5577 5584
5562 27 5581 5585
5563 27 5581 5586
5564 27 5581 5587
5565 20 5588 5589
5566 26 5589 5590
5567 6 5590 5591
5568 1 5591 5592
5569 2 5591 5593
5570 29 5588 5594
5571 29 5588 5595
5572 34 5589 5596
5573 27 5593 5597
5574 27 5593 5598
5575 27 5593 5599
5576 20 5600 5601
5577 26 5601 5602
5578 6 5602 5603
5579 1 5603 5604
5580 2 5603 5605
5581 29 5600 5606
5582 29 5600 5607
5583 34 5601 5608
5584 27 5605 5609
5585 27 5605 5610
5586 27 5605 5611
5587 20 5612 5613
5588 26 5613 5614
5589 6 5614 5615
5590 1 5615 5616
5591 2 5615 5617
5592 29 5612 5618
5593 29 5612 5619
5594 34 5613 5620
5595 27 5617 5621
5596 27 5617 5622
5597 27 5617 5623
5598 20 5624 5625
5599 26 5625 5626
5600 6 5626 5627
5601 1 5627 5628
5602 2 5627 5629
5603 29 5624 5630
5604 29 5624 5631
5605 34 5625 5632
5606 27 5629 5633
5607 27 5629 5634
5608 27 5629 5635
5609 20 5636 5637
5610 26 5637 5638
5611 6 5638 5639
5612 1 5639 5640
5613 2 5639 5641
5614 29 5636 5642
5615 29 5636 5643
5616 34 5637 5644
5617 27 5641 5645
5618 27 5641 5646
5619 27 5641 5647
5620 20 5648 5649
5621 26 5649 5650
5622 6 5650 5651
5623 1 5651 5652
5624 2 5651 5653
5625 29 5648 5654
5626 29 5648 5655
5627 34 5649 5656
5628 27 5653 5657
5629 27 5653 5658
5630 27 5653 5659
5631 20 5660 5661
5632 26 5661 5662
5633 6 5662 5663
5634 1 5663 5664
5635 2 5663 5665
5636 29 5660 5666
5637 29 5660 5667
5638 34 5661 5668
5639 27 5665 5669
5640 27 5665 5670
5641 27 5665 5671
5642 20 5672 5673
5643 26 5673 5674
5644 6 5674 5675
5645 1 5675 5676
5646 2 5675 5677
5647 29 5672 5678
5648 29 5672 5679
5649 34 5673 5680
5650 27 5677 5681
5651 27 5677 5682
5652 27 5677 5683
5653 20 5684 5685
5654 26 5685 5686
5655 6 5686 5687
5656 1 5687 5688
5657 2 5687 5689
5658 29 5684 5690
5659 29 5684 5691
5660 34 5685 5692
5661 27 5689 5693
5662 27 5689 5694
5663 27 5689 5695
5664 20 5696 5697
5665 26 5697 5698
5666 6 5698 5699
5667 1 5699 5700
5668 2 5699 5701
5669 29 5696 5702
5670 29 5696 5703
5671 34 5697 5704
5672 27 5701 5705
5673 27 5701 5706
5674 27 5701 5707
5675 20 5708 5709
5676 26 5709 5710
5677 6 5710 5711
5678 1 5711 5712
5679 2 5711 5713
5680 29 5708 5714
5681 29 5708 5715
5682 34 5709 5716
5683 27 5713 5717
5684 27 5713 5718
5685 27 5713 5719
5686 20 5720 5721
5687 26 5721 5722
5688 6 5722 5723
5689 1 5723 5724
5690 2 5723 5725
5691 29 5720 5726
5692 29 5720 5727
5693 34 5721 5728
5694 27 5725 5729
5695 27 5725 5730
5696 27 5725 5731
5697 20 5732 5733
5698 26 5733 5734
5699 6 5734 5735
5700 1 5735 5736
5701 2 5735 5737
5702 29 5732 5738
5703 29 5732 5739
5704 34 5733 5740
5705 27 5737 5741
5706 27 5737 5742
5707 27 5737 5743
5708 20 5744 5745
5709 26 5745 5746
5710 6 5746 5747
5711 1 5747 5748
5712 2 5747 5749
5713 29 5744 5750
5714 29 5744 5751
5715 34 5745 5752
5716 27 5749 5753
5717 27 5749 5754
5718 27 5749 5755
5719 20 5756 5757
5720 26 5757 5758
5721 6 5758 5759
5722 1 5759 5760
5723 2 5759 5761
5724 29 5756 5762
5725 29 5756 5763
5726 34 5757 5764
5727 27 5761 5765
5728 27 5761 5766
5729 27 5761 5767
5730 20 5768 5769
5731 26 5769 5770
5732 6 5770 5771
5733 1 5771 5772
5734 2 5771 5773
5735 29 5768 5774
5736 29 5768 5775
5737 34 5769 5776
5738 27 5773 5777
5739 27 5773 5778
5740 27 5773 5779
5741 20 5780 5781
5742 26 5781 5782
5743 6 5782 5783
5744 1 5783 5784
5745 2 5783 5785
5746 29 5780 5786
5747 29 5780 5787
5748 34 5781 5788
5749 27 5785 5789
5750 27 5785 5790
5751 27 5785 5791
5752 20 5792 5793
5753 26 5793 5794
5754 6 5794 5795
5755 1 5795 5796
5756 2 5795 5797
5757 29 5792 5798
5758 29 5792 5799
5759 34 5793 5800
5760 27 5797 5801
5761 27 5797 5802
5762 27 5797 5803
5763 20 5804 5805
5764 26 5805 5806
5765 6 5806 5807
5766 1 5807 5808
5767 2 5807 5809
5768 29 5804 5810
5769 29 5804 5811
5770 34 5805 5812
5771 27 5809 5813
5772 27 5809 5814
5773 27 5809 5815
5774 20 5816 5817
5775 26 5817 5818
5776 6 5818 5819
5777 1 5819 5820
5778 2 5819 5821
5779 29 5816 5822
5780 29 5816 5823
5781 34 5817 5824
5782 27 5821 5825
5783 27 5821 5826
5784 27 5821 5827
5785 20 5828 5829
5786 26 5829 5830
5787 6 5830 5831
5788 1 5831 5832
5789 2 5831 5833
5790 29 5828 5834
5791 29 5828 5835
5792 34 5829 5836
5793 27 5833 5837
5794 27 5833 5838
5795 27 5833 5839
5796 20 5840 5841
5797 26 5841 5842
5798 6 5842 5843
5799 1 5843 5844
5800 2 5843 5845
5801 29 5840 5846
5802 29 5840 5847
5803 34 5841 5848
5804 27 5845 5849
5805 27 5845 5850
5806 27 5845 5851
5807 20 5852 5853
5808 26 5853 5854
5809 6 5854 5855
5810 1 5855 5856
5811 2 5855 5857
5812 29 5852 5858
5813 29 5852 5859
5814 34 5853 5860
5815 27 5857 5861
5816 27 5857 5862
5817 27 5857 5863
5818 20 5864 5865
5819 26 5865 5866
5820 6 5866 5867
5821 1 5867 5868
5822 2 5867 5869
5823 29 5864 5870
5824 29 5864 5871
5825 34 5865 5872
5826 27 5869 5873
5827 27 5869 5874
5828 27 5869 5875
5829 20 5876 5877
5830 26 5877 5878
5831 6 5878 5879
5832 1 5879 5880
5833 2 5879 5881
5834 29 5876 5882
5835 29 5876 5883
5836 34 5877 5884
5837 27 5881 5885
5838 27 5881 5886
5839 27 5881 5887
5840 20 5888 5889
5841 26 5889 5890
5842 6 5890 5891
5843 1 5891 5892
5844 2 5891 5893
5845 29 5888 5894
5846 29 5888 5895
5847 34 5889 5896
5848 27 5893 5897
5849 27 5893 5898
5850 27 5893 5899
5851 20 5900 5901
5852 26 5901 5902
5853 6 5902 5903
5854 1 5903 5904
5855 2 5903 5905
5856 29 5900 5906
5857 29 5900 5907
5858 34 5901 5908
5859 27 5905 5909
5860 27 5905 5910
5861 27 5905 5911
5862 20 5912 5913
5863 26 5913 5914
5864 6 5914 5915
5865 1 5915 5916
5866 2 5915 5917
5867 29 5912 5918
5868 29 5912 5919
5869 34 5913 5920
5870 27 5917 5921
5871 27 5917 5922
5872 27 5917 5923
5873 20 5924 5925
5874 26 5925 5926
5875 6 5926 5927
5876 1 5927 5928
5877 2 5927 5929
5878 29 5924 5930
5879 29 5924 5931
5880 34 5925 5932
5881 27 5929 5933
5882 27 5929 5934
5883 27 5929 5935
5884 20 5936 5937
5885 26 5937 5938
5886 6 5938 5939
5887 1 5939 5940
5888 2 5939 5941
5889 29 5936 5942
5890 29 5936 5943
5891 34 5937 5944
5892 27 5941 5945
5893 27 5941 5946
5894 27 5941 5947
5895 20 5948 5949
5896 26 5949 5950
5897 6 5950 5951
5898 1 5951 5952
5899 2 5951 5953
5900 29 5948 5954
5901 29 5948 5955
5902 34 5949 5956
5903 27 5953 5957
5904 27 5953 5958
5905 27 5953 5959
5906 20 5960 5961
5907 26 5961 5962
5908 6 5962 5963
5909 1 5963 5964
5910 2 5963 5965
5911 29 5960 5966
5912 29 5960 5967
5913 34 5961 5968
5914 27 5965 5969
5915 27 5965 5970
5916 27 5965 5971
5917 20 5972 5973
5918 26 5973 5974
5919 6 5974 5975
5920 1 5975 5976
5921 2 5975 5977
5922 29 5972 5978
5923 29 5972 5979
5924 34 5973 5980
5925 27 5977 5981
5926 27 5977 5982
5927 27 5977 5983
5928 20 5984 5985
5929 26 5985 5986
5930 6 5986 5987
5931 1 5987 5988
5932 2 5987 5989
5933 29 5984 5990
5934 29 5984 5991
5935 34 5985 5992
5936 27 5989 5993
5937 27 5989 5994
5938 27 5989 5995
5939 20 5996 5997
5940 26 5997 5998
5941 6 5998 5999
5942 1 5999 6000
5943 2 5999 6001
5944 29 5996 6002
5945 29 5996 6003
5946 34 5997 6004
5947 27 6001 6005
5948 27 6001 6006
5949 27 6001 6007
5950 16 6008 6009
5951 25 6009 6010
5952 6 6010 6011
5953 1 6011 6012
5954 2 6011 6013
5955 29 6008 6014
5956 29 6008 6015
5957 32 6009 6016
5958 32 6009 6017
5959 27 6013 6018
5960 27 6013 6019
5961 27 6013 6020
5962 20 5420 5432
5963 20 5433 5444
5964 20 5445 5456
5965 20 5457 5468
5966 20 5469 5480
5967 20 5481 5492
5968 20 5493 5504
5969 20 5505 5516
5970 20 5517 5528
5971 20 5529 5540
5972 20 5541 5552
5973 20 5553 5564
5974 20 5565 5576
5975 20 5577 5588
5976 20 5589 5600
5977 20 5601 5612
5978 20 5613 5624
5979 20 5625 5636
5980 20 5637 5648
5981 20 5649 5660
5982 20 5661 5672
5983 20 5673 5684
5984 20 5685 5696
5985 20 5697 5708
5986 20 5709 5720
5987 20 5721 5732
5988 20 5733 5744
5989 20 5745 5756
5990 20 5757 5768
5991 20 5769 5780
5992 20 5781 5792
5993 20 5793 5804
5994 20 5805 5816
5995 20 5817 5828
5996 20 5829 5840
5997 20 5841 5852
5998 20 5853 5864
5999 20 5865 5876
6000 20 5877 5888
6001 20 5889 5900
6002 20 5901 5912
6003 20 5913 5924
6004 20 5925 5936
6005 20 5937 5948
6006 20 5949 5960
6007 20 5961 5972
6008 20 5973 5984
6009 20 5985 5996
6010 20 5997 6008

Angles

1 1 5 4 6
2 1 18 17 19
3 1 30 29 31
4 1 42 41 43
5 1 54 53 55
6 1 66 65 67
7 1 78 77 79
8 1 90 89 91
9 1 102 101 103
10 1 114 113 115
11 1 126 125 127
12 1 138 137 139
13 1 150 149 151
14 1 162 161 163
15 1 174 173 175
16 1 186 185 187
17 1 198 197 199
18 1 210 209 211
19 1 222 221 223
20 1 234 233 235
21 1 246 245 247
22 1 258 257 259
23 1 270 269 271
24 1 282 281 283
25 1 294 293 295
26 1 306 305 307
27 1 318 317 319
28 1 330 329 331
29 1 342 341 343
30 1 354 353 355
31 1 366 365 367
32 1 378 377 379
33 1 390 389 391
34 1 402 401 403
35 1 414 413 415
36 1 426 425 427
37 1 438 437 439
38 1 450 449 451
39 1 462 461 463
40 1 474 473 475
41 1 486 485 487
42 1 498 497 499
43 1 510 509 511
44 1 522 521 523
45 1 534 533 535
46 1 546 545 547
47 1 558 557 559
48 1 570 569 571
49 1 582 581 583
50 1 594 593 595
51 1 607 606 608
52 1 620 619 621
53 1 632 631 633
54 1 644 643 645
55 1 656 655 657
56 1 668 667 669
57 1 680 679 681
58 1 692 691 693
59 1 704 703 705
60 1 716 715 717
61 1 728 727 729
62 1 740 739 741
63 1 752 751 753
64 1 764 763 765
65 1 776 775 777
66 1 788 787 789
67 1 800 799 801
68 1 812 811 813
69 1 824 823 825
70 1 836 835 837
71 1 848 847 849
72 1 860 859 861
73 1 872 871 873
74 1 884 883 885
75 1 896 895 897
76 1 908 907 909
77 1 920 919 921
78 1 932 931 933
79 1 944 943 945
80 1 956 955 957
81 1 968 967 969
82 1 980 979 981
83 1 992 991 993
84 1 1004 1003 1005
85 1 1016 1015 1017
86 1 1028 1027 1029
87 1 1040 1039 1041
88 1 1052 1051 1053
89 1 1064 1063 1065
90 1 1076 1075 1077
91 1 1088 1087 1089
92 1 1100 1099 1101
93 1 1112 1111 1113
94 1 1124 1123 1125
95 1 1136 1135 1137
96 1 1148 1147 1149
97 1 1160 1159 1161
98 1 1172 1171 1173
99 1 1184 1183 1185
100 1 1196 1195 1197
101 1 1209 1208 1210
102 1 1222 1221 1223
103 1 1234 1233 1235
104 1 1246 1245 1247
105 1 1258 1257 1259
106 1 1270 1269 1271
107 1 1282 1281 1283
108 1 1294 1293 1295
109 1 1306 1305 1307
110 1 1318 1317 1319
111 1 1330 1329 1331
112 1 1342 1341 1343
113 1 1354 1353 1355
114 1 1366 1365 1367
115 1 1378 1377 1379
116 1 1390 1389 1391
117 1 1402 1401 1403
118 1 1414 1413 1415
119 1 1426 1425 1427
120 1 1438 1437 1439
121 1 1450 1449 1451
122 1 1462 1461 1463
123 1 1474 1473 1475
124 1 1486 1485 1487
125 1 1498 1497 1499
126 1 1510 1509 1511
127 1 1522 1521 1523
128 1 1534 1533 1535
129 1 1546 1545 1547
130 1 1558 1557 1559
131 1 1570 1569 1571
132 1 1582 1581 1583
133 1 1594 1593 1595
134 1 1606 1605 1607
135 1 1618 1617 1619
136 1 1630 1629 1631
137 1 1642 1641 1643
138 1 1654 1653 1655
139 1 1666 1665 1667
140 1 1678 1677 1679
141 1 1690 1689 1691
142 1 1702 1701 1703
143 1 1714 1713 1715
144 1 1726 1725 1727
145 1 1738 1737 1739
146 1 1750 1749 1751
147 1 1762 1761 1763
148 1 1774 1773 1775
149 1 1786 1785 1787
150 1 1798 1797 1799
151 1 1811 1810 1812
152 1 1824 1823 1825
153 1 1836 1835 1837
154 1 1848 1847 1849
155 1 1860 1859 1861
156 1 1872 1871 1873
157 1 1884 1883 1885
158 1 1896 1895 1897
159 1 1908 1907 1909
160 1 1920 1919 1921
161 1 1932 1931 1933
162 1 1944 1943 1945
163 1 1956 1955 1957
164 1 1968 1967 1969
165 1 1980 1979 1981
166 1 1992 1991 1993
167 1 2004 2003 2005
168 1 2016 2015 2017
169 1 2028 2027 2029
170 1 2040 2039 2041
171 1 2052 2051 2053
172 1 2064 2063 2065
173 1 2076 2075 2077
174 1 2088 2087 2089
175 1 2100 2099 2101
176 1 2112 2111 2113
177 1 2124 2123 2125
178 1 2136 2135 2137
179 1 2148 2147 2149
180 1 2160 2159 2161
181 1 2172 2171 2173
182 1 2184 2183 2185
183 1 2196 2195 2197
184 1 2208 2207 2209
185 1 2220 2219 2221
186 1 2232 2231 2233
187 1 2244 2243 2245
188 1 2256 2255 2257
189 1 2268 2267 2269
190 1 2280 2279 2281
191 1 2292 2291 2293
192 1 2304 2303 2305
193 1 2316 2315 2317
194 1 2328 2327 2329
195 1 2340 2339 2341
196 1 2352 2351 2353
197 1 2364 2363 2365
198 1 2376 2375 2377
199 1 2388 2387 2389
200 1 2400 2399 2401
201 1 2413 2412 2414
202 1 2426 2425 2427
203 1 2438 2437 2439
204 1 2450 2449 2451
205 1 2462 2461 2463
206 1 2474 2473 2475
207 1 2486 2485 2487
208 1 2498 2497 2499
209 1 2510 2509 2511
210 1 2522 2521 2523
211 1 2534 2533 2535
212 1 2546 2545 2547
213 1 2558 2557 2559
214 1 2570 2569 2571
215 1 2582 2581 2583
216 1 2594 2593 2595
217 1 2606 2605 2607
218 1 2618 2617 2619
219 1 2630 2629 2631
220 1 2642 2641 2643
221 1 2654 2653 2655
222 1 2666 2665 2667
223 1 2678 2677 2679
224 1 2690 2689 2691
225 1 2702 2701 2703
226 1 2714 2713 2715
227 1 2726 2725 2727
228 1 2738 2737 2739
229 1 2750 2749 2751
230 1 2762 2761 2763
231 1 2774 2773 2775
232 1 2786 2785 2787
233 1 2798 2797 2799
234 1 2810 2809 2811
235 1 2822 2821 2823
236 1 2834 2833 2835
237 1 2846 2845 2847
238 1 2858 2857 2859
239 1 2870 2869 2871
240 1 2882 2881 2883
241 1 2894 2893 2895
242 1 2906 2905 2907
243 1 2918 2917 2919
244 1 2930 2929 2931
245 1 2942 2941 2943
246 1 2954 2953 2955
247 1 2966 2965 2967
248 1 2978 2977 2979
249 1 2990 2989 2991
250 1 3002 3001 3003
251 1 3015 3014 3016
252 1 3028 3027 3029
253 1 3040 3039 3041
254 1 3052 3051 3053
255 1 3064 3063 3065
256 1 3076 3075 3077
257 1 3088 3087 3089
258 1 3100 3099 3101
259 1 3112 3111 3113
260 1 3124 3123 3125
261 1 3136 3135 3137
262 1 3148 3147 3149
263 1 3160 3159 3161
264 1 3172 3171 3173
265 1 3184 3183 3185
266 1 3196 3195 3197
267 1 3208 3207 3209
268 1 3220 3219 3221
269 1 3232 3231 3233
270 1 3244 3243 3245
271 1 3256 3255 3257
272 1 3268 3267 3269
273 1 3280 3279 3281
274 1 3292 3291 3293
275 1 3304 3303 3305
276 1 3316 3315 3317
277 1 3328 3327 3329
278 1 3340 3339 3341
279 1 3352 3351 3353
280 1 3364 3363 3365
281 1 3376 3375 3377
282 1 3388 3387 3389
283 1 3400 3399 3401
284 1 3412 3411 3413
285 1 3424 3423 3425
286 1 3436 3435 3437
287 1 3448 3447 3449
288 1 3460 3459 3461
289 1 3472 3471 3473
290 1 3484 3483 3485
291 1 3496 3495 3497
292 1 3508 3507 3509
293 1 3520 3519 3521
294 1 3532 3531 3533
295 1 3544 3543 3545
296 1 3556 3555 3557
297 1 3568 3567 3569
298 1 3580 3579 3581
299 1 3592 3591 3593
300 1 3604 3603 3605
301 1 3617 3616 3618
302 1 3630 3629 3631
303 1 3642 3641 3643
304 1 3654 3653 3655
305 1 3666 3665 3667
306 1 3678 3677 3679
307 1 3690 3689 3691
308 1 3702 3701 3703
309 1 3714 3713 3715
310 1 3726 3725 3727
311 1 3738 3737 3739
312 1 3750 3749 3751
313 1 3762 3761 3763
314 1 3774 3773 3775
315 1 3786 3785 3787
316 1 3798 3797 3799
317 1 3810 3809 3811
318 1 3822 3821 3823
319 1 3834 3833 3835
320 1 3846 3845 3847
321 1 3858 3857 3859
322 1 3870 3869 3871
323 1 3882 3881 3883
324 1 3894 3893 3895
325 1 3906 3905 3907
326 1 3918 3917 3919
327 1 3930 3929 3931
328 1 3942 3941 3943
329 1 3954 3953 3955
330 1 3966 3965 3967
331 1 3978 3977 3979
332 1 3990 3989 3991
333 1 4002 4001 4003
334 1 4014 4013 4015
335 1 4026 4025 4027
336 1 4038 4037 4039
337 1 4050 4049 4051
338 1 4062 4061 4063
339 1 4074 4073 4075
340 1 4086 4085 4087
341 1 4098 4097 4099
342 1 4110 4109 4111
343 1 4122 4121 4123
344 1 4134 4133 4135
345 1 4146 4145 4147
346 1 4158 4157 4159
347 1 4170 4169 4171
348 1 4182 4181 4183
349 1 4194 4193 4195
350 1 4206 4205 4207
351 1 4219 4218 4220
352 1 4232 4231 4233
353 1 4244 4243 4245
354 1 4256 4255 4257
355 1 4268 4267 4269
356 1 4280 4279 4281
357 1 4292 4291 4293
358 1 4304 4303 4305
359 1 4316 4315 4317
360 1 4328 4327 4329
361 1 4340 4339 4341
362 1 4352 4351 4353
363 1 4364 4363 4365
364 1 4376 4375 4377
365 1 4388 4387 4389
366 1 4400 4399 4401
367 1 4412 4411 4413
368 1 4424 4423 4425
369 1 4436 4435 4437
370 1 4448 4447 4449
371 1 4460 4459 4461
372 1 4472 4471 4473
373 1 4484 4483 4485
374 1 4496 4495 4497
375 1 4508 4507 4509
376 1 4520 4519 4521
377 1 4532 4531 4533
378 1 4544 4543 4545
379 1 4556 4555 4557
380 1 4568 4567 4569
381 1 4580 4579 4581
382 1 4592 4591 4593
383 1 4604 4603 4605
384 1 4616 4615 4617
385 1 4628 4627 4629
386 1 4640 4639 4641
387 1 4652 4651 4653
388 1 4664 4663 4665
389 1 4676 4675 4677
390 1 4688 4687 4689
391 1 4700 4699 4701
392 1 4712 4711 4713
393 1 4724 4723 4725
394 1 4736 4735 4737
395 1 4748 4747 4749
396 1 4760 4759 4761
397 1 4772 4771 4773
398 1 4784 4783 4785
399 1 4796 4795 4797
400 1 4808 4807 4809
401 1 4821 4820 4822
402 1 4834 4833 4835
403 1 4846 4845 4847
404 1 4858 4857 4859
405 1 4870 4869 4871
406 1 4882 4881 4883
407 1 4894 4893 4895
408 1 4906 4905 4907
409 1 4918 4917 4919
410 1 4930 4929 4931
411 1 4942 4941 4943
412 1 4954 4953 4955
413 1 4966 4965 4967
414 1 4978 4977 4979
415 1 4990 4989 4991
416 1 5002 5001 5003
417 1 5014 5013 5015
418 1 5026 5025 5027
419 1 5038 5037 5039
420 1 5050 5049 5051
421 1 5062 5061 5063
422 1 5074 5073 5075
423 1 5086 5085 5087
424 1 5098 5097 5099
425 1 5110 5109 5111
426 1 5122 5121 5123
427 1 5134 5133 5135
428 1 5146 5145 5147
429 1 5158 5157 5159
430 1 5170 5169 5171
431 1 5182 5181 5183
432 1 5194 5193 5195
433 1 5206 5205 5207
434 1 5218 5217 5219
435 1 5230 5229 5231
436 1 5242 5241 5243
437 1 5254 5253 5255
438 1 5266 5265 5267
439 1 5278 5277 5279
440 1 5290 5289 5291
441 1 5302 5301 5303
442 1 5314 5313 5315
443 1 5326 5325 5327
444 1 5338 5337 5339
445 1 5350 5349 5351
446 1 5362 5361 5363
447 1 5374 5373 5375
448 1 5386 5385 5387
449 1 5398 5397 5399
450 1 5410 5409 5411
451 1 5423 5422 5424
452 1 5436 5435 5437
453 1 5448 5447 5449
454 1 5460 5459 5461
455 1 5472 5471 5473
456 1 5484 5483 5485
457 1 5496 5495 5497
458 1 5508 5507 5509
459 1 5520 5519 5521
460 1 5532 5531 5533
461 1 5544 5543 5545
462 1 5556 5555 5557
463 1 5568 5567 5569
464 1 5580 5579 5581
465 1 5592 5591 5593
466 1 5604 5603 5605
467 1 5616 5615 5617
468 1 5628 5627 5629
469 1 5640 5639 5641
470 1 5652 5651 5653
471 1 5664 5663 5665
472 1 5676 5675 5677
473 1 5688 5687 5689
474 1 5700 5699 5701
475 1 5712 5711 5713
476 1 5724 5723 5725
477 1 5736 5735 5737
478 1 5748 5747 5749
479 1 5760 5759 5761
480 1 5772 5771 5773
481 1 5784 5783 5785
482 1 5796 5795 5797
483 1 5808 5807 5809
484 1 5820 5819 5821
485 1 5832 5831 5833
486 1 5844 5843 5845
487 1 5856 5855 5857
488 1 5868 5867 5869
489 1 5880 5879 5881
490 1 5892 5891 5893
491 1 5904 5903 5905
492 1 5916 5915 5917
493 1 5928 5927 5929
494 1 5940 5939 5941
495 1 5952 5951 5953
496 1 5964 5963 5965
497 1 5976 5975 5977
498 1 5988 5987 5989
499 1 6000 5999 6001
500 1 6012 6011 6013
501 5 3 4 6
502 5 16 17 19
503 5 28 29 31
504 5 40 41 43
505 5 52 53 55
506 5 64 65 67
507 5 76 77 79
508 5 88 89 91
509 5 100 101 103
510 5 112 113 115
511 5 124 125 127
512 5 136 137 139
513 5 148 149 151
514 5 160 161 163
515 5 172 173 175
516 5 184 185 187
517 5 196 197 199
518 5 208 209 211
519 5 220 221 223
520 5 232 233 235
521 5 244 245 247
522 5 256 257 259
523 5 268 269 271
524 5 280 281 283
525 5 292 293 295
526 5 304 305 307
527 5 316 317 319
528 5 328 329 331
529 5 340 341 343
530 5 352 353 355
531 5 364 365 367
532 5 376 377 379
533 5 388 389 391
534 5 400 401 403
535 5 412 413 415
536 5 424 425 427
537 5 436 437 439
538 5 448 449 451
539 5 460 461 463
540 5 472 473 475
541 5 484 485 487
542 5 496 497 499
543 5 508 509 511
544 5 520 521 523
545 5 532 533 535
546 5 544 545 547
547 5 556 557 559
548 5 568 569 571
549 5 580 581 583
550 5 592 593 595
551 5 605 606 608
552 5 618 619 621
553 5 630 631 633
554 5 642 643 645
555 5 654 655 657
556 5 666 667 669
557 5 678 679 681
558 5 690 691 693
559 5 702 703 705
560 5 714 715 717
561 5 726 727 729
562 5 738 739 741
563 5 750 751 753
564 5 762 763 765
565 5 774 775 777
566 5 786 787 789
567 5 798 799 801
568 5 810 811 813
569 5 822 823 825
570 5 834 835 837
571 5 846 847 849
572 5 858 859 861
573 5 870 871 873
574 5 882 883 885
575 5 894 895 897
576 5 906 907 909
577 5 918 919 921
578 5 930 931 933
579 5 942 943 945
580 5 954 955 957
581 5 966 967 969
582 5 978 979 981
583 5 990 991 993
584 5 1002 1003 1005
585 5 1014 1015 1017
586 5 1026 1027 1029
587 5 1038 1039 1041
588 5 1050 1051 1053
589 5 1062 1063 1065
590 5 1074 1075 1077
591 5 1086 1087 1089
592 5 1098 1099 1101
593 5 1110 1111 1113
594 5 1122 1123 1125
595 5 1134 1135 1137
596 5 1146 1147 1149
597 5 1158 1159 1161
598 5 1170 1171 1173
599 5 1182 1183 1185
600 5 1194 1195 1197
601 5 1207 1208 1210
602 5 1220 1221 1223
603 5 1232 1233 1235
604 5 1244 1245 1247
605 5 1256 1257 1259
606 5 1268 1269 1271
607 5 1280 1281 1283
608 5 1292 1293 1295
609 5 1304 1305 1307
610 5 1316 1317 1319
611 5 1328 1329 1331
612 5 1340 1341 1343
613 5 1352 1353 1355
614 5 1364 1365 1367
615 5 1376 1377 1379
616 5 1388 1389 1391
617 5 1400 1401 1403
618 5 1412 1413 1415
619 5 1424 1425 1427
620 5 1436 1437 1439
621 5 1448 1449 1451
622 5 1460 1461 1463
623 5 1472 1473 1475
624 5 1484 1485 1487
625 5 1496 1497 1499
626 5 1508 1509 1511
627 5 1520 1521 1523
628 5 1532 1533 1535
629 5 1544 1545 1547
630 5 1556 1557 1559
631 5 1568 1569 1571
632 5 1580 1581 1583
633 5 1592 1593 1595
634 5 1604 1605 1607
635 5 1616 1617 1619
636 5 1628 1629 1631
637 5 1640 1641 1643
638 5 1652 1653 1655
639 5 1664 1665 1667
640 5 1676 1677 1679
641 5 1688 1689 1691
642 5 1700 1701 1703
643 5 1712 1713 1715
644 5 1724 1725 1727
645 5 1736 1737 1739
646 5 1748 1749 1751
647 5 1760 1761 1763
648 5 1772 1773 1775
649 5 1784 1785 1787
650 5 1796 1797 1799
651 5 1809 1810 1812
652 5 1822 1823 1825
653 5 1834 1835 1837
654 5 1846 1847 1849
655 5 1858 1859 1861
656 5 1870 1871 1873
657 5 1882 1883 1885
658 5 1894 1895 1897
659 5 1906 1907 1909
660 5 1918 1919 1921
661 5 1930 1931 1933
662 5 1942 1943 1945
663 5 1954 1955 1957
664 5 1966 1967 1969
665 5 1978 1979 1981
666 5 1990 1991 1993
667 5 2002 2003 2005
668 5 2014 2015 2017
669 5 2026 2027 2029
670 5 2038 2039 2041
671 5 2050 2051 2053
672 5 2062 2063 2065
673 5 2074 2075 2077
674 5 2086 2087 2089
675 5 2098 2099 2101
676 5 2110 2111 2113
677 5 2122 2123 2125
678 5 2134 2135 2137
679 5 2146 2147 2149
680 5 2158 2159 2161
681 5 2170 2171 2173
682 5 2182 2183 2185
683 5 2194 2195 2197
684 5 2206 2207 2209
685 5 2218 2219 2221
686 5 2230 2231 2233
687 5 2242 2243 2245
688 5 2254 2255 2257
689 5 2266 2267 2269
690 5 2278 2279 2281
691 5 2290 2291 2293
692 5 2302 2303 2305
693 5 2314 2315 2317
694 5 2326 2327 2329
695 5 2338 2339 2341
696 5 2350 2351 2353
697 5 2362 2363 2365
698 5 2374 2375 2377
699 5 2386 2387 2389
700 5 2398 2399 2401
701 5 2411 2412 2414
702 5 2424 2425 2427
703 5 2436 2437 2439
704 5 2448 2449 2451
705 5 2460 2461 2463
706 5 2472 2473 2475
707 5 2484 2485 2487
708 5 2496 2497 2499
709 5 2508 2509 2511
710 5 2520 2521 2523
711 5 2532 2533 2535
712 5 2544 2545 2547
713 5 2556 2557 2559
714 5 2568 2569 2571
715 5 2580 2581 2583
716 5 2592 2593 2595
717 5 2604 2605 2607
718 5 2616 2617 2619
719 5 2628 2629 2631
720 5 2640 2641 2643
721 5 2652 2653 2655
722 5 2664 2665 2667
723 5 2676 2677 2679
724 5 2688 2689 2691
725 5 2700 2701 2703
726 5 2712 2713 2715
727 5 2724 2725 2727
728 5 2736 2737 2739
729 5 2748 2749 2751
730 5 2760 2761 2763
731 5 2772 2773 2775
732 5 2784 2785 2787
733 5 2796 2797 2799
734 5 2808 2809 2811
735 5 2820 2821 2823
736 5 2832 2833 2835
737 5 2844 2845 2847
738 5 2856 2857 2859
739 5 2868 2869 2871
740 5 2880 2881 2883
741 5 2892 2893 2895
742 5 2904 2905 2907
743 5 2916 2917 2919
744 5 2928 2929 2931
745 5 2940 2941 2943
746 5 2952 2953 2955
747 5 2964 2965 2967
748 5 2976 2977 2979
749 5 2988 2989 2991
750 5 3000 3001 3003
751 5 3013 3014 3016
752 5 3026 3027 3029
753 5 3038 3039 3041
754 5 3050 3051 3053
755 5 3062 3063 3065
756 5 3074 3075 3077
757 5 3086 3087 3089
758 5 3098 3099 3101
759 5 3110 3111 3113
760 5 3122 3123 3125
761 5 3134 3135 3137
762 5 3146 3147 3149
763 5 3158 3159 3161
764 5 3170 3171 3173
765 5 3182 3183 3185
766 5 3194 3195 3197
767 5 3206 3207 3209
768 5 3218 3219 3221
769 5 3230 3231 3233
770 5 3242 3243 3245
771 5 3254 3255 3257
772 5 3266 3267 3269
773 5 3278 3279 3281
774 5 3290 3291 3293
775 5 3302 3303 3305
776 5 3314 3315 3317
777 5 3326 3327 3329
778 5 3338 3339 3341
779 5 3350 3351 3353
780 5 3362 3363 3365
781 5 3374 3375 3377
782 5 3386 3387 3389
783 5 3398 3399 3401
784 5 3410 3411 3413
785 5 3422 3423 3425
786 5 3434 3435 3437
787 5 3446 3447 3449
788 5 3458 3459 3461
789 5 3470 3471 3473
790 5 3482 3483 3485
791 5 3494 3495 3497
792 5 3506 3507 3509
793 5 3518 3519 3521
794 5 3530 3531 3533
795 5 3542 3543 3545
796 5 3554 3555 3557
797 5 3566 3567 3569
798 5 3578 3579 3581
799 5 3590 3591 3593
800 5 3602 3603 3605
801 5 3615 3616 3618
802 5 3628 3629 3631
803 5 3640 3641 3643
804 5 3652 3653 3655
805 5 3664 3665 3667
806 5 3676 3677 3679
807 5 3688 3689 3691
808 5 3700 3701 3703
809 5 3712 3713 3715
810 5 3724 3725 3727
811 5 3736 3737 3739
812 5 3748 3749 3751
813 5 3760 3761 3763
814 5 3772 3773 3775
815 5 3784 3785 3787
816 5 3796 3797 3799
817 5 3808 3809 3811
818 5 3820 3821 3823
819 5 3832 3833 3835
820 5 3844 3845 3847
821 5 3856 3857 3859
822 5 3868 3869 3871
823 5 3880 3881 3883
824 5 3892 3893 3895
825 5 3904 3905 3907
826 5 3916 3917 3919
827 5 3928 3929 3931
828 5 3940 3941 3943
829 5 3952 3953 3955
830 5 3964 3965 3967
831 5 3976 3977 3979
832 5 3988 3989 3991
833 5 4000 4001 4003
834 5 4012 4013 4015
835 5 4024 4025 4027
836 5 4036 4037 4039
837 5 4048 4049 4051
838 5 4060 4061 4063
839 5 4072 4073 4075
840 5 4084 4085 4087
841 5 4096 4097 4099
842 5 4108 4109 4111
843 5 4120 4121 4123
844 5 4132 4133 4135
845 5 4144 4145 4147
846 5 4156 4157 4159
847 5 4168 4169 4171
848 5 4180 4181 4183
849 5 4192 4193 4195
850 5 4204 4205 4207
851 5 4217 4218 4220
852 5 4230 4231 4233
853 5 4242 4243 4245
854 5 4254 4255 4257
855 5 4266 4267 4269
856 5 4278 4279 4281
857 5 4290 4291 4293
858 5 4302 4303 4305
859 5 4314 4315 4317
860 5 4326 4327 4329
861 5 4338 4339 4341
862 5 4350 4351 4353
863 5 4362 4363 4365
864 5 4374 4375 4377
865 5 4386 4387 4389
866 5 4398 4399 4401
867 5 4410 4411 4413
868 5 4422 4423 4425
869 5 4434 4435 4437
870 5 4446 4447 4449
871 5 4458 4459 4461
872 5 4470 4471 4473
873 5 4482 4483 4485
874 5 4494 4495 4497
875 5 4506 4507 4509
876 5 4518 4519 4521
877 5 4530 4531 4533
878 5 4542 4543 4545
879 5 4554 4555 4557
880 5 4566 4567 4569
881 5 4578 4579 4581
882 5 4590 4591 4593
883 5 4602 4603 4605
884 5 4614 4615 4617
885 5 4626 4627 4629
886 5 4638 4639 4641
887 5 4650 4651 4653
888 5 4662 4663 4665
889 5 4674 4675 4677
890 5 4686 4687 4689
891 5 4698 4699 4701
892 5 4710 4711 4713
893 5 4722 4723 4725
894 5 4734 4735 4737
895 5 4746 4747 4749
896 5 4758 4759 4761
897 5 4770 4771 4773
898 5 4782 4783 4785
899 5 4794 4795 4797
900 5 4806 4807 4809
901 5 4819 4820 4822
902 5 4832 4833 4835
903 5 4844 4845 4847
904 5 4856 4857 4859
905 5 4868 4869 4871
906 5 4880 4881 4883
907 5 4892 4893 4895
908 5 4904 4905 4907
909 5 4916 4917 4919
910 5 4928 4929 4931
911 5 4940 4941 4943
912 5 4952 4953 4955
913 5 4964 4965 4967
914 5 4976 4977 4979
915 5 4988 4989 4991
916 5 5000 5001 5003
917 5 5012 5013 5015
918 5 5024 5025 5027
919 5 5036 5037 5039
920 5 5048 5049 5051
921 5 5060 5061 5063
922 5 5072 5073 5075
923 5 5084 5085 5087
924 5 5096 5097 5099
925 5 5108 5109 5111
926 5 5120 5121 5123
927 5 5132 5133 5135
928 5 5144 5145 5147
929 5 5156 5157 5159
930 5 5168 5169 5171
931 5 5180 5181 5183
932 5 5192 5193 5195
933 5 5204 5205 5207
934 5 5216 5217 5219
935 5 5228 5229 5231
936 5 5240 5241 5243
937 5 5252 5253 5255
938 5 5264 5265 5267
939 5 5276 5277 5279
940 5 5288 5289 5291
941 5 5300 5301 5303
942 5 5312 5313 5315
943 5 5324 5325 5327
944 5 5336 5337 5339
945 5 5348 5349 5351
946 5 5360 5361 5363
947 5 5372 5373 5375
948 5 5384 5385 5387
949 5 5396 5397 5399
950 5 5408 5409 5411
951 5 5421 5422 5424
952 5 5434 5435 5437
953 5 5446 5447 5449
954 5 5458 5459 5461
955 5 5470 5471 5473
956 5 5482 5483 5485
957 5 5494 5495 5497
958 5 5506 5507 5509
959 5 5518 5519 5521
960 5 5530 5531 5533
961 5 5542 5543 5545
962 5 5554 5555 5557
963 5 5566 5567 5569
964 5 5578 5579 5581
965 5 5590 5591 5593
966 5 5602 5603 5605
967 5 5614 5615 5617
968 5 5626 5627 5629
969 5 5638 5639 5641
970 5 5650 5651 5653
971 5 5662 5663 5665
972 5 5674 5675 5677
973 5 5686 5687 5689
974 5 5698 5699 5701
975 5 5710 5711 5713
976 5 5722 5723 5725
977 5 5734 5735 5737
978 5 5746 5747 5749
979 5 5758 5759 5761
980 5 5770 5771 5773
981 5 5782 5783 5785
982 5 5794 5795 5797
983 5 5806 5807 5809
984 5 5818 5819 5821
985 5 5830 5831 5833
986 5 5842 5843 5845
987 5 5854 5855 5857
988 5 5866 5867 5869
989 5 5878 5879 5881
990 5 5890 5891 5893
991 5 5902 5903 5905
992 5 5914 5915 5917
993 5 5926 5927 5929
994 5 5938 5939 5941
995 5 5950 5951 5953
996 5 5962 5963 5965
997 5 5974 5975 5977
998 5 5986 5987 5989
999 5 5998 5999 6001
1000 5 6010 6011 6013
1001 9 3 4 5
1002 9 16 17 18
1003 9 28 29 30
1004 9 40 41 42
1005 9 52 53 54
1006 9 64 65 66
1007 9 76 77 78
1008 9 88 89 90
1009 9 100 101 102
1010 9 112 113 114
1011 9 124 125 126
1012 9 136 137 138
1013 9 148 149 150
1014 9 160 161 162
1015 9 172 173 174
1016 9 184 185 186
1017 9 196 197 198
1018 9 208 209 210
1019 9 220 221 222
1020 9 232 233 234
1021 9 244 245 246
1022 9 256 257 258
1023 9 268 269 270
1024 9 280 281 282
1025 9 292 293 294
1026 9 304 305 306
1027 9 316 317 318
1028 9 328 329 330
1029 9 340 341 342
1030 9 352 353 354
1031 9 364 365 366
1032 9 376 377 378
1033 9 388 389 390
1034 9 400 401 402
1035 9 412 413 414
1036 9 424 425 426
1037 9 436 437 438
1038 9 448 449 450
1039 9 460 461 462
1040 9 472 473 474
1041 9 484 485 486
1042 9 496 497 498
1043 9 508 509 510
1044 9 520 521 522
1045 9 532 533 534
1046 9 544 545 546
1047 9 556 557 558
1048 9 568 569 570
1049 9 580 581 582
1050 9 592 593 594
1051 9 605 606 607
1052 9 618 619 620
1053 9 630 631 632
1054 9 642 643 644
1055 9 654 655 656
1056 9 666 667 668
1057 9 678 679 680
1058 9 690 691 692
1059 9 702 703 704
1060 9 714 715 716
1061 9 726 727 728
1062 9 738 739 740
1063 9 750 751 752
1064 9 762 763 764
1065 9 774 775 776
1066 9 786 787 788
1067 9 798 799 800
1068 9 810 811 812
1069 9 822 823 824
1070 9 834 835 836
1071 9 846 847 848
1072 9 858 859 860
1073 9 870 871 872
1074 9 882 883 884
1075 9 894 895 896
1076 9 906 907 908
1077 9 918 919 920
1078 9 930 931 932
1079 9 942 943 944
1080 9 954 955 956
1081 9 966 967 968
1082 9 978 979 980
1083 9 990 991 992
1084 9 1002 1003 1004
1085 9 1014 1015 1016
1086 9 1026 1027 1028
1087 9 1038 1039 1040
1088 9 1050 1051 1052
1089 9 1062 1063 1064
1090 9 1074 1075 1076
1091 9 1086 1087 1088
1092 9 1098 1099 1100
1093 9 1110 1111 1112
1094 9 1122 1123 1124
1095 9 1134 1135 1136
1096 9 1146 1147 1148
1097 9 1158 1159 1160
1098 9 1170 1171 1172
1099 9 1182 1183 1184
1100 9 1194 1195 1196
1101 9 1207 1208 1209
1102 9 1220 1221 1222
1103 9 1232 1233 1234
1104 9 1244 1245 1246
1105 9 1256 1257 1258
1106 9 1268 1269 1270
1107 9 1280 1281 1282
1108 9 1292 1293 1294
1109 9 1304 1305 1306
1110 9 1316 1317 1318
1111 9 1328 1329 1330
1112 9 1340 1341 1342
1113 9 1352 1353 1354
1114 9 1364 1365 1366
1115 9 1376 1377 1378
1116 9 1388 1389 1390
1117 9 1400 1401 1402
1118 9 1412 1413 1414
1119 9 1424 1425 1426
1120 9 1436 1437 1438
1121 9 1448 1449 1450
1122 9 1460 1461 1462
1123 9 1472 1473 1474
1124 9 1484 1485 1486
1125 9 1496 1497 1498
1126 9 1508 1509 1510
1127 9 1520 1521 1522
1128 9 1532 1533 1534
1129 9 1544 1545 1546
1130 9 1556 1557 1558
1131 9 1568 1569 1570
1132 9 1580 1581 1582
1133 9 1592 1593 1594
1134 9 1604 1605 1606
1135 9 1616 1617 1618
1136 9 1628 1629 1630
1137 9 1640 1641 1642
1138 9 1652 1653 1654
1139 9 1664 1665 1666
1140 9 1676 1677 1678
1141 9 1688 1689 1690
1142 9 1700 1701 1702
1143 9 1712 1713 1714
1144 9 1724 1725 1726
1145 9 1736 1737 1738
1146 9 1748 1749 1750
1147 9 1760 1761 1762
1148 9 1772 1773 1774
1149 9 1784 1785 1786
1150 9 1796 1797 1798
1151 9 1809 1810 1811
1152 9 1822 1823 1824
1153 9 1834 1835 1836
1154 9 1846 1847 1848
1155 9 1858 1859 1860
1156 9 1870 1871 1872
1157 9 1882 1883 1884
1158 9 1894 1895 1896
1159 9 1906 1907 1908
1160 9 1918 1919 1920
1161 9 1930 1931 1932
1162 9 1942 1943 1944
1163 9 1954 1955 1956
1164 9 1966 1967 1968
1165 9 1978 1979 1980
1166 9 1990 1991 1992
1167 9 2002 2003 2004
1168 9 2014 2015 2016
1169 9 2026 2027 2028
1170 9 2038 2039 2040
1171 9 2050 2051 2052
1172 9 2062 2063 2064
1173 9 2074 2075 2076
1174 9 2086 2087 2088
1175 9 2098 2099 2100
1176 9 2110 2111 2112
1177 9 2122 2123 2124
1178 9 2134 2135 2136
1179 9 2146 2147 2148
1180 9 2158 2159 2160
1181 9 2170 2171 2172
1182 9 2182 2183 2184
1183 9 2194 2195 2196
1184 9 2206 2207 2208
1185 9 2218 2219 2220
1186 9 2230 2231 2232
1187 9 2242 2243 2244
1188 9 2254 2255 2256
1189 9 2266 2267 2268
1190 9 2278 2279 2280
1191 9 2290 2291 2292
1192 9 2302 2303 2304
1193 9 2314 2315 2316
1194 9 2326 2327 2328
1195 9 2338 2339 2340
1196 9 2350 2351 2352
1197 9 2362 2363 2364
1198 9 2374 2375 2376
1199 9 2386 2387 2388
1200 9 2398 2399 2400
1201 9 2411 2412 2413
1202 9 2424 2425 2426
1203 9 2436 2437 2438
1204 9 2448 2449 2450
1205 9 2460 2461 2462
1206 9 2472 2473 2474
1207 9 2484 2485 2486
1208 9 2496 2497 2498
1209 9 2508 2509 2510
1210 9 2520 2521 2522
1211 9 2532 2533 2534
1212 9 2544 2545 2546
1213 9 2556 2557 2558
1214 9 2568 2569 2570
1215 9 2580 2581 2582
1216 9 2592 2593 2594
1217 9 2604 2605 2606
1218 9 2616 2617 2618
1219 9 2628 2629 2630
1220 9 2640 2641 2642
1221 9 2652 2653 2654
1222 9 2664 2665 2666
1223 9 2676 2677 2678
1224 9 2688 2689 2690
1225 9 2700 2701 2702
1226 9 2712 2713 2714
1227 9 2724 2725 2726
1228 9 2736 2737 2738
1229 9 2748 2749 2750
1230 9 2760 2761 2762
1231 9 2772 2773 2774
1232 9 2784 2785 2786
1233 9 2796 2797 2798
1234 9 2808 2809 2810
1235 9 2820 2821 2822
1236 9 2832 2833 2834
1237 9 2844 2845 2846
1238 9 2856 2857 2858
1239 9 2868 2869 2870
1240 9 2880 2881 2882
1241 9 2892 2893 2894
1242 9 2904 2905 2906
1243 9 2916 2917 2918
1244 9 2928 2929 2930
1245 9 2940 2941 2942
1246 9 2952 2953 2954
1247 9 2964 2965 2966
1248 9 2976 2977 2978
1249 9 2988 2989 2990
1250 9 3000 3001 3002
1251 9 3013 3014 3015
1252 9 3026 3027 3028
1253 9 3038 3039 3040
1254 9 3050 3051 3052
1255 9 3062 3063 3064
1256 9 3074 3075 3076
1257 9 3086 3087 3088
1258 9 3098 3099 3100
1259 9 3110 3111 3112
1260 9 3122 3123 3124
1261 9 3134 3135 3136
1262 9 3146 3147 3148
1263 9 3158 3159 3160
1264 9 3170 3171 3172
1265 9 3182 3183 3184
1266 9 3194 3195 3196
1267 9 3206 3207 3208
1268 9 3218 3219 3220
1269 9 3230 3231 3232
1270 9 3242 3243 3244
1271 9 3254 3255 3256
1272 9 3266 3267 3268
1273 9 3278 3279 3280
1274 9 3290 3291 3292
1275 9 3302 3303 3304
1276 9 3314 3315 3316
1277 9 3326 3327 3328
1278 9 3338 3339 3340
1279 9 3350 3351 3352
1280 9 3362 3363 3364
1281 9 3374 3375 3376
1282 9 3386 3387 3388
1283 9 3398 3399 3400
1284 9 3410 3411 3412
1285 9 3422 3423 3424
1286 9 3434 3435 3436
1287 9 3446 3447 3448
1288 9 3458 3459 3460
1289 9 3470 3471 3472
1290 9 3482 3483 3484
1291 9 3494 3495 3496
1292 9 3506 3507 3508
1293 9 3518 3519 3520
1294 9 3530 3531 3532
1295 9 3542 3543 3544
1296 9 3554 3555 3556
1297 9 3566 3567 3568
1298 9 3578 3579 3580
1299 9 3590 3591 3592
1300 9 3602 3603 3604
1301 9 3615 3616 3617
1302 9 3628 3629 3630
1303 9 3640 3641 3642
1304 9 3652 3653 3654
1305 9 3664 3665 3666
1306 9 3676 3677 3678
1307 9 3688 3689 3690
1308 9 3700 3701 3702
1309 9 3712 3713 3714
1310 9 3724 3725 3726
1311 9 3736 3737 3738
1312 9 3748 3749 3750
1313 9 3760 3761 3762
1314 9 3772 3773 3774
1315 9 3784 3785 3786
1316 9 3796 3797 3798
1317 9 3808 3809 3810
1318 9 3820 3821 3822
1319 9 3832 3833 3834
1320 9 3844 3845 3846
1321 9 3856 3857 3858
1322 9 3868 3869 3870
1323 9 3880 3881 3882
1324 9 3892 3893 3894
1325 9 3904 3905 3906
1326 9 3916 3917 3918
1327 9 3928 3929 3930
1328 9 3940 3941 3942
1329 9 3952 3953 3954
1330 9 3964 3965 3966
1331 9 3976 3977 3978
1332 9 3988 3989 3990
1333 9 4000 4001 4002
1334 9 4012 4013 4014
1335 9 4024 4025 4026
1336 9 4036 4037 4038
1337 9 4048 4049 4050
1338 9 4060 4061 4062
1339 9 4072 4073 4074
1340 9 4084 4085 4086
1341 9 4096 4097 4098
1342 9 4108 4109 4110
1343 9 4120 4121 4122
1344 9 4132 4133 4134
1345 9 4144 4145 4146
1346 9 4156 4157 4158
1347 9 4168 4169 4170
1348 9 4180 4181 4182
1349 9 4192 4193 4194
1350 9 4204 4205 4206
1351 9 4217 4218 4219
1352 9 4230 4231 4232
1353 9 4242 4243 4244
1354 9 4254 4255 4256
1355 9 4266 4267 4268
1356 9 4278 4279 4280
1357 9 4290 4291 4292
1358 9 4302 4303 4304
1359 9 4314 4315 4316
1360 9 4326 4327 4328
1361 9 4338 4339 4340
1362 9 4350 4351 4352
1363 9 4362 4363 4364
1364 9 4374 4375 4376
1365 9 4386 4387 4388
1366 9 4398 4399 4400
1367 9 4410 4411 4412
1368 9 4422 4423 4424
1369 9 4434 4435 4436
1370 9 4446 4447 4448
1371 9 4458 4459 4460
1372 9 4470 4471 4472
1373 9 4482 4483 4484
1374 9 4494 4495 4496
1375 9 4506 4507 4508
1376 9 4518 4519 4520
1377 9 4530 4531 4532
1378 9 4542 4543 4544
1379 9 4554 4555 4556
1380 9 4566 4567 4568
1381 9 4578 4579 4580
1382 9 4590 4591 4592
1383 9 4602 4603 4604
1384 9 4614 4615 4616
1385 9 4626 4627 4628
1386 9 4638 4639 4640
1387 9 4650 4651 4652
1388 9 4662 4663 4664
1389 9 4674 4675 4676
1390 9 4686 4687 4688
1391 9 4698 4699 4700
1392 9 4710 4711 4712
1393 9 4722 4723 4724
1394 9 4734 4735 4736
1395 9 4746 4747 4748
1396 9 4758 4759 4760
1397 9 4770 4771 4772
1398 9 4782 4783 4784
1399 9 4794 4795 4796
1400 9 4806 4807 4808
1401 9 4819 4820 4821
1402 9 4832 4833 4834
1403 9 4844 4845 4846
1404 9 4856 4857 4858
1405 9 4868 4869 4870
1406 9 4880 4881 4882
1407 9 4892 4893 4894
1408 9 4904 4905 4906
1409 9 4916 4917 4918
1410 9 4928 4929 4930
1411 9 4940 4941 4942
1412 9 4952 4953 4954
1413 9 4964 4965 4966
1414 9 4976 4977 4978
1415 9 4988 4989 4990
1416 9 5000 5001 5002
1417 9 5012 5013 5014
1418 9 5024 5025 5026
1419 9 5036 5037 5038
1420 9 5048 5049 5050
1421 9 5060 5061 5062
1422 9 5072 5073 5074
1423 9 5084 5085 5086
1424 9 5096 5097 5098
1425 9 5108 5109 5110
1426 9 5120 5121 5122
1427 9 5132 5133 5134
1428 9 5144 5145 5146
1429 9 5156 5157 5158
1430 9 5168 5169 5170
1431 9 5180 5181 5182
1432 9 5192 5193 5194
1433 9 5204 5205 5206
1434 9 5216 5217 5218
1435 9 5228 5229 5230
1436 9 5240 5241 5242
1437 9 5252 5253 5254
1438 9 5264 5265 5266
1439 9 5276 5277 5278
1440 9 5288 5289 5290
1441 9 5300 5301 5302
1442 9 5312 5313 5314
1443 9 5324 5325 5326
1444 9 5336 5337 5338
1445 9 5348 5349 5350
1446 9 5360 5361 5362
1447 9 5372 5373 5374
1448 9 5384 5385 5386
1449 9 5396 5397 5398
1450 9 5408 5409 5410
1451 9 5421 5422 5423
1452 9 5434 5435 5436
1453 9 5446 5447 5448
1454 9 5458 5459 5460
1455 9 5470 5471 5472
1456 9 5482 5483 5484
1457 9 5494 5495 5496
1458 9 5506 5507 5508
1459 9 5518 5519 5520
1460 9 5530 5531 5532
1461 9 5542 5543 5544
1462 9 5554 5555 5556
1463 9 5566 5567 5568
1464 9 5578 5579 5580
1465 9 5590 5591 5592
1466 9 5602 5603 5604
1467 9 5614 5615 5616
1468 9 5626 5627 5628
1469 9 5638 5639 5640
1470 9 5650 5651 5652
1471 9 5662 5663 5664
1472 9 5674 5675 5676
1473 9 5686 5687 5688
1474 9 5698 5699 5700
1475 9 5710 5711 5712
1476 9 5722 5723 5724
1477 9 5734 5735 5736
1478 9 5746 5747 5748
1479 9 5758 5759 5760
1480 9 5770 5771 5772
1481 9 5782 5783 5784
1482 9 5794 5795 5796
1483 9 5806 5807 5808
1484 9 5818 5819 5820
1485 9 5830 5831 5832
1486 9 5842 5843 5844
1487 9 5854 5855 5856
1488 9 5866 5867 5868
1489 9 5878 5879 5880
1490 9 5890 5891 5892
1491 9 5902 5903 5904
1492 9 5914 5915 5916
1493 9 5926 5927 5928
1494 9 5938 5939 5940
1495 9 5950 5951 5952
1496 9 5962 5963 5964
1497 9 5974 5975 5976
1498 9 5986 5987 5988
1499 9 5998 5999 6000
1500 9 6010 6011 6012
1501 13 1 2 3
1502 13 603 604 605
1503 13 1205 1206 1207
1504 13 1807 1808 1809
1505 13 2409 2410 2411
1506 13 3011 3012 3013
1507 13 3613 3614 3615
1508 13 4215 4216 4217
1509 13 4817 4818 4819
1510 13 5419 5420 5421
1511 16 590 591 592
1512 16 1192 1193 1194
1513 16 1794 1795 1796
1514 16 2396 2397 2398
1515 16 2998 2999 3000
1516 16 3600 3601 3602
1517 16 4202 4203 4204
1518 16 4804 4805 4806
1519 16 5406 5407 5408
1520 16 6008 6009 6010
1521 17 14 15 16
1522 17 3 2 14
1523 17 26 27 28
1524 17 16 15 26
1525 17 38 39 40
1526 17 28 27 38
1527 17 50 51 52
1528 17 40 39 50
1529 17 62 63 64
1530 17 52 51 62
1531 17 74 75 76
1532 17 64 63 74
1533 17 86 87 88
1534 17 76 75 86
1535 17 98 99 100
1536 17 88 87 98
1537 17 110 111 112
1538 17 100 99 110
1539 17 122 123 124
1540 17 112 111 122
1541 17 134 135 136
1542 17 124 123 134
1543 17 146 147 148
1544 17 136 135 146
1545 17 158 159 160
1546 17 148 147 158
1547 17 170 171 172
1548 17 160 159 170
1549 17 182 183 184
1550 17 172 171 182
1551 17 194 195 196
1552 17 184 183 194
1553 17 206 207 208
1554 17 196 195 206
1555 17 218 219 220
1556 17 208 207 218
1557 17 230 231 232
1558 17 220 219 230
1559 17 242 243 244
1560 17 232 231 242
1561 17 254 255 256
1562 17 244 243 254
1563 17 266 267 268
1564 17 256 255 266
1565 17 278 279 280
1566 17 268 267 278
1567 17 290 291 292
1568 17 280 279 290
1569 17 302 303 304
1570 17 292 291 302
1571 17 314 315 316
1572 17 304 303 314
1573 17 326 327 328
1574 17 316 315 326
1575 17 338 339 340
1576 17 328 327 338
1577 17 350 351 352
1578 17 340 339 350
1579 17 362 363 364
1580 17 352 351 362
1581 17 374 375 376
1582 17 364 363 374
1583 17 386 387 388
1584 17 376 375 386
1585 17 398 399 400
1586 17 388 387 398
1587 17 410 411 412
1588 17 400 399 410
1589 17 422 423 424
1590 17 412 411 422
1591 17 434 435 436
1592 17 424 423 434
1593 17 446 447 448
1594 17 436 435 446
1595 17 458 459 460
1596 17 448 447 458
1597 17 470 471 472
1598 17 460 459 470
1599 17 482 483 484
1600 17 472 471 482
1601 17 494 495 496
1602 17 484 483 494
1603 17 506 507 508
1604 17 496 495 506
1605 17 518 519 520
1606 17 508 507 518
1607 17 530 531 532
1608 17 520 519 530
1609 17 542 543 544
1610 17 532 531 542
1611 17 554 555 556
1612 17 544 543 554
1613 17 566 567 568
1614 17 556 555 566
1615 17 578 579 580
1616 17 568 567 578
1617 17 580 579 590
1618 17 616 617 618
1619 17 605 604 616
1620 17 628 629 630
1621 17 618 617 628
1622 17 640 641 642
1623 17 630 629 640
1624 17 652 653 654
1625 17 642 641 652
1626 17 664 665 666
1627 17 654 653 664
1628 17 676 677 678
1629 17 666 665 676
1630 17 688 689 690
1631 17 678 677 688
1632 17 700 701 702
1633 17 690 689 700
1634 17 712 713 714
1635 17 702 701 712
1636 17 724 725 726
1637 17 714 713 724
1638 17 736 737 738
1639 17 726 725 736
1640 17 748 749 750
1641 17 738 737 748
1642 17 760 761 762
1643 17 750 749 760
1644 17 772 773 774
1645 17 762 761 772
1646 17 784 785 786
1647 17 774 773 784
1648 17 796 797 798
1649 17 786 785 796
1650 17 808 809 810
1651 17 798 797 808
1652 17 820 821 822
1653 17 810 809 820
1654 17 832 833 834
1655 17 822 821 832
1656 17 844 845 846
1657 17 834 833 844
1658 17 856 857 858
1659 17 846 845 856
1660 17 868 869 870
1661 17 858 857 868
1662 17 880 881 882
1663 17 870 869 880
1664 17 892 893 894
1665 17 882 881 892
1666 17 904 905 906
1667 17 894 893 904
1668 17 916 917 918
1669 17 906 905 916
1670 17 928 929 930
1671 17 918 917 928
1672 17 940 941 942
1673 17 930 929 940
1674 17 952 953 954
1675 17 942 941 952
1676 17 964 965 966
1677 17 954 953 964
1678 17 976 977 978
1679 17 966 965 976
1680 17 988 989 990
1681 17 978 977 988
1682 17 1000 1001 1002
1683 17 990 989 1000
1684 17 1012 1013 1014
1685 17 1002 1001 1012
1686 17 1024 1025 1026
1687 17 1014 1013 1024
1688 17 1036 1037 1038
1689 17 1026 1025 1036
1690 17 1048 1049 1050
1691 17 1038 1037 1048
1692 17 1060 1061 1062
1693 17 1050 1049 1060
1694 17 1072 1073 1074
1695 17 1062 1061 1072
1696 17 1084 1085 1086
1697 17 1074 1073 1084
1698 17 1096 1097 1098
1699 17 1086 1085 1096
1700 17 1108 1109 1110
1701 17 1098 1097 1108
1702 17 1120 1121 1122
1703 17 1110 1109 1120
1704 17 1132 1133 1134
1705 17 1122 1121 1132
1706 17 1144 1145 1146
1707 17 1134 1133 1144
1708 17 1156 1157 1158
1709 17 1146 1145 1156
1710 17 1168 1169 1170
1711 17 1158 1157 1168
1712 17 1180 1181 1182
1713 17 1170 1169 1180
1714 17 1182 1181 1192
1715 17 1218 1219 1220
1716 17 1207 1206 1218
1717 17 1230 1231 1232
1718 17 1220 1219 1230
1719 17 1242 1243 1244
1720 17 1232 1231 1242
1721 17 1254 1255 1256
1722 17 1244 1243 1254
1723 17 1266 1267 1268
1724 17 1256 1255 1266
1725 17 1278 1279 1280
1726 17 1268 1267 1278
1727 17 1290 1291 1292
1728 17 1280 1279 1290
1729 17 1302 1303 1304
1730 17 1292 1291 1302
1731 17 1314 1315 1316
1732 17 1304 1303 1314
1733 17 1326 1327 1328
1734 17 1316 1315 1326
1735 17 1338 1339 1340
1736 17 1328 1327 1338
1737 17 1350 1351 1352
1738 17 1340 1339 1350
1739 17 1362 1363 1364
1740 17 1352 1351 1362
1741 17 1374 1375 1376
1742 17 1364 1363 1374
1743 17 1386 1387 1388
1744 17 1376 1375 1386
1745 17 1398 1399 1400
1746 17 1388 1387 1398
1747 17 1410 1411 1412
1748 17 1400 1399 1410
1749 17 1422 1423 1424
1750 17 1412 1411 1422
1751 17 1434 1435 1436
1752 17 1424 1423 1434
1753 17 1446 1447 1448
1754 17 1436 1435 1446
1755 17 1458 1459 1460
1756 17 1448 1447 1458
1757 17 1470 1471 1472
1758 17 1460 1459 1470
1759 17 1482 1483 1484
1760 17 1472 1471 1482
1761 17 1494 1495 1496
1762 17 1484 1483 1494
1763 17 1506 1507 1508
1764 17 1496 1495 1506
1765 17 1518 1519 1520
1766 17 1508 1507 1518
1767 17 1530 1531 1532
1768 17 1520 1519 1530
1769 17 1542 1543 1544
1770 17 1532 1531 1542
1771 17 1554 1555 1556
1772 17 1544 1543 1554
1773 17 1566 1567 1568
1774 17 1556 1555 1566
1775 17 1578 1579 1580
1776 17 1568 1567 1578
1777 17 1590 1591 1592
1778 17 1580 1579 1590
1779 17 1602 1603 1604
1780 17 1592 1591 1602
1781 17 1614 1615 1616
1782 17 1604 1603 1614
1783 17 1626 1627 1628
1784 17 1616 1615 1626
1785 17 1638 1639 1640
1786 17 1628 1627 1638
1787 17 1650 1651 1652
1788 17 1640 1639 1650
1789 17 1662 1663 1664
1790 17 1652 1651 1662
1791 17 1674 1675 1676
1792 17 1664 1663 1674
1793 17 1686 1687 1688
1794 17 1676 1675 1686
1795 17 1698 1699 1700
1796 17 1688 1687 1698
1797 17 1710 1711 1712
1798 17 1700 1699 1710
1799 17 1722 1723 1724
1800 17 1712 1711 1722
1801 17 1734 1735 1736
1802 17 1724 1723 1734
1803 17 1746 1747 1748
1804 17 1736 1735 1746
1805 17 1758 1759 1760
1806 17 1748 1747 1758
1807 17 1770 1771 1772
1808 17 1760 1759 1770
1809 17 1782 1783 1784
1810 17 1772 1771 1782
1811 17 1784 1783 1794
1812 17 1820 1821 1822
1813 17 1809 1808 1820
1814 17 1832 1833 1834
1815 17 1822 1821 1832
1816 17 1844 1845 1846
1817 17 1834 1833 1844
1818 17 1856 1857 1858
1819 17 1846 1845 1856
1820 17 1868 1869 1870
1821 17 1858 1857 1868
1822 17 1880 1881 1882
1823 17 1870 1869 1880
1824 17 1892 1893 1894
1825 17 1882 1881 1892
1826 17 1904 1905 1906
1827 17 1894 1893 1904
1828 17 1916 1917 1918
1829 17 1906 1905 1916
1830 17 1928 1929 1930
1831 17 1918 1917 1928
1832 17 1940 1941 1942
1833 17 1930 1929 1940
1834 17 1952 1953 1954
1835 17 1942 1941 1952
1836 17 1964 1965 1966
1837 17 1954 1953 1964
1838 17 1976 1977 1978
1839 17 1966 1965 1976
1840 17 1988 1989 1990
1841 17 1978 1977 1988
1842 17 2000 2001 2002
1843 17 1990 1989 2000
1844 17 2012 2013 2014
1845 17 2002 2001 2012
1846 17 2024 2025 2026
1847 17 2014 2013 2024
1848 17 2036 2037 2038
1849 17 2026 2025 2036
1850 17 2048 2049 2050
1851 17 2038 2037 2048
1852 17 2060 2061 2062
1853 17 2050 2049 2060
1854 17 2072 2073 2074
1855 17 2062 2061 2072
1856 17 2084 2085 2086
1857 17 2074 2073 2084
1858 17 2096 2097 2098
1859 17 2086 2085 2096
1860 17 2108 2109 2110
1861 17 2098 2097 2108
1862 17 2120 2121 2122
1863 17 2110 2109 2120
1864 17 2132 2133 2134
1865 17 2122 2121 2132
1866 17 2144 2145 2146
1867 17 2134 2133 2144
1868 17 2156 2157 2158
1869 17 2146 2145 2156
1870 17 2168 2169 2170
1871 17 2158 2157 2168
1872 17 2180 2181 2182
1873 17 2170 2169 2180
1874 17 2192 2193 2194
1875 17 2182 2181 2192
1876 17 2204 2205 2206
1877 17 2194 2193 2204
1878 17 2216 2217 2218
1879 17 2206 2205 2216
1880 17 2228 2229 2230
1881 17 2218 2217 2228
1882 17 2240 2241 2242
1883 17 2230 2229 2240
1884 17 2252 2253 2254
1885 17 2242 2241 2252
1886 17 2264 2265 2266
1887 17 2254 2253 2264
1888 17 2276 2277 2278
1889 17 2266 2265 2276
1890 17 2288 2289 2290
1891 17 2278 2277 2288
1892 17 2300 2301 2302
1893 17 2290 2289 2300
1894 17 2312 2313 2314
1895 17 2302 2301 2312
1896 17 2324 2325 2326
1897 17 2314 2313 2324
1898 17 2336 2337 2338
1899 17 2326 2325 2336
1900 17 2348 2349 2350
1901 17 2338 2337 2348
1902 17 2360 2361 2362
1903 17 2350 2349 2360
1904 17 2372 2373 2374
1905 17 2362 2361 2372
1906 17 2384 2385 2386
1907 17 2374 2373 2384
1908 17 2386 2385 2396
1909 17 2422 2423 2424
1910 17 2411 2410 2422
1911 17 2434 2435 2436
1912 17 2424 2423 2434
1913 17 2446 2447 2448
1914 17 2436 2435 2446
1915 17 2458 2459 2460
1916 17 2448 2447 2458
1917 17 2470 2471 2472
1918 17 2460 2459 2470
1919 17 2482 2483 2484
1920 17 2472 2471 2482
1921 17 2494 2495 2496
1922 17 2484 2483 2494
1923 17 2506 2507 2508
1924 17 2496 2495 2506
1925 17 2518 2519 2520
1926 17 2508 2507 2518
1927 17 2530 2531 2532
1928 17 2520 2519 2530
1929 17 2542 2543 2544
1930 17 2532 2531 2542
1931 17 2554 2555 2556
1932 17 2544 2543 2554
1933 17 2566 2567 2568
1934 17 2556 2555 2566
1935 17 2578 2579 2580
1936 17 2568 2567 2578
1937 17 2590 2591 2592
1938 17 2580 2579 2590
1939 17 2602 2603 2604
1940 17 2592 2591 2602
1941 17 2614 2615 2616
1942 17 2604 2603 2614
1943 17 2626 2627 2628
1944 17 2616 2615 2626
1945 17 2638 2639 2640
1946 17 2628 2627 2638
1947 17 2650 2651 2652
1948 17 2640 2639 2650
1949 17 2662 2663 2664
1950 17 2652 2651 2662
1951 17 2674 2675 2676
1952 17 2664 2663 2674
1953 17 2686 2687 2688
1954 17 2676 2675 2686
1955 17 2698 2699 2700
1956 17 2688 2687 2698
1957 17 2710 2711 2712
1958 17 2700 2699 2710
1959 17 2722 2723 2724
1960 17 2712 2711 2722
1961 17 2734 2735 2736
1962 17 2724 2723 2734
1963 17 2746 2747 2748
1964 17 2736 2735 2746
1965 17 2758 2759 2760
1966 17 2748 2747 2758
1967 17 2770 2771 2772
1968 17 2760 2759 2770
1969 17 2782 2783 2784
1970 17 2772 2771 2782
1971 17 2794 2795 2796
1972 17 2784 2783 2794
1973 17 2806 2807 2808
1974 17 2796 2795 2806
1975 17 2818 2819 2820
1976 17 2808 2807 2818
1977 17 2830 2831 2832
1978 17 2820 2819 2830
1979 17 2842 2843 2844
1980 17 2832 2831 2842
1981 17 2854 2855 2856
1982 17 2844 2843 2854
1983 17 2866 2867 2868
1984 17 2856 2855 2866
1985 17 2878 2879 2880
1986 17 2868 2867 2878
1987 17 2890 2891 2892
1988 17 2880 2879 2890
1989 17 2902 2903 2904
1990 17 2892 2891 2902
1991 17 2914 2915 2916
1992 17 2904 2903 2914
1993 17 2926 2927 2928
1994 17 2916 2915 2926
1995 17 2938 2939 2940
1996 17 2928 2927 2938
1997 17 2950 2951 2952
1998 17 2940 2939 2950
1999 17 2962 2963 2964
2000 17 2952 2951 2962
2001 17 2974 2975 2976
2002 17 2964 2963 2974
2003 17 2986 2987 2988
2004 17 2976 2975 2986
2005 17 2988 2987 2998
2006 17 3024 3025 3026
2007 17 3013 3012 3024
2008 17 3036 3037 3038
2009 17 3026 3025 3036
2010 17 3048 3049 3050
2011 17 3038 3037 3048
2012 17 3060 3061 3062
2013 17 3050 3049 3060
2014 17 3072 3073 3074
2015 17 3062 3061 3072
2016 17 3084 3085 3086
2017 17 3074 3073 3084
2018 17 3096 3097 3098
2019 17 3086 3085 3096
2020 17 3108 3109 3110
2021 17 3098 3097 3108
2022 17 3120 3121 3122
2023 17 3110 3109 3120
2024 17 3132 3133 3134
2025 17 3122 3121 3132
2026 17 3144 3145 3146
2027 17 3134 3133 3144
2028 17 3156 3157 3158
2029 17 3146 3145 3156
2030 17 3168 3169 3170
2031 17 3158 3157 3168
2032 17 3180 3181 3182
2033 17 3170 3169 3180
2034 17 3192 3193 3194
2035 17 3182 3181 3192
2036 17 3204 3205 3206
2037 17 3194 3193 3204
2038 17 3216 3217 3218
2039 17 3206 3205 3216
2040 17 3228 3229 3230
2041 17 3218 3217 3228
2042 17 3240 3241 3242
2043 17 3230 3229 3240
2044 17 3252 3253 3254
2045 17 3242 3241 3252
2046 17 3264 3265 3266
2047 17 3254 3253 3264
2048 17 3276 3277 3278
2049 17 3266 3265 3276
2050 17 3288 3289 3290
2051 17 3278 3277 3288
2052 17 3300 3301 3302
2053 17 3290 3289 3300
2054 17 3312 3313 3314
2055 17 3302 3301 3312
2056 17 3324 3325 3326
2057 17 3314 3313 3324
2058 17 3336 3337 3338
2059 17 3326 3325 3336
2060 17 3348 3349 3350
2061 17 3338 3337 3348
2062 17 3360 3361 3362
2063 17 3350 3349 3360
2064 17 3372 3373 3374
2065 17 3362 3361 3372
2066 17 3384 3385 3386
2067 17 3374 3373 3384
2068 17 3396 3397 3398
2069 17 3386 3385 3396
2070 17 3408 3409 3410
2071 17 3398 3397 3408
2072 17 3420 3421 3422
2073 17 3410 3409 3420
2074 17 3432 3433 3434
2075 17 3422 3421 3432
2076 17 3444 3445 3446
2077 17 3434 3433 3444
2078 17 3456 3457 3458
2079 17 3446 3445 3456
2080 17 3468 3469 3470
2081 17 3458 3457 3468
2082 17 3480 3481 3482
2083 17 3470 3469 3480
2084 17 3492 3493 3494
2085 17 3482 3481 3492
2086 17 3504 3505 3506
2087 17 3494 3493 3504
2088 17 3516 3517 3518
2089 17 3506 3505 3516
2090 17 3528 3529 3530
2091 17 3518 3517 3528
2092 17 3540 3541 3542
2093 17 3530 3529 3540
2094 17 3552 3553 3554
2095 17 3542 3541 3552
2096 17 3564 3565 3566
2097 17 3554 3553 3564
2098 17 3576 3577 3578
2099 17 3566 3565 3576
2100 17 3588 3589 3590
2101 17 3578 3577 3588
2102 17 3590 3589 3600
2103 17 3626 3627 3628
2104 17 3615 3614 3626
2105 17 3638 3639 3640
2106 17 3628 3627 3638
2107 17 3650 3651 3652
2108 17 3640 3639 3650
2109 17 3662 3663 3664
2110 17 3652 3651 3662
2111 17 3674 3675 3676
2112 17 3664 3663 3674
2113 17 3686 3687 3688
2114 17 3676 3675 3686
2115 17 3698 3699 3700
2116 17 3688 3687 3698
2117 17 3710 3711 3712
2118 17 3700 3699 3710
2119 17 3722 3723 3724
2120 17 3712 3711 3722
2121 17 3734 3735 3736
2122 17 3724 3723 3734
2123 17 3746 3747 3748
2124 17 3736 3735 3746
2125 17 3758 3759 3760
2126 17 3748 3747 3758
2127 17 3770 3771 3772
2128 17 3760 3759 3770
2129 17 3782 3783 3784
2130 17 3772 3771 3782
2131 17 3794 3795 3796
2132 17 3784 3783 3794
2133 17 3806 3807 3808
2134 17 3796 3795 3806
2135 17 3818 3819 3820
2136 17 3808 3807 3818
2137 17 3830 3831 3832
2138 17 3820 3819 3830
2139 17 3842 3843 3844
2140 17 3832 3831 3842
2141 17 3854 3855 3856
2142 17 3844 3843 3854
2143 17 3866 3867 3868
2144 17 3856 3855 3866
2145 17 3878 3879 3880
2146 17 3868 3867 3878
2147 17 3890 3891 3892
2148 17 3880 3879 3890
2149 17 3902 3903 3904
2150 17 3892 3891 3902
2151 17 3914 3915 3916
2152 17 3904 3903 3914
2153 17 3926 3927 3928
2154 17 3916 3915 3926
2155 17 3938 3939 3940
2156 17 3928 3927 3938
2157 17 3950 3951 3952
2158 17 3940 3939 3950
2159 17 3962 3963 3964
2160 17 3952 3951 3962
2161 17 3974 3975 3976
2162 17 3964 3963 3974
2163 17 3986 3987 3988
2164 17 3976 3975 3986
2165 17 3998 3999 4000
2166 17 3988 3987 3998
2167 17 4010 4011 4012
2168 17 4000 3999 4010
2169 17 4022 4023 4024
2170 17 4012 4011 4022
2171 17 4034 4035 4036
2172 17 4024 4023 4034
2173 17 4046 4047 4048
2174 17 4036 4035 4046
2175 17 4058 4059 4060
2176 17 4048 4047 4058
2177 17 4070 4071 4072
2178 17 4060 4059 4070
2179 17 4082 4083 4084
2180 17 4072 4071 4082
2181 17 4094 4095 4096
2182 17 4084 4083 4094
2183 17 4106 4107 4108
2184 17 4096 4095 4106
2185 17 4118 4119 4120
2186 17 4108 4107 4118
2187 17 4130 4131 4132
2188 17 4120 4119 4130
2189 17 4142 4143 4144
2190 17 4132 4131 4142
2191 17 4154 4155 4156
2192 17 4144 4143 4154
2193 17 4166 4167 4168
2194 17 4156 4155 4166
2195 17 4178 4179 4180
2196 17 4168 4167 4178
2197 17 4190 4191 4192
2198 17 4180 4179 4190
2199 17 4192 4191 4202
2200 17 4228 4229 4230
2201 17 4217 4216 4228
2202 17 4240 4241 4242
2203 17 4230 4229 4240
2204 17 4252 4253 4254
2205 17 4242 4241 4252
2206 17 4264 4265 4266
2207 17 4254 4253 4264
2208 17 4276 4277 4278
2209 17 4266 4265 4276
2210 17 4288 4289 4290
2211 17 4278 4277 4288
2212 17 4300 4301 4302
2213 17 4290 4289 4300
2214 17 4312 4313 4314
2215 17 4302 4301 4312
2216 17 4324 4325 4326
2217 17 4314 4313 4324
2218 17 4336 4337 4338
2219 17 4326 4325 4336
2220 17 4348 4349 4350
2221 17 4338 4337 4348
2222 17 4360 4361 4362
2223 17 4350 4349 4360
2224 17 4372 4373 4374
2225 17 4362 4361 4372
2226 17 4384 4385 4386
2227 17 4374 4373 4384
2228 17 4396 4397 4398
2229 17 4386 4385 4396
2230 17 4408 4409 4410
2231 17 4398 4397 4408
2232 17 4420 4421 4422
2233 17 4410 4409 4420
2234 17 4432 4433 4434
2235 17 4422 4421 4432
2236 17 4444 4445 4446
2237 17 4434 4433 4444
2238 17 4456 4457 4458
2239 17 4446 4445 4456
2240 17 4468 4469 4470
2241 17 4458 4457 4468
2242 17 4480 4481 4482
2243 17 4470 4469 4480
2244 17 4492 4493 4494
2245 17 4482 4481 4492
2246 17 4504 4505 4506
2247 17 4494 4493 4504
2248 17 4516 4517 4518
2249 17 4506 4505 4516
2250 17 4528 4529 4530
2251 17 4518 4517 4528
2252 17 4540 4541 4542
2253 17 4530 4529 4540
2254 17 4552 4553 4554
2255 17 4542 4541 4552
2256 17 4564 4565 4566
2257 17 4554 4553 4564
2258 17 4576 4577 4578
2259 17 4566 4565 4576
2260 17 4588 4589 4590
2261 17 4578 4577 4588
2262 17 4600 4601 4602
2263 17 4590 4589 4600
2264 17 4612 4613 4614
2265 17 4602 4601 4612
2266 17 4624 4625 4626
2267 17 4614 4613 4624
2268 17 4636 4637 4638
2269 17 4626 4625 4636
2270 17 4648 4649 4650
2271 17 4638 4637 4648
2272 17 4660 4661 4662
2273 17 4650 4649 4660
2274 17 4672 4673 4674
2275 17 4662 4661 4672
2276 17 4684 4685 4686
2277 17 4674 4673 4684
2278 17 4696 4697 4698
2279 17 4686 4685 4696
2280 17 4708 4709 4710
2281 17 4698 4697 4708
2282 17 4720 4721 4722
2283 17 4710 4709 4720
2284 17 4732 4733 4734
2285 17 4722 4721 4732
2286 17 4744 4745 4746
2287 17 4734 4733 4744
2288 17 4756 4757 4758
2289 17 4746 4745 4756
2290 17 4768 4769 4770
2291 17 4758 4757 4768
2292 17 4780 4781 4782
2293 17 4770 4769 4780
2294 17 4792 4793 4794
2295 17 4782 4781 4792
2296 17 4794 4793 4804
2297 17 4830 4831 4832
2298 17 4819 4818 4830
2299 17 4842 4843 4844
2300 17 4832 4831 4842
2301 17 4854 4855 4856
2302 17 4844 4843 4854
2303 17 4866 4867 4868
2304 17 4856 4855 4866
2305 17 4878 4879 4880
2306 17 4868 4867 4878
2307 17 4890 4891 4892
2308 17 4880 4879 4890
2309 17 4902 4903 4904
2310 17 4892 4891 4902
2311 17 4914 4915 4916
2312 17 4904 4903 4914
2313 17 4926 4927 4928
2314 17 4916 4915 4926
2315 17 4938 4939 4940
2316 17 4928 4927 4938
2317 17 4950 4951 4952
2318 17 4940 4939 4950
2319 17 4962 4963 4964
2320 17 4952 4951 4962
2321 17 4974 4975 4976
2322 17 4964 4963 4974
2323 17 4986 4987 4988
2324 17 4976 4975 4986
2325 17 4998 4999 5000
2326 17 4988 4987 4998
2327 17 5010 5011 5012
2328 17 5000 4999 5010
2329 17 5022 5023 5024
2330 17 5012 5011 5022
2331 17 5034 5035 5036
2332 17 5024 5023 5034
2333 17 5046 5047 5048
2334 17 5036 5035 5046
2335 17 5058 5059 5060
2336 17 5048 5047 5058
2337 17 5070 5071 5072
2338 17 5060 5059 5070
2339 17 5082 5083 5084
2340 17 5072 5071 5082
2341 17 5094 5095 5096
2342 17 5084 5083 5094
2343 17 5106 5107 5108
2344 17 5096 5095 5106
2345 17 5118 5119 5120
2346 17 5108 5107 5118
2347 17 5130 5131 5132
2348 17 5120 5119 5130
2349 17 5142 5143 5144
2350 17 5132 5131 5142
2351 17 5154 5155 5156
2352 17 5144 5143 5154
2353 17 5166 5167 5168
2354 17 5156 5155 5166
2355 17 5178 5179 5180
2356 17 5168 5167 5178
2357 17 5190 5191 5192
2358 17 5180 5179 5190
2359 17 5202 5203 5204
2360 17 5192 5191 5202
2361 17 5214 5215 5216
2362 17 5204 5203 5214
2363 17 5226 5227 5228
2364 17 5216 5215 5226
2365 17 5238 5239 5240
2366 17 5228 5227 5238
2367 17 5250 5251 5252
2368 17 5240 5239 5250
2369 17 5262 5263 5264
2370 17 5252 5251 5262
2371 17 5274 5275 5276
2372 17 5264 5263 5274
2373 17 5286 5287 5288
2374 17 5276 5275 5286
2375 17 5298 5299 5300
2376 17 5288 5287 5298
2377 17 5310 5311 5312
2378 17 5300 5299 5310
2379 17 5322 5323 5324
2380 17 5312 5311 5322
2381 17 5334 5335 5336
2382 17 5324 5323 5334
2383 17 5346 5347 5348
2384 17 5336 5335 5346
2385 17 5358 5359 5360
2386 17 5348 5347 5358
2387 17 5370 5371 5372
2388 17 5360 5359 5370
2389 17 5382 5383 5384
2390 17 5372 5371 5382
2391 17 5394 5395 5396
2392 17 5384 5383 5394
2393 17 5396 5395 5406
2394 17 5432 5433 5434
2395 17 5421 5420 5432
2396 17 5444 5445 5446
2397 17 5434 5433 5444
2398 17 5456 5457 5458
2399 17 5446 5445 5456
2400 17 5468 5469 5470
2401 17 5458 5457 5468
2402 17 5480 5481 5482
2403 17 5470 5469 5480
2404 17 5492 5493 5494
2405 17 5482 5481 5492
2406 17 5504 5505 5506
2407 17 5494 5493 5504
2408 17 5516 5517 5518
2409 17 5506 5505 5516
2410 17 5528 5529 5530
2411 17 5518 5517 5528
2412 17 5540 5541 5542
2413 17 5530 5529 5540
2414 17 5552 5553 5554
2415 17 5542 5541 5552
2416 17 5564 5565 5566
2417 17 5554 5553 5564
2418 17 5576 5577 5578
2419 17 5566 5565 5576
2420 17 5588 5589 5590
2421 17 5578 5577 5588
2422 17 5600 5601 5602
2423 17 5590 5589 5600
2424 17 5612 5613 5614
2425 17 5602 5601 5612
2426 17 5624 5625 5626
2427 17 5614 5613 5624
2428 17 5636 5637 5638
2429 17 5626 5625 5636
2430 17 5648 5649 5650
2431 17 5638 5637 5648
2432 17 5660 5661 5662
2433 17 5650 5649 5660
2434 17 5672 5673 5674
2435 17 5662 5661 5672
2436 17 5684 5685 5686
2437 17 5674 5673 5684
2438 17 5696 5697 5698
2439 17 5686 5685 5696
2440 17 5708 5709 5710
2441 17 5698 5697 5708
2442 17 5720 5721 5722
2443 17 5710 5709 5720
2444 17 5732 5733 5734
2445 17 5722 5721 5732
2446 17 5744 5745 5746
2447 17 5734 5733 5744
2448 17 5756 5757 5758
2449 17 5746 5745 5756
2450 17 5768 5769 5770
2451 17 5758 5757 5768
2452 17 5780 5781 5782
2453 17 5770 5769 5780
2454 17 5792 5793 5794
2455 17 5782 5781 5792
2456 17 5804 5805 5806
2457 17 5794 5793 5804
2458 17 5816 5817 5818
2459 17 5806 5805 5816
2460 17 5828 5829 5830
2461 17 5818 5817 5828
2462 17 5840 5841 5842
2463 17 5830 5829 5840
2464 17 5852 5853 5854
2465 17 5842 5841 5852
2466 17 5864 5865 5866
2467 17 5854 5853 5864
2468 17 5876 5877 5878
2469 17 5866 5865 5876
2470 17 5888 5889 5890
2471 17 5878 5877 5888
2472 17 5900 5901 5902
2473 17 5890 5889 5900
2474 17 5912 5913 5914
2475 17 5902 5901 5912
2476 17 5924 5925 5926
2477 17 5914 5913 5924
2478 17 5936 5937 5938
2479 17 5926 5925 5936
2480 17 5948 5949 5950
2481 17 5938 5937 5948
2482 17 5960 5961 5962
2483 17 5950 5949 5960
2484 17 5972 5973 5974
2485 17 5962 5961 5972
2486 17 5984 5985 5986
2487 17 5974 5973 5984
2488 17 5996 5997 5998
2489 17 5986 5985 5996
2490 17 5998 5997 6008
2491 26 7 1 8
2492 26 7 1 9
2493 26 8 1 9
2494 26 11 6 12
2495 26 11 6 13
2496 26 12 6 13
2497 26 23 19 24
2498 26 23 19 25
2499 26 24 19 25
2500 26 35 31 36
2501 26 35 31 37
2502 26 36 31 37
2503 26 47 43 48
2504 26 47 43 49
2505 26 48 43 49
2506 26 59 55 60
2507 26 59 55 61
2508 26 60 55 61
2509 26 71 67 72
2510 26 71 67 73
2511 26 72 67 73
2512 26 83 79 84
2513 26 83 79 85
2514 26 84 79 85
2515 26 95 91 96
2516 26 95 91 97
2517 26 96 91 97
2518 26 107 103 108
2519 26 107 103 109
2520 26 108 103 109
2521 26 119 115 120
2522 26 119 115 121
2523 26 120 115 121
2524 26 131 127 132
2525 26 131 127 133
2526 26 132 127 133
2527 26 143 139 144
2528 26 143 139 145
2529 26 144 139 145
2530 26 155 151 156
2531 26 155 151 157
2532 26 156 151 157
2533 26 167 163 168
2534 26 167 163 169
2535 26 168 163 169
2536 26 179 175 180
2537 26 179 175 181
2538 26 180 175 181
2539 26 191 187 192
2540 26 191 187 193
2541 26 192 187 193
2542 26 203 199 204
2543 26 203 199 205
2544 26 204 199 205
2545 26 215 211 216
2546 26 215 211 217
2547 26 216 211 217
2548 26 227 223 228
2549 26 227 223 229
2550 26 228 223 229
2551 26 239 235 240
2552 26 239 235 241
2553 26 240 235 241
2554 26 251 247 252
2555 26 251 247 253
2556 26 252 247 253
2557 26 263 259 264
2558 26 263 259 265
2559 26 264 259 265
2560 26 275 271 276
2561 26 275 271 277
2562 26 276 271 277
2563 26 287 283 288
2564 26 287 283 289
2565 26 288 283 289
2566 26 299 295 300
2567 26 299 295 301
2568 26 300 295 301
2569 26 311 307 312
2570 26 311 307 313
2571 26 312 307 313
2572 26 323 319 324
2573 26 323 319 325
2574 26 324 319 325
2575 26 335 331 336
2576 26 335 331 337
2577 26 336 331 337
2578 26 347 343 348
2579 26 347 343 349
2580 26 348 343 349
2581 26 359 355 360
2582 26 359 355 361
2583 26 360 355 361
2584 26 371 367 372
2585 26 371 367 373
2586 26 372 367 373
2587 26 383 379 384
2588 26 383 379 385
2589 26 384 379 385
2590 26 395 391 396
2591 26 395 391 397
2592 26 396 391 397
2593 26 407 403 408
2594 26 407 403 409
2595 26 408 403 409
2596 26 419 415 420
2597 26 419 415 421
2598 26 420 415 421
2599 26 431 427 432
2600 26 431 427 433
2601 26 432 427 433
2602 26 443 439 444
2603 26 443 439 445
2604 26 444 439 445
2605 26 455 451 456
2606 26 455 451 457
2607 26 456 451 457
2608 26 467 463 468
2609 26 467 463 469
2610 26 468 463 469
2611 26 479 475 480
2612 26 479 475 481
2613 26 480 475 481
2614 26 491 487 492
2615 26 491 487 493
2616 26 492 487 493
2617 26 503 499 504
2618 26 503 499 505
2619 26 504 499 505
2620 26 515 511 516
2621 26 515 511 517
2622 26 516 511 517
2623 26 527 523 528
2624 26 527 523 529
2625 26 528 523 529
2626 26 539 535 540
2627 26 539 535 541
2628 26 540 535 541
2629 26 551 547 552
2630 26 551 547 553
2631 26 552 547 553
2632 26 563 559 564
2633 26 563 559 565
2634 26 564 559 565
2635 26 575 571 576
2636 26 575 571 577
2637 26 576 571 577
2638 26 587 583 588
2639 26 587 583 589
2640 26 588 583 589
2641 26 600 595 601
2642 26 600 595 602
2643 26 601 595 602
2644 26 609 603 610
2645 26 609 603 611
2646 26 610 603 611
2647 26 613 608 614
2648 26 613 608 615
2649 26 614 608 615
2650 26 625 621 626
2651 26 625 621 627
2652 26 626 621 627
2653 26 637 633 638
2654 26 637 633 639
2655 26 638 633 639
2656 26 649 645 650
2657 26 649 645 651
2658 26 650 645 651
2659 26 661 657 662
2660 26 661 657 663
2661 26 662 657 663
2662 26 673 669 674
2663 26 673 669 675
2664 26 674 669 675
2665 26 685 681 686
2666 26 685 681 687
2667 26 686 681 687
2668 26 697 693 698
2669 26 697 693 699
2670 26 698 693 699
2671 26 709 705 710
2672 26 709 705 711
2673 26 710 705 711
2674 26 721 717 722
2675 26 721 717 723
2676 26 722 717 723
2677 26 733 729 734
2678 26 733 729 735
2679 26 734 729 735
2680 26 745 741 746
2681 26 745 741 747
2682 26 746 741 747
2683 26 757 753 758
2684 26 757 753 759
2685 26 758 753 759
2686 26 769 765 770
2687 26 769 765 771
2688 26 770 765 771
2689 26 781 777 782
2690 26 781 777 783
2691 26 782 777 783
2692 26 793 789 794
2693 26 793 789 795
2694 26 794 789 795
2695 26 805 801 806
2696 26 805 801 807
2697 26 806 801 807
2698 26 817 813 818
2699 26 817 813 819
2700 26 818 813 819
2701 26 829 825 830
2702 26 829 825 831
2703 26 830 825 831
2704 26 841 837 842
2705 26 841 837 843
2706 26 842 837 843
2707 26 853 849 854
2708 26 853 849 855
2709 26 854 849 855
2710 26 865 861 866
2711 26 865 861 867
2712 26 866 861 867
2713 26 877 873 878
2714 26 877 873 879
2715 26 878 873 879
2716 26 889 885 890
2717 26 889 885 891
2718 26 890 885 891
2719 26 901 897 902
2720 26 901 897 903
2721 26 902 897 903
2722 26 913 909 914
2723 26 913 909 915
2724 26 914 909 915
2725 26 925 921 926
2726 26 925 921 927
2727 26 926 921 927
2728 26 937 933 938
2729 26 937 933 939
2730 26 938 933 939
2731 26 949 945 950
2732 26 949 945 951
2733 26 950 945 951
2734 26 961 957 962
2735 26 961 957 963
2736 26 962 957 963
2737 26 973 969 974
2738 26 973 969 975
2739 26 974 969 975
2740 26 985 981 986
2741 26 985 981 987
2742 26 986 981 987
2743 26 997 993 998
2744 26 997 993 999
2745 26 998 993 999
2746 26 1009 1005 1010
2747 26 1009 1005 1011
2748 26 1010 1005 1011
2749 26 1021 1017 1022
2750 26 1021 1017 1023
2751 26 1022 1017 1023
2752 26 1033 1029 1034
2753 26 1033 1029 1035
2754 26 1034 1029 1035
2755 26 1045 1041 1046
2756 26 1045 1041 1047
2757 26 1046 1041 1047
2758 26 1057 1053 1058
2759 26 1057 1053 1059
2760 26 1058 1053 1059
2761 26 1069 1065 1070
2762 26 1069 1065 1071
2763 26 1070 1065 1071
2764 26 1081 1077 1082
2765 26 1081 1077 1083
2766 26 1082 1077 1083
2767 26 1093 1089 1094
2768 26 1093 1089 1095
2769 26 1094 1089 1095
2770 26 1105 1101 1106
2771 26 1105 1101 1107
2772 26 1106 1101 1107
2773 26 1117 1113 1118
2774 26 1117 1113 1119
2775 26 1118 1113 1119
2776 26 1129 1125 1130
2777 26 1129 1125 1131
2778 26 1130 1125 1131
2779 26 1141 1137 1142
2780 26 1141 1137 1143
2781 26 1142 1137 1143
2782 26 1153 1149 1154
2783 26 1153 1149 1155
2784 26 1154 1149 1155
2785 26 1165 1161 1166
2786 26 1165 1161 1167
2787 26 1166 1161 1167
2788 26 1177 1173 1178
2789 26 1177 1173 1179
2790 26 1178 1173 1179
2791 26 1189 1185 1190
2792 26 1189 1185 1191
2793 26 1190 1185 1191
2794 26 1202 1197 1203
2795 26 1202 1197 1204
2796 26 1203 1197 1204
2797 26 1211 1205 1212
2798 26 1211 1205 1213
2799 26 1212 1205 1213
2800 26 1215 1210 1216
2801 26 1215 1210 1217
2802 26 1216 1210 1217
2803 26 1227 1223 1228
2804 26 1227 1223 1229
2805 26 1228 1223 1229
2806 26 1239 1235 1240
2807 26 1239 1235 1241
2808 26 1240 1235 1241
2809 26 1251 1247 1252
2810 26 1251 1247 1253
2811 26 1252 1247 1253
2812 26 1263 1259 1264
2813 26 1263 1259 1265
2814 26 1264 1259 1265
2815 26 1275 1271 1276
2816 26 1275 1271 1277
2817 26 1276 1271 1277
2818 26 1287 1283 1288
2819 26 1287 1283 1289
2820 26 1288 1283 1289
2821 26 1299 1295 1300
2822 26 1299 1295 1301
2823 26 1300 1295 1301
2824 26 1311 1307 1312
2825 26 1311 1307 1313
2826 26 1312 1307 1313
2827 26 1323 1319 1324
2828 26 1323 1319 1325
2829 26 1324 1319 1325
2830 26 1335 1331 1336
2831 26 1335 1331 1337
2832 26 1336 1331 1337
2833 26 1347 1343 1348
2834 26 1347 1343 1349
2835 26 1348 1343 1349
2836 26 1359 1355 1360
2837 26 1359 1355 1361
2838 26 1360 1355 1361
2839 26 1371 1367 1372
2840 26 1371 1367 1373
2841 26 1372 1367 1373
2842 26 1383 1379 1384
2843 26 1383 1379 1385
2844 26 1384 1379 1385
2845 26 1395 1391 1396
2846 26 1395 1391 1397
2847 26 1396 1391 1397
2848 26 1407 1403 1408
2849 26 1407 1403 1409
2850 26 1408 1403 1409
2851 26 1419 1415 1420
2852 26 1419 1415 1421
2853 26 1420 1415 1421
2854 26 1431 1427 1432
2855 26 1431 1427 1433
2856 26 1432 1427 1433
2857 26 1443 1439 1444
2858 26 1443 1439 1445
2859 26 1444 1439 1445
2860 26 1455 1451 1456
2861 26 1455 1451 1457
2862 26 1456 1451 1457
2863 26 1467 1463 1468
2864 26 1467 1463 1469
2865 26 1468 1463 1469
2866 26 1479 1475 1480
2867 26 1479 1475 1481
2868 26 1480 1475 1481
2869 26 1491 1487 1492
2870 26 1491 1487 1493
2871 26 1492 1487 1493
2872 26 1503 1499 1504
2873 26 1503 1499 1505
2874 26 1504 1499 1505
2875 26 1515 1511 1516
2876 26 1515 1511 1517
2877 26 1516 1511 1517
2878 26 1527 1523 1528
2879 26 1527 1523 1529
2880 26 1528 1523 1529
2881 26 1539 1535 1540
2882 26 1539 1535 1541
2883 26 1540 1535 1541
2884 26 1551 1547 1552
2885 26 1551 1547 1553
2886 26 1552 1547 1553
2887 26 1563 1559 1564
2888 26 1563 1559 1565
2889 26 1564 1559 1565
2890 26 1575 1571 1576
2891 26 1575 1571 1577
2892 26 1576 1571 1577
2893 26 1587 1583 1588
2894 26 1587 1583 1589
2895 26 1588 1583 1589
2896 26 1599 1595 1600
2897 26 1599 1595 1601
2898 26 1600 1595 1601
2899 26 1611 1607 1612
2900 26 1611 1607 1613
2901 26 1612 1607 1613
2902 26 1623 1619 1624
2903 26 1623 1619 1625
2904 26 1624 1619 1625
2905 26 1635 1631 1636
2906 26 1635 1631 1637
2907 26 1636 1631 1637
2908 26 1647 1643 1648
2909 26 1647 1643 1649
2910 26 1648 1643 1649
2911 26 1659 1655 1660
2912 26 1659 1655 1661
2913 26 1660 1655 1661
2914 26 1671 1667 1672
2915 26 1671 1667 1673
2916 26 1672 1667 1673
2917 26 1683 1679 1684
2918 26 1683 1679 1685
2919 26 1684 1679 1685
2920 26 1695 1691 1696
2921 26 1695 1691 1697
2922 26 1696 1691 1697
2923 26 1707 1703 1708
2924 26 1707 1703 1709
2925 26 1708 1703 1709
2926 26 1719 1715 1720
2927 26 1719 1715 1721
2928 26 1720 1715 1721
2929 26 1731 1727 1732
2930 26 1731 1727 1733
2931 26 1732 1727 1733
2932 26 1743 1739 1744
2933 26 1743 1739 1745
2934 26 1744 1739 1745
2935 26 1755 1751 1756
2936 26 1755 1751 1757
2937 26 1756 1751 1757
2938 26 1767 1763 1768
2939 26 1767 1763 1769
2940 26 1768 1763 1769
2941 26 1779 1775 1780
2942 26 1779 1775 1781
2943 26 1780 1775 1781
2944 26 1791 1787 1792
2945 26 1791 1787 1793
2946 26 1792 1787 1793
2947 26 1804 1799 1805
2948 26 1804 1799 1806
2949 26 1805 1799 1806
2950 26 1813 1807 1814
2951 26 1813 1807 1815
2952 26 1814 1807 1815
2953 26 1817 1812 1818
2954 26 1817 1812 1819
2955 26 1818 1812 1819
2956 26 1829 1825 1830
2957 26 1829 1825 1831
2958 26 1830 1825 1831
2959 26 1841 1837 1842
2960 26 1841 1837 1843
2961 26 1842 1837 1843
2962 26 1853 1849 1854
2963 26 1853 1849 1855
2964 26 1854 1849 1855
2965 26 1865 1861 1866
2966 26 1865 1861 1867
2967 26 1866 1861 1867
2968 26 1877 1873 1878
2969 26 1877 1873 1879
2970 26 1878 1873 1879
2971 26 1889 1885 1890
2972 26 1889 1885 1891
2973 26 1890 1885 1891
2974 26 1901 1897 1902
2975 26 1901 1897 1903
2976 26 1902 1897 1903
2977 26 1913 1909 1914
2978 26 1913 1909 1915
2979 26 1914 1909 1915
2980 26 1925 1921 1926
2981 26 1925 1921 1927
2982 26 1926 1921 1927
2983 26 1937 1933 1938
2984 26 1937 1933 1939
2985 26 1938 1933 1939
2986 26 1949 1945 1950
2987 26 1949 1945 1951
2988 26 1950 1945 1951
2989 26 1961 1957 1962
2990 26 1961 1957 1963
2991 26 1962 1957 1963
2992 26 1973 1969 1974
2993 26 1973 1969 1975
2994 26 1974 1969 1975
2995 26 1985 1981 1986
2996 26 1985 1981 1987
2997 26 1986 1981 1987
2998 26 1997 1993 1998
2999 26 1997 1993 1999
3000 26 1998 1993 1999
3001 26 2009 2005 2010
3002 26 2009 2005 2011
3003 26 2010 2005 2011
3004 26 2021 2017 2022
3005 26 2021 2017 2023
3006 26 2022 2017 2023
3007 26 2033 2029 2034
3008 26 2033 2029 2035
3009 26 2034 2029 2035
3010 26 2045 2041 2046
3011 26 2045 2041 2047
3012 26 2046 2041 2047
3013 26 2057 2053 2058
3014 26 2057 2053 2059
3015 26 2058 2053 2059
3016 26 2069 2065 2070
3017 26 2069 2065 2071
3018 26 2070 2065 2071
3019 26 2081 2077 2082
3020 26 2081 2077 2083
3021 26 2082 2077 2083
3022 26 2093 2089 2094
3023 26 2093 2089 2095
3024 26 2094 2089 2095
3025 26 2105 2101 2106
3026 26 2105 2101 2107
3027 26 2106 2101 2107
3028 26 2117 2113 2118
3029 26 2117 2113 2119
3030 26 2118 2113 2119
3031 26 2129 2125 2130
3032 26 2129 2125 2131
3033 26 2130 2125 2131
3034 26 2141 2137 2142
3035 26 2141 2137 2143
3036 26 2142 2137 2143
3037 26 2153 2149 2154
3038 26 2153 2149 2155
3039 26 2154 2149 2155
3040 26 2165 2161 2166
3041 26 2165 2161 2167
3042 26 2166 2161 2167
3043 26 2177 2173 2178
3044 26 2177 2173 2179
3045 26 2178 2173 2179
3046 26 2189 2185 2190
3047 26 2189 2185 2191
3048 26 2190 2185 2191
3049 26 2201 2197 2202
3050 26 2201 2197 2203
3051 26 2202 2197 2203
3052 26 2213 2209 2214
3053 26 2213 2209 2215
3054 26 2214 2209 2215
3055 26 2225 2221 2226
3056 26 2225 2221 2227
3057 26 2226 2221 2227
3058 26 2237 2233 2238
3059 26 2237 2233 2239
3060 26 2238 2233 2239
3061 26 2249 2245 2250
3062 26 2249 2245 2251
3063 26 2250 2245 2251
3064 26 2261 2257 2262
3065 26 2261 2257 2263
3066 26 2262 2257 2263
3067 26 2273 2269 2274
3068 26 2273 2269 2275
3069 26 2274 2269 2275
3070 26 2285 2281 2286
3071 26 2285 2281 2287
3072 26 2286 2281 2287
3073 26 2297 2293 2298
3074 26 2297 2293 2299
3075 26 2298 2293 2299
3076 26 2309 2305 2310
3077 26 2309 2305 2311
3078 26 2310 2305 2311
3079 26 2321 2317 2322
3080 26 2321 2317 2323
3081 26 2322 2317 2323
3082 26 2333 2329 2334
3083 26 2333 2329 2335
3084 26 2334 2329 2335
3085 26 2345 2341 2346
3086 26 2345 2341 2347
3087 26 2346 2341 2347
3088 26 2357 2353 2358
3089 26 2357 2353 2359
3090 26 2358 2353 2359
3091 26 2369 2365 2370
3092 26 2369 2365 2371
3093 26 2370 2365 2371
3094 26 2381 2377 2382
3095 26 2381 2377 2383
3096 26 2382 2377 2383
3097 26 2393 2389 2394
3098 26 2393 2389 2395
3099 26 2394 2389 2395
3100 26 2406 2401 2407
3101 26 2406 2401 2408
3102 26 2407 2401 2408
3103 26 2415 2409 2416
3104 26 2415 2409 2417
3105 26 2416 2409 2417
3106 26 2419 2414 2420
3107 26 2419 2414 2421
3108 26 2420 2414 2421
3109 26 2431 2427 2432
3110 26 2431 2427 2433
3111 26 2432 2427 2433
3112 26 2443 2439 2444
3113 26 2443 2439 2445
3114 26 2444 2439 2445
3115 26 2455 2451 2456
3116 26 2455 2451 2457
3117 26 2456 2451 2457
3118 26 2467 2463 2468
3119 26 2467 2463 2469
3120 26 2468 2463 2469
3121 26 2479 2475 2480
3122 26 2479 2475 2481
3123 26 2480 2475 2481
3124 26 2491 2487 2492
3125 26 2491 2487 2493
3126 26 2492 2487 2493
3127 26 2503 2499 2504
3128 26 2503 2499 2505
3129 26 2504 2499 2505
3130 26 2515 2511 2516
3131 26 2515 2511 2517
3132 26 2516 2511 2517
3133 26 2527 2523 2528
3134 26 2527 2523 2529
3135 26 2528 2523 2529
3136 26 2539 2535 2540
3137 26 2539 2535 2541
3138 26 2540 2535 2541
3139 26 2551 2547 2552
3140 26 2551 2547 2553
3141 26 2552 2547 2553
3142 26 2563 2559 2564
3143 26 2563 2559 2565
3144 26 2564 2559 2565
3145 26 2575 2571 2576
3146 26 2575 2571 2577
3147 26 2576 2571 2577
3148 26 2587 2583 2588
3149 26 2587 2583 2589
3150 26 2588 2583 2589
3151 26 2599 2595 2600
3152 26 2599 2595 2601
3153 26 2600 2595 2601
3154 26 2611 2607 2612
3155 26 2611 2607 2613
3156 26 2612 2607 2613
3157 26 2623 2619 2624
3158 26 2623 2619 2625
3159 26 2624 2619 2625
3160 26 2635 2631 2636
3161 26 2635 2631 2637
3162 26 2636 2631 2637
3163 26 2647 2643 2648
3164 26 2647 2643 2649
3165 26 2648 2643 2649
3166 26 2659 2655 2660
3167 26 2659 2655 2661
3168 26 2660 2655 2661
3169 26 2671 2667 2672
3170 26 2671 2667 2673
3171 26 2672 2667 2673
3172 26 2683 2679 2684
3173 26 2683 2679 2685
3174 26 2684 2679 2685
3175 26 2695 2691 2696
3176 26 2695 2691 2697
3177 26 2696 2691 2697
3178 26 2707 2703 2708
3179 26 2707 2703 2709
3180 26 2708 2703 2709
3181 26 2719 2715 2720
3182 26 2719 2715 2721
3183 26 2720 2715 2721
3184 26 2731 2727 2732
3185 26 2731 2727 2733
3186 26 2732 2727 2733
3187 26 2743 2739 2744
3188 26 2743 2739 2745
3189 26 2744 2739 2745
3190 26 2755 2751 2756
3191 26 2755 2751 2757
3192 26 2756 2751 2757
3193 26 2767 2763 2768
3194 26 2767 2763 2769
3195 26 2768 2763 2769
3196 26 2779 2775 2780
3197 26 2779 2775 2781
3198 26 2780 2775 2781
3199 26 2791 2787 2792
3200 26 2791 2787 2793
3201 26 2792 2787 2793
3202 26 2803 2799 2804
3203 26 2803 2799 2805
3204 26 2804 2799 2805
3205 26 2815 2811 2816
3206 26 2815 2811 2817
3207 26 2816 2811 2817
3208 26 2827 2823 2828
3209 26 2827 2823 2829
3210 26 2828 2823 2829
3211 26 2839 2835 2840
3212 26 2839 2835 2841
3213 26 2840 2835 2841
3214 26 2851 2847 2852
3215 26 2851 2847 2853
3216 26 2852 2847 2853
3217 26 2863 2859 2864
3218 26 2863 2859 2865
3219 26 2864 2859 2865
3220 26 2875 2871 2876
3221 26 2875 2871 2877
3222 26 2876 2871 2877
3223 26 2887 2883 2888
3224 26 2887 2883 2889
3225 26 2888 2883 2889
3226 26 2899 2895 2900
3227 26 2899 2895 2901
3228 26 2900 2895 2901
3229 26 2911 2907 2912
3230 26 2911 2907 2913
3231 26 2912 2907 2913
3232 26 2923 2919 2924
3233 26 2923 2919 2925
3234 26 2924 2919 2925
3235 26 2935 2931 2936
3236 26 2935 2931 2937
3237 26 2936 2931 2937
3238 26 2947 2943 2948
3239 26 2947 2943 2949
3240 26 2948 2943 2949
3241 26 2959 2955 2960
3242 26 2959 2955 2961
3243 26 2960 2955 2961
3244 26 2971 2967 2972
3245 26 2971 2967 2973
3246 26 2972 2967 2973
3247 26 2983 2979 2984
3248 26 2983 2979 2985
3249 26 2984 2979 2985
3250 26 2995 2991 2996
3251 26 2995 2991 2997
3252 26 2996 2991 2997
3253 26 3008 3003 3009
3254 26 3008 3003 3010
3255 26 3009 3003 3010
3256 26 3017 3011 3018
3257 26 3017 3011 3019
3258 26 3018 3011 3019
3259 26 3021 3016 3022
3260 26 3021 3016 3023
3261 26 3022 3016 3023
3262 26 3033 3029 3034
3263 26 3033 3029 3035
3264 26 3034 3029 3035
3265 26 3045 3041 3046
3266 26 3045 3041 3047
3267 26 3046 3041 3047
3268 26 3057 3053 3058
3269 26 3057 3053 3059
3270 26 3058 3053 3059
3271 26 3069 3065 3070
3272 26 3069 3065 3071
3273 26 3070 3065 3071
3274 26 3081 3077 3082
3275 26 3081 3077 3083
3276 26 3082 3077 3083
3277 26 3093 3089 3094
3278 26 3093 3089 3095
3279 26 3094 3089 3095
3280 26 3105 3101 3106
3281 26 3105 3101 3107
3282 26 3106 3101 3107
3283 26 3117 3113 3118
3284 26 3117 3113 3119
3285 26 3118 3113 3119
3286 26 3129 3125 3130
3287 26 3129 3125 3131
3288 26 3130 3125 3131
3289 26 3141 3137 3142
3290 26 3141 3137 3143
3291 26 3142 3137 3143
3292 26 3153 3149 3154
3293 26 3153 3149 3155
3294 26 3154 3149 3155
3295 26 3165 3161 3166
3296 26 3165 3161 3167
3297 26 3166 3161 3167
3298 26 3177 3173 3178
3299 26 3177 3173 3179
3300 26 3178 3173 3179
3301 26 3189 3185 3190
3302 26 3189 3185 3191
3303 26 3190 3185 3191
3304 26 3201 3197 3202
3305 26 3201 3197 3203
3306 26 3202 3197 3203
3307 26 3213 3209 3214
3308 26 3213 3209 3215
3309 26 3214 3209 3215
3310 26 3225 3221 3226
3311 26 3225 3221 3227
3312 26 3226 3221 3227
3313 26 3237 3233 3238
3314 26 3237 3233 3239
3315 26 3238 3233 3239
3316 26 3249 3245 3250
3317 26 3249 3245 3251
3318 26 3250 3245 3251
3319 26 3261 3257 3262
3320 26 3261 3257 3263
3321 26 3262 3257 3263
3322 26 3273 3269 3274
3323 26 3273 3269 3275
3324 26 3274 3269 3275
3325 26 3285 3281 3286
3326 26 3285 3281 3287
3327 26 3286 3281 3287
3328 26 3297 3293 3298
3329 26 3297 3293 3299
3330 26 3298 3293 3299
3331 26 3309 3305 3310
3332 26 3309 3305 3311
3333 26 3310 3305 3311
3334 26 3321 3317 3322
3335 26 3321 3317 3323
3336 26 3322 3317 3323
3337 26 3333 3329 3334
3338 26 3333 3329 3335
3339 26 3334 3329 3335
3340 26 3345 3341 3346
3341 26 3345 3341 3347
3342 26 3346 3341 3347
3343 26 3357 3353 3358
3344 26 3357 3353 3359
3345 26 3358 3353 3359
3346 26 3369 3365 3370
3347 26 3369 3365 3371
3348 26 3370 3365 3371
3349 26 3381 3377 3382
3350 26 3381 3377 3383
3351 26 3382 3377 3383
3352 26 3393 3389 3394
3353 26 3393 3389 3395
3354 26 3394 3389 3395
3355 26 3405 3401 3406
3356 26 3405 3401 3407
3357 26 3406 3401 3407
3358 26 3417 3413 3418
3359 26 3417 3413 3419
3360 26 3418 3413 3419
3361 26 3429 3425 3430
3362 26 3429 3425 3431
3363 26 3430 3425 3431
3364 26 3441 3437 3442
3365 26 3441 3437 3443
3366 26 3442 3437 3443
3367 26 3453 3449 3454
3368 26 3453 3449 3455
3369 26 3454 3449 3455
3370 26 3465 3461 3466
3371 26 3465 3461 3467
3372 26 3466 3461 3467
3373 26 3477 3473 3478
3374 26 3477 3473 3479
3375 26 3478 3473 3479
3376 26 3489 3485 3490
3377 26 3489 3485 3491
3378 26 3490 3485 3491
3379 26 3501 3497 3502
3380 26 3501 3497 3503
3381 26 3502 3497 3503
3382 26 3513 3509 3514
3383 26 3513 3509 3515
3384 26 3514 3509 3515
3385 26 3525 3521 3526
3386 26 3525 3521 3527
3387 26 3526 3521 3527
3388 26 3537 3533 3538
3389 26 3537 3533 3539
3390 26 3538 3533 3539
3391 26 3549 3545 3550
3392 26 3549 3545 3551
3393 26 3550 3545 3551
3394 26 3561 3557 3562
3395 26 3561 3557 3563
3396 26 3562 3557 3563
3397 26 3573 3569 3574
3398 26 3573 3569 3575
3399 26 3574 3569 3575
3400 26 3585 3581 3586
3401 26 3585 3581 3587
3402 26 3586 3581 3587
3403 26 3597 3593 3598
3404 26 3597 3593 3599
3405 26 3598 3593 3599
3406 26 3610 3605 3611
3407 26 3610 3605 3612
3408 26 3611 3605 3612
3409 26 3619 3613 3620
3410 26 3619 3613 3621
3411 26 3620 3613 3621
3412 26 3623 3618 3624
3413 26 3623 3618 3625
3414 26 3624 3618 3625
3415 26 3635 3631 3636
3416 26 3635 3631 3637
3417 26 3636 3631 3637
3418 26 3647 3643 3648
3419 26 3647 3643 3649
3420 26 3648 3643 3649
3421 26 3659 3655 3660
3422 26 3659 3655 3661
3423 26 3660 3655 3661
3424 26 3671 3667 3672
3425 26 3671 3667 3673
3426 26 3672 3667 3673
3427 26 3683 3679 3684
3428 26 3683 3679 3685
3429 26 3684 3679 3685
3430 26 3695 3691 3696
3431 26 3695 3691 3697
3432 26 3696 3691 3697
3433 26 3707 3703 3708
3434 26 3707 3703 3709
3435 26 3708 3703 3709
3436 26 3719 3715 3720
3437 26 3719 3715 3721
3438 26 3720 3715 3721
3439 26 3731 3727 3732
3440 26 3731 3727 3733
3441 26 3732 3727 3733
3442 26 3743 3739 3744
3443 26 3743 3739 3745
3444 26 3744 3739 3745
3445 26 3755 3751 3756
3446 26 3755 3751 3757
3447 26 3756 3751 3757
3448 26 3767 3763 3768
3449 26 3767 3763 3769
3450 26 3768 3763 3769
3451 26 3779 3775 3780
3452 26 3779 3775 3781
3453 26 3780 3775 3781
3454 26 3791 3787 3792
3455 26 3791 3787 3793
3456 26 3792 3787 3793
3457 26 3803 3799 3804
3458 26 3803 3799 3805
3459 26 3804 3799 3805
3460 26 3815 3811 3816
3461 26 3815 3811 3817
3462 26 3816 3811 3817
3463 26 3827 3823 3828
3464 26 3827 3823 3829
3465 26 3828 3823 3829
3466 26 3839 3835 3840
3467 26 3839 3835 3841
3468 26 3840 3835 3841
3469 26 3851 3847 3852
3470 26 3851 3847 3853
3471 26 3852 3847 3853
3472 26 3863 3859 3864
3473 26 3863 3859 3865
3474 26 3864 3859 3865
3475 26 3875 3871 3876
3476 26 3875 3871 3877
3477 26 3876 3871 3877
3478 26 3887 3883 3888
3479 26 3887 3883 3889
3480 26 3888 3883 3889
3481 26 3899 3895 3900
3482 26 3899 3895 3901
3483 26 3900 3895 3901
3484 26 3911 3907 3912
3485 26 3911 3907 3913
3486 26 3912 3907 3913
3487 26 3923 3919 3924
3488 26 3923 3919 3925
3489 26 3924 3919 3925
3490 26 3935 3931 3936
3491 26 3935 3931 3937
3492 26 3936 3931 3937
3493 26 3947 3943 3948
3494 26 3947 3943 3949
3495 26 3948 3943 3949
3496 26 3959 3955 3960
3497 26 3959 3955 3961
3498 26 3960 3955 3961
3499 26 3971 3967 3972
3500 26 3971 3967 3973
3501 26 3972 3967 3973
3502 26 3983 3979 3984
3503 26 3983 3979 3985
3504 26 3984 3979 3985
3505 26 3995 3991 3996
3506 26 3995 3991 3997
3507 26 3996 3991 3997
3508 26 4007 4003 4008
3509 26 4007 4003 4009
3510 26 4008 4003 4009
3511 26 4019 4015 4020
3512 26 4019 4015 4021
3513 26 4020 4015 4021
3514 26 4031 4027 4032
3515 26 4031 4027 4033
3516 26 4032 4027 4033
3517 26 4043 4039 4044
3518 26 4043 4039 4045
3519 26 4044 4039 4045
3520 26 4055 4051 4056
3521 26 4055 4051 4057
3522 26 4056 4051 4057
3523 26 4067 4063 4068
3524 26 4067 4063 4069
3525 26 4068 4063 4069
3526 26 4079 4075 4080
3527 26 4079 4075 4081
3528 26 4080 4075 4081
3529 26 4091 4087 4092
3530 26 4091 4087 4093
3531 26 4092 4087 4093
3532 26 4103 4099 4104
3533 26 4103 4099 4105
3534 26 4104 4099 4105
3535 26 4115 4111 4116
3536 26 4115 4111 4117
3537 26 4116 4111 4117
3538 26 4127 4123 4128
3539 26 4127 4123 4129
3540 26 4128 4123 4129
3541 26 4139 4135 4140
3542 26 4139 4135 4141
3543 26 4140 4135 4141
3544 26 4151 4147 4152
3545 26 4151 4147 4153
3546 26 4152 4147 4153
3547 26 4163 4159 4164
3548 26 4163 4159 4165
3549 26 4164 4159 4165
3550 26 4175 4171 4176
3551 26 4175 4171 4177
3552 26 4176 4171 4177
3553 26 4187 4183 4188
3554 26 4187 4183 4189
3555 26 4188 4183 4189
3556 26 4199 4195 4200
3557 26 4199 4195 4201
3558 26 4200 4195 4201
3559 26 4212 4207 4213
3560 26 4212 4207 4214
3561 26 4213 4207 4214
3562 26 4221 4215 4222
3563 26 4221 4215 4223
3564 26 4222 4215 4223
3565 26 4225 4220 4226
3566 26 4225 4220 4227
3567 26 4226 4220 4227
3568 26 4237 4233 4238
3569 26 4237 4233 4239
3570 26 4238 4233 4239
3571 26 4249 4245 4250
3572 26 4249 4245 4251
3573 26 4250 4245 4251
3574 26 4261 4257 4262
3575 26 4261 4257 4263
3576 26 4262 4257 4263
3577 26 4273 4269 4274
3578 26 4273 4269 4275
3579 26 4274 4269 4275
3580 26 4285 4281 4286
3581 26 4285 4281 4287
3582 26 4286 4281 4287
3583 26 4297 4293 4298
3584 26 4297 4293 4299
3585 26 4298 4293 4299
3586 26 4309 4305 4310
3587 26 4309 4305 4311
3588 26 4310 4305 4311
3589 26 4321 4317 4322
3590 26 4321 4317 4323
3591 26 4322 4317 4323
3592 26 4333 4329 4334
3593 26 4333 4329 4335
3594 26 4334 4329 4335
3595 26 4345 4341 4346
3596 26 4345 4341 4347
3597 26 4346 4341 4347
3598 26 4357 4353 4358
3599 26 4357 4353 4359
3600 26 4358 4353 4359
3601 26 4369 4365 4370
3602 26 4369 4365 4371
3603 26 4370 4365 4371
3604 26 4381 4377 4382
3605 26 4381 4377 4383
3606 26 4382 4377 4383
3607 26 4393 4389 4394
3608 26 4393 4389 4395
3609 26 4394 4389 4395
3610 26 4405 4401 4406
3611 26 4405 4401 4407
3612 26 4406 4401 4407
3613 26 4417 4413 4418
3614 26 4417 4413 4419
3615 26 4418 4413 4419
3616 26 4429 4425 4430
3617 26 4429 4425 4431
3618 26 4430 4425 4431
3619 26 4441 4437 4442
3620 26 4441 4437 4443
3621 26 4442 4437 4443
3622 26 4453 4449 4454
3623 26 4453 4449 4455
3624 26 4454 4449 4455
3625 26 4465 4461 4466
3626 26 4465 4461 4467
3627 26 4466 4461 4467
3628 26 4477 4473 4478
3629 26 4477 4473 4479
3630 26 4478 4473 4479
3631 26 4489 4485 4490
3632 26 4489 4485 4491
3633 26 4490 4485 4491
3634 26 4501 4497 4502
3635 26 4501 4497 4503
3636 26 4502 4497 4503
3637 26 4513 4509 4514
3638 26 4513 4509 4515
3639 26 4514 4509 4515
3640 26 4525 4521 4526
3641 26 4525 4521 4527
3642 26 4526 4521 4527
3643 26 4537 4533 4538
3644 26 4537 4533 4539
3645 26 4538 4533 4539
3646 26 4549 4545 4550
3647 26 4549 4545 4551
3648 26 4550 4545 4551
3649 26 4561 4557 4562
3650 26 4561 4557 4563
3651 26 4562 4557 4563
3652 26 4573 4569 4574
3653 26 4573 4569 4575
3654 26 4574 4569 4575
3655 26 4585 4581 4586
3656 26 4585 4581 4587
3657 26 4586 4581 4587
3658 26 4597 4593 4598
3659 26 4597 4593 4599
3660 26 4598 4593 4599
3661 26 4609 4605 4610
3662 26 4609 4605 4611
3663 26 4610 4605 4611
3664 26 4621 4617 4622
3665 26 4621 4617 4623
3666 26 4622 4617 4623
3667 26 4633 4629 4634
3668 26 4633 4629 4635
3669 26 4634 4629 4635
3670 26 4645 4641 4646
3671 26 4645 4641 4647
3672 26 4646 4641 4647
3673 26 4657 4653 4658
3674 26 4657 4653 4659
3675 26 4658 4653 4659
3676 26 4669 4665 4670
3677 26 4669 4665 4671
3678 26 4670 4665 4671
3679 26 4681 4677 4682
3680 26 4681 4677 4683
3681 26 4682 4677 4683
3682 26 4693 4689 4694
3683 26 4693 4689 4695
3684 26 4694 4689 4695
3685 26 4705 4701 4706
3686 26 4705 4701 4707
3687 26 4706 4701 4707
3688 26 4717 4713 4718
3689 26 4717 4713 4719
3690 26 4718 4713 4719
3691 26 4729 4725 4730
3692 26 4729 4725 4731
3693 26 4730 4725 4731
3694 26 4741 4737 4742
3695 26 4741 4737 4743
3696 26 4742 4737 4743
3697 26 4753 4749 4754
3698 26 4753 4749 4755
3699 26 4754 4749 4755
3700 26 4765 4761 4766
3701 26 4765 4761 4767
3702 26 4766 4761 4767
3703 26 4777 4773 4778
3704 26 4777 4773 4779
3705 26 4778 4773 4779
3706 26 4789 4785 4790
3707 26 4789 4785 4791
3708 26 4790 4785 4791
3709 26 4801 4797 4802
3710 26 4801 4797 4803
3711 26 4802 4797 4803
3712 26 4814 4809 4815
3713 26 4814 4809 4816
3714 26 4815 4809 4816
3715 26 4823 4817 4824
3716 26 4823 4817 4825
3717 26 4824 4817 4825
3718 26 4827 4822 4828
3719 26 4827 4822 4829
3720 26 4828 4822 4829
3721 26 4839 4835 4840
3722 26 4839 4835 4841
3723 26 4840 4835 4841
3724 26 4851 4847 4852
3725 26 4851 4847 4853
3726 26 4852 4847 4853
3727 26 4863 4859 4864
3728 26 4863 4859 4865
3729 26 4864 4859 4865
3730 26 4875 4871 4876
3731 26 4875 4871 4877
3732 26 4876 4871 4877
3733 26 4887 4883 4888
3734 26 4887 4883 4889
3735 26 4888 4883 4889
3736 26 4899 4895 4900
3737 26 4899 4895 4901
3738 26 4900 4895 4901
3739 26 4911 4907 4912
3740 26 4911 4907 4913
3741 26 4912 4907 4913
3742 26 4923 4919 4924
3743 26 4923 4919 4925
3744 26 4924 4919 4925
3745 26 4935 4931 4936
3746 26 4935 4931 4937
3747 26 4936 4931 4937
3748 26 4947 4943 4948
3749 26 4947 4943 4949
3750 26 4948 4943 4949
3751 26 4959 4955 4960
3752 26 4959 4955 4961
3753 26 4960 4955 4961
3754 26 4971 4967 4972
3755 26 4971 4967 4973
3756 26 4972 4967 4973
3757 26 4983 4979 4984
3758 26 4983 4979 4985
3759 26 4984 4979 4985
3760 26 4995 4991 4996
3761 26 4995 4991 4997
3762 26 4996 4991 4997
3763 26 5007 5003 5008
3764 26 5007 5003 5009
3765 26 5008 5003 5009
3766 26 5019 5015 5020
3767 26 5019 5015 5021
3768 26 5020 5015 5021
3769 26 5031 5027 5032
3770 26 5031 5027 5033
3771 26 5032 5027 5033
3772 26 5043 5039 5044
3773 26 5043 5039 5045
3774 26 5044 5039 5045
3775 26 5055 5051 5056
3776 26 5055 5051 5057
3777 26 5056 5051 5057
3778 26 5067 5063 5068
3779 26 5067 5063 5069
3780 26 5068 5063 5069
3781 26 5079 5075 5080
3782 26 5079 5075 5081
3783 26 5080 5075 5081
3784 26 5091 5087 5092
3785 26 5091 5087 5093
3786 26 5092 5087 5093
3787 26 5103 5099 5104
3788 26 5103 5099 5105
3789 26 5104 5099 5105
3790 26 5115 5111 5116
3791 26 5115 5111 5117
3792 26 5116 5111 5117
3793 26 5127 5123 5128
3794 26 5127 5123 5129
3795 26 5128 5123 5129
3796 26 5139 5135 5140
3797 26 5139 5135 5141
3798 26 5140 5135 5141
3799 26 5151 5147 5152
3800 26 5151 5147 5153
3801 26 5152 5147 5153
3802 26 5163 5159 5164
3803 26 5163 5159 5165
3804 26 5164 5159 5165
3805 26 5175 5171 5176
3806 26 5175 5171 5177
3807 26 5176 5171 5177
3808 26 5187 5183 5188
3809 26 5187 5183 5189
3810 26 5188 5183 5189
3811 26 5199 5195 5200
3812 26 5199 5195 5201
3813 26 5200 5195 5201
3814 26 5211 5207 5212
3815 26 5211 5207 5213
3816 26 5212 5207 5213
3817 26 5223 5219 5224
3818 26 5223 5219 5225
3819 26 5224 5219 5225
3820 26 5235 5231 5236
3821 26 5235 5231 5237
3822 26 5236 5231 5237
3823 26 5247 5243 5248
3824 26 5247 5243 5249
3825 26 5248 5243 5249
3826 26 5259 5255 5260
3827 26 5259 5255 5261
3828 26 5260 5255 5261
3829 26 5271 5267 5272
3830 26 5271 5267 5273
3831 26 5272 5267 5273
3832 26 5283 5279 5284
3833 26 5283 5279 5285
3834 26 5284 5279 5285
3835 26 5295 5291 5296
3836 26 5295 5291 5297
3837 26 5296 5291 5297
3838 26 5307 5303 5308
3839 26 5307 5303 5309
3840 26 5308 5303 5309
3841 26 5319 5315 5320
3842 26 5319 5315 5321
3843 26 5320 5315 5321
3844 26 5331 5327 5332
3845 26 5331 5327 5333
3846 26 5332 5327 5333
3847 26 5343 5339 5344
3848 26 5343 5339 5345
3849 26 5344 5339 5345
3850 26 5355 5351 5356
3851 26 5355 5351 5357
3852 26 5356 5351 5357
3853 26 5367 5363 5368
3854 26 5367 5363 5369
3855 26 5368 5363 5369
3856 26 5379 5375 5380
3857 26 5379 5375 5381
3858 26 5380 5375 5381
3859 26 5391 5387 5392
3860 26 5391 5387 5393
3861 26 5392 5387 5393
3862 26 5403 5399 5404
3863 26 5403 5399 5405
3864 26 5404 5399 5405
3865 26 5416 5411 5417
3866 26 5416 5411 5418
3867 26 5417 5411 5418
3868 26 5425 5419 5426
3869 26 5425 5419 5427
3870 26 5426 5419 5427
3871 26 5429 5424 5430
3872 26 5429 5424 5431
3873 26 5430 5424 5431
3874 26 5441 5437 5442
3875 26 5441 5437 5443
3876 26 5442 5437 5443
3877 26 5453 5449 5454
3878 26 5453 5449 5455
3879 26 5454 5449 5455
3880 26 5465 5461 5466
3881 26 5465 5461 5467
3882 26 5466 5461 5467
3883 26 5477 5473 5478
3884 26 5477 5473 5479
3885 26 5478 5473 5479
3886 26 5489 5485 5490
3887 26 5489 5485 5491
3888 26 5490 5485 5491
3889 26 5501 5497 5502
3890 26 5501 5497 5503
3891 26 5502 5497 5503
3892 26 5513 5509 5514
3893 26 5513 5509 5515
3894 26 5514 5509 5515
3895 26 5525 5521 5526
3896 26 5525 5521 5527
3897 26 5526 5521 5527
3898 26 5537 5533 5538
3899 26 5537 5533 5539
3900 26 5538 5533 5539
3901 26 5549 5545 5550
3902 26 5549 5545 5551
3903 26 5550 5545 5551
3904 26 5561 5557 5562
3905 26 5561 5557 5563
3906 26 5562 5557 5563
3907 26 5573 5569 5574
3908 26 5573 5569 5575
3909 26 5574 5569 5575
3910 26 5585 5581 5586
3911 26 5585 5581 5587
3912 26 5586 5581 5587
3913 26 5597 5593 5598
3914 26 5597 5593 5599
3915 26 5598 5593 5599
3916 26 5609 5605 5610
3917 26 5609 5605 5611
3918 26 5610 5605 5611
3919 26 5621 5617 5622
3920 26 5621 5617 5623
3921 26 5622 5617 5623
3922 26 5633 5629 5634
3923 26 5633 5629 5635
3924 26 5634 5629 5635
3925 26 5645 5641 5646
3926 26 5645 5641 5647
3927 26 5646 5641 5647
3928 26 5657 5653 5658
3929 26 5657 5653 5659
3930 26 5658 5653 5659
3931 26 5669 5665 5670
3932 26 5669 5665 5671
3933 26 5670 5665 5671
3934 26 5681 5677 5682
3935 26 5681 5677 5683
3936 26 5682 5677 5683
3937 26 5693 5689 5694
3938 26 5693 5689 5695
3939 26 5694 5689 5695
3940 26 5705 5701 5706
3941 26 5705 5701 5707
3942 26 5706 5701 5707
3943 26 5717 5713 5718
3944 26 5717 5713 5719
3945 26 5718 5713 5719
3946 26 5729 5725 5730
3947 26 5729 5725 5731
3948 26 5730 5725 5731
3949 26 5741 5737 5742
3950 26 5741 5737 5743
3951 26 5742 5737 5743
3952 26 5753 5749 5754
3953 26 5753 5749 5755
3954 26 5754 5749 5755
3955 26 5765 5761 5766
3956 26 5765 5761 5767
3957 26 5766 5761 5767
3958 26 5777 5773 5778
3959 26 5777 5773 5779
3960 26 5778 5773 5779
3961 26 5789 5785 5790
3962 26 5789 5785 5791
3963 26 5790 5785 5791
3964 26 5801 5797 5802
3965 26 5801 5797 5803
3966 26 5802 5797 5803
3967 26 5813 5809 5814
3968 26 5813 5809 5815
3969 26 5814 5809 5815
3970 26 5825 5821 5826
3971 26 5825 5821 5827
3972 26 5826 5821 5827
3973 26 5837 5833 5838
3974 26 5837 5833 5839
3975 26 5838 5833 5839
3976 26 5849 5845 5850
3977 26 5849 5845 5851
3978 26 5850 5845 5851
3979 26 5861 5857 5862
3980 26 5861 5857 5863
3981 26 5862 5857 5863
3982 26 5873 5869 5874
3983 26 5873 5869 5875
3984 26 5874 5869 5875
3985 26 5885 5881 5886
3986 26 5885 5881 5887
3987 26 5886 5881 5887
3988 26 5897 5893 5898
3989 26 5897 5893 5899
3990 26 5898 5893 5899
3991 26 5909 5905 5910
3992 26 5909 5905 5911
3993 26 5910 5905 5911
3994 26 5921 5917 5922
3995 26 5921 5917 5923
3996 26 5922 5917 5923
3997 26 5933 5929 5934
3998 26 5933 5929 5935
3999 26 5934 5929 5935
4000 26 5945 5941 5946
4001 26 5945 5941 5947
4002 26 5946 5941 5947
4003 26 5957 5953 5958
4004 26 5957 5953 5959
4005 26 5958 5953 5959
4006 26 5969 5965 5970
4007 26 5969 5965 5971
4008 26 5970 5965 5971
4009 26 5981 5977 5982
4010 26 5981 5977 5983
4011 26 5982 5977 5983
4012 26 5993 5989 5994
4013 26 5993 5989 5995
4014 26 5994 5989 5995
4015 26 6005 6001 6006
4016 26 6005 6001 6007
4017 26 6006 6001 6007
4018 26 6018 6013 6019
4019 26 6018 6013 6020
4020 26 6019 6013 6020
4021 28 20 14 21
4022 28 32 26 33
4023 28 44 38 45
4024 28 56 50 57
4025 28 68 62 69
4026 28 80 74 81
4027 28 92 86 93
4028 28 104 98 105
4029 28 116 110 117
4030 28 128 122 129
4031 28 140 134 141
4032 28 152 146 153
4033 28 164 158 165
4034 28 176 170 177
4035 28 188 182 189
4036 28 200 194 201
4037 28 212 206 213
4038 28 224 218 225
4039 28 236 230 237
4040 28 248 242 249
4041 28 260 254 261
4042 28 272 266 273
4043 28 284 278 285
4044 28 296 290 297
4045 28 308 302 309
4046 28 320 314 321
4047 28 332 326 333
4048 28 344 338 345
4049 28 356 350 357
4050 28 368 362 369
4051 28 380 374 381
4052 28 392 386 393
4053 28 404 398 405
4054 28 416 410 417
4055 28 428 422 429
4056 28 440 434 441
4057 28 452 446 453
4058 28 464 458 465
4059 28 476 470 477
4060 28 488 482 489
4061 28 500 494 501
4062 28 512 506 513
4063 28 524 518 525
4064 28 536 530 537
4065 28 548 542 549
4066 28 560 554 561
4067 28 572 566 573
4068 28 584 578 585
4069 28 596 590 597
4070 28 622 616 623
4071 28 634 628 635
4072 28 646 640 647
4073 28 658 652 659
4074 28 670 664 671
4075 28 682 676 683
4076 28 694 688 695
4077 28 706 700 707
4078 28 718 712 719
4079 28 730 724 731
4080 28 742 736 743
4081 28 754 748 755
4082 28 766 760 767
4083 28 778 772 779
4084 28 790 784 791
4085 28 802 796 803
4086 28 814 808 815
4087 28 826 820 827
4088 28 838 832 839
4089 28 850 844 851
4090 28 862 856 863
4091 28 874 868 875
4092 28 886 880 887
4093 28 898 892 899
4094 28 910 904 911
4095 28 922 916 923
4096 28 934 928 935
4097 28 946 940 947
4098 28 958 952 959
4099 28 970 964 971
4100 28 982 976 983
4101 28 994 988 995
4102 28 1006 1000 1007
4103 28 1018 1012 1019
4104 28 1030 1024 1031
4105 28 1042 1036 1043
4106 28 1054 1048 1055
4107 28 1066 1060 1067
4108 28 1078 1072 1079
4109 28 1090 1084 1091
4110 28 1102 1096 1103
4111 28 1114 1108 1115
4112 28 1126 1120 1127
4113 28 1138 1132 1139
4114 28 1150 1144 1151
4115 28 1162 1156 1163
4116 28 1174 1168 1175
4117 28 1186 1180 1187
4118 28 1198 1192 1199
4119 28 1224 1218 1225
4120 28 1236 1230 1237
4121 28 1248 1242 1249
4122 28 1260 1254 1261
4123 28 1272 1266 1273
4124 28 1284 1278 1285
4125 28 1296 1290 1297
4126 28 1308 1302 1309
4127 28 1320 1314 1321
4128 28 1332 1326 1333
4129 28 1344 1338 1345
4130 28 1356 1350 1357
4131 28 1368 1362 1369
4132 28 1380 1374 1381
4133 28 1392 1386 1393
4134 28 1404 1398 1405
4135 28 1416 1410 1417
4136 28 1428 1422 1429
4137 28 1440 1434 1441
4138 28 1452 1446 1453
4139 28 1464 1458 1465
4140 28 1476 1470 1477
4141 28 1488 1482 1489
4142 28 1500 1494 1501
4143 28 1512 1506 1513
4144 28 1524 1518 1525
4145 28 1536 1530 1537
4146 28 1548 1542 1549
4147 28 1560 1554 1561
4148 28 1572 1566 1573
4149 28 1584 1578 1585
4150 28 1596 1590 1597
4151 28 1608 1602 1609
4152 28 1620 1614 1621
4153 28 1632 1626 1633
4154 28 1644 1638 1645
4155 28 1656 1650 1657
4156 28 1668 1662 1669
4157 28 1680 1674 1681
4158 28 1692 1686 1693
4159 28 1704 1698 1705
4160 28 1716 1710 1717
4161 28 1728 1722 1729
4162 28 1740 1734 1741
4163 28 1752 1746 1753
4164 28 1764 1758 1765
4165 28 1776 1770 1777
4166 28 1788 1782 1789
4167 28 1800 1794 1801
4168 28 1826 1820 1827
4169 28 1838 1832 1839
4170 28 1850 1844 1851
4171 28 1862 1856 1863
4172 28 1874 1868 1875
4173 28 1886 1880 1887
4174 28 1898 1892 1899
4175 28 1910 1904 1911
4176 28 1922 1916 1923
4177 28 1934 1928 1935
4178 28 1946 1940 1947
4179 28 1958 1952 1959
4180 28 1970 1964 1971
4181 28 1982 1976 1983
4182 28 1994 1988 1995
4183 28 2006 2000 2007
4184 28 2018 2012 2019
4185 28 2030 2024 2031
4186 28 2042 2036 2043
4187 28 2054 2048 2055
4188 28 2066 2060 2067
4189 28 2078 2072 2079
4190 28 2090 2084 2091
4191 28 2102 2096 2103
4192 28 2114 2108 2115
4193 28 2126 2120 2127
4194 28 2138 2132 2139
4195 28 2150 2144 2151
4196 28 2162 2156 2163
4197 28 2174 2168 2175
4198 28 2186 2180 2187
4199 28 2198 2192 2199
4200 28 2210 2204 2211
4201 28 2222 2216 2223
4202 28 2234 2228 2235
4203 28 2246 2240 2247
4204 28 2258 2252 2259
4205 28 2270 2264 2271
4206 28 2282 2276 2283
4207 28 2294 2288 2295
4208 28 2306 2300 2307
4209 28 2318 2312 2319
4210 28 2330 2324 2331
4211 28 2342 2336 2343
4212 28 2354 2348 2355
4213 28 2366 2360 2367
4214 28 2378 2372 2379
4215 28 2390 2384 2391
4216 28 2402 2396 2403
4217 28 2428 2422 2429
4218 28 2440 2434 2441
4219 28 2452 2446 2453
4220 28 2464 2458 2465
4221 28 2476 2470 2477
4222 28 2488 2482 2489
4223 28 2500 2494 2501
4224 28 2512 2506 2513
4225 28 2524 2518 2525
4226 28 2536 2530 2537
4227 28 2548 2542 2549
4228 28 2560 2554 2561
4229 28 2572 2566 2573
4230 28 2584 2578 2585
4231 28 2596 2590 2597
4232 28 2608 2602 2609
4233 28 2620 2614 2621
4234 28 2632 2626 2633
4235 28 2644 2638 2645
4236 28 2656 2650 2657
4237 28 2668 2662 2669
4238 28 2680 2674 2681
4239 28 2692 2686 2693
4240 28 2704 2698 2705
4241 28 2716 2710 2717
4242 28 2728 2722 2729
4243 28 2740 2734 2741
4244 28 2752 2746 2753
4245 28 2764 2758 2765
4246 28 2776 2770 2777
4247 28 2788 2782 2789
4248 28 2800 2794 2801
4249 28 2812 2806 2813
4250 28 2824 2818 2825
4251 28 2836 2830 2837
4252 28 2848 2842 2849
4253 28 2860 2854 2861
4254 28 2872 2866 2873
4255 28 2884 2878 2885
4256 28 2896 2890 2897
4257 28 2908 2902 2909
4258 28 2920 2914 2921
4259 28 2932 2926 2933
4260 28 2944 2938 2945
4261 28 2956 2950 2957
4262 28 2968 2962 2969
4263 28 2980 2974 2981
4264 28 2992 2986 2993
4265 28 3004 2998 3005
4266 28 3030 3024 3031
4267 28 3042 3036 3043
4268 28 3054 3048 3055
4269 28 3066 3060 3067
4270 28 3078 3072 3079
4271 28 3090 3084 3091
4272 28 3102 3096 3103
4273 28 3114 3108 3115
4274 28 3126 3120 3127
4275 28 3138 3132 3139
4276 28 3150 3144 3151
4277 28 3162 3156 3163
4278 28 3174 3168 3175
4279 28 3186 3180 3187
4280 28 3198 3192 3199
4281 28 3210 3204 3211
4282 28 3222 3216 3223
4283 28 3234 3228 3235
4284 28 3246 3240 3247
4285 28 3258 3252 3259
4286 28 3270 3264 3271
4287 28 3282 3276 3283
4288 28 3294 3288 3295
4289 28 3306 3300 3307
4290 28 3318 3312 3319
4291 28 3330 3324 3331
4292 28 3342 3336 3343
4293 28 3354 3348 3355
4294 28 3366 3360 3367
4295 28 3378 3372 3379
4296 28 3390 3384 3391
4297 28 3402 3396 3403
4298 28 3414 3408 3415
4299 28 3426 3420 3427
4300 28 3438 3432 3439
4301 28 3450 3444 3451
4302 28 3462 3456 3463
4303 28 3474 3468 3475
4304 28 3486 3480 3487
4305 28 3498 3492 3499
4306 28 3510 3504 3511
4307 28 3522 3516 3523
4308 28 3534 3528 3535
4309 28 3546 3540 3547
4310 28 3558 3552 3559
4311 28 3570 3564 3571
4312 28 3582 3576 3583
4313 28 3594 3588 3595
4314 28 3606 3600 3607
4315 28 3632 3626 3633
4316 28 3644 3638 3645
4317 28 3656 3650 3657
4318 28 3668 3662 3669
4319 28 3680 3674 3681
4320 28 3692 3686 3693
4321 28 3704 3698 3705
4322 28 3716 3710 3717
4323 28 3728 3722 3729
4324 28 3740 3734 3741
4325 28 3752 3746 3753
4326 28 3764 3758 3765
4327 28 3776 3770 3777
4328 28 3788 3782 3789
4329 28 3800 3794 3801
4330 28 3812 3806 3813
4331 28 3824 3818 3825
4332 28 3836 3830 3837
4333 28 3848 3842 3849
4334 28 3860 3854 3861
4335 28 3872 3866 3873
4336 28 3884 3878 3885
4337 28 3896 3890 3897
4338 28 3908 3902 3909
4339 28 3920 3914 3921
4340 28 3932 3926 3933
4341 28 3944 3938 3945
4342 28 3956 3950 3957
4343 28 3968 3962 3969
4344 28 3980 3974 3981
4345 28 3992 3986 3993
4346 28 4004 3998 4005
4347 28 4016 4010 4017
4348 28 4028 4022 4029
4349 28 4040 4034 4041
4350 28 4052 4046 4053
4351 28 4064 4058 4065
4352 28 4076 4070 4077
4353 28 4088 4082 4089
4354 28 4100 4094 4101
4355 28 4112 4106 4113
4356 28 4124 4118 4125
4357 28 4136 4130 4137
4358 28 4148 4142 4149
4359 28 4160 4154 4161
4360 28 4172 4166 4173
4361 28 4184 4178 4185
4362 28 4196 4190 4197
4363 28 4208 4202 4209
4364 28 4234 4228 4235
4365 28 4246 4240 4247
4366 28 4258 4252 4259
4367 28 4270 4264 4271
4368 28 4282 4276 4283
4369 28 4294 4288 4295
4370 28 4306 4300 4307
4371 28 4318 4312 4319
4372 28 4330 4324 4331
4373 28 4342 4336 4343
4374 28 4354 4348 4355
4375 28 4366 4360 4367
4376 28 4378 4372 4379
4377 28 4390 4384 4391
4378 28 4402 4396 4403
4379 28 4414 4408 4415
4380 28 4426 4420 4427
4381 28 4438 4432 4439
4382 28 4450 4444 4451
4383 28 4462 4456 4463
4384 28 4474 4468 4475
4385 28 4486 4480 4487
4386 28 4498 4492 4499
4387 28 4510 4504 4511
4388 28 4522 4516 4523
4389 28 4534 4528 4535
4390 28 4546 4540 4547
4391 28 4558 4552 4559
4392 28 4570 4564 4571
4393 28 4582 4576 4583
4394 28 4594 4588 4595
4395 28 4606 4600 4607
4396 28 4618 4612 4619
4397 28 4630 4624 4631
4398 28 4642 4636 4643
4399 28 4654 4648 4655
4400 28 4666 4660 4667
4401 28 4678 4672 4679
4402 28 4690 4684 4691
4403 28 4702 4696 4703
4404 28 4714 4708 4715
4405 28 4726 4720 4727
4406 28 4738 4732 4739
4407 28 4750 4744 4751
4408 28 4762 4756 4763
4409 28 4774 4768 4775
4410 28 4786 4780 4787
4411 28 4798 4792 4799
4412 28 4810 4804 4811
4413 28 4836 4830 4837
4414 28 4848 4842 4849
4415 28 4860 4854 4861
4416 28 4872 4866 4873
4417 28 4884 4878 4885
4418 28 4896 4890 4897
4419 28 4908 4902 4909
4420 28 4920 4914 4921
4421 28 4932 4926 4933
4422 28 4944 4938 4945
4423 28 4956 4950 4957
4424 28 4968 4962 4969
4425 28 4980 4974 4981
4426 28 4992 4986 4993
4427 28 5004 4998 5005
4428 28 5016 5010 5017
4429 28 5028 5022 5029
4430 28 5040 5034 5041
4431 28 5052 5046 5053
4432 28 5064 5058 5065
4433 28 5076 5070 5077
4434 28 5088 5082 5089
4435 28 5100 5094 5101
4436 28 5112 5106 5113
4437 28 5124 5118 5125
4438 28 5136 5130 5137
4439 28 5148 5142 5149
4440 28 5160 5154 5161
4441 28 5172 5166 5173
4442 28 5184 5178 5185
4443 28 5196 5190 5197
4444 28 5208 5202 5209
4445 28 5220 5214 5221
4446 28 5232 5226 5233
4447 28 5244 5238 5245
4448 28 5256 5250 5257
4449 28 5268 5262 5269
4450 28 5280 5274 5281
4451 28 5292 5286 5293
4452 28 5304 5298 5305
4453 28 5316 5310 5317
4454 28 5328 5322 5329
4455 28 5340 5334 5341
4456 28 5352 5346 5353
4457 28 5364 5358 5365
4458 28 5376 5370 5377
4459 28 5388 5382 5389
4460 28 5400 5394 5401
4461 28 5412 5406 5413
4462 28 5438 5432 5439
4463 28 5450 5444 5451
4464 28 5462 5456 5463
4465 28 5474 5468 5475
4466 28 5486 5480 5487
4467 28 5498 5492 5499
4468 28 5510 5504 5511
4469 28 5522 5516 5523
4470 28 5534 5528 5535
4471 28 5546 5540 5547
4472 28 5558 5552 5559
4473 28 5570 5564 5571
4474 28 5582 5576 5583
4475 28 5594 5588 5595
4476 28 5606 5600 5607
4477 28 5618 5612 5619
4478 28 5630 5624 5631
4479 28 5642 5636 5643
4480 28 5654 5648 5655
4481 28 5666 5660 5667
4482 28 5678 5672 5679
4483 28 5690 5684 5691
4484 28 5702 5696 5703
4485 28 5714 5708 5715
4486 28 5726 5720 5727
4487 28 5738 5732 5739
4488 28 5750 5744 5751
4489 28 5762 5756 5763
4490 28 5774 5768 5775
4491 28 5786 5780 5787
4492 28 5798 5792 5799
4493 28 5810 5804 5811
4494 28 5822 5816 5823
4495 28 5834 5828 5835
4496 28 5846 5840 5847
4497 28 5858 5852 5859
4498 28 5870 5864 5871
4499 28 5882 5876 5883
4500 28 5894 5888 5895
4501 28 5906 5900 5907
4502 28 5918 5912 5919
4503 28 5930 5924 5931
4504 28 5942 5936 5943
4505 28 5954 5948 5955
4506 28 5966 5960 5967
4507 28 5978 5972 5979
4508 28 5990 5984 5991
4509 28 6002 5996 6003
4510 28 6014 6008 6015
4511 39 598 591 599
4512 39 1200 1193 1201
4513 39 1802 1795 1803
4514 39 2404 2397 2405
4515 39 3006 2999 3007
4516 39 3608 3601 3609
4517 39 4210 4203 4211
4518 39 4812 4805 4813
4519 39 5414 5407 5415
4520 39 6016 6009 6017
4521 42 4 6 11
4522 42 4 6 12
4523 42 4 6 13
4524 42 17 19 23
4525 42 17 19 24
4526 42 17 19 25
4527 42 29 31 35
4528 42 29 31 36
4529 42 29 31 37
4530 42 41 43 47
4531 42 41 43 48
4532 42 41 43 49
4533 42 53 55 59
4534 42 53 55 60
4535 42 53 55 61
4536 42 65 67 71
4537 42 65 67 72
4538 42 65 67 73
4539 42 77 79 83
4540 42 77 79 84
4541 42 77 79 85
4542 42 89 91 95
4543 42 89 91 96
4544 42 89 91 97
4545 42 101 103 107
4546 42 101 103 108
4547 42 101 103 109
4548 42 113 115 119
4549 42 113 115 120
4550 42 113 115 121
4551 42 125 127 131
4552 42 125 127 132
4553 42 125 127 133
4554 42 137 139 143
4555 42 137 139 144
4556 42 137 139 145
4557 42 149 151 155
4558 42 149 151 156
4559 42 149 151 157
4560 42 161 163 167
4561 42 161 163 168
4562 42 161 163 169
4563 42 173 175 179
4564 42 173 175 180
4565 42 173 175 181
4566 42 185 187 191
4567 42 185 187 192
4568 42 185 187 193
4569 42 197 199 203
4570 42 197 199 204
4571 42 197 199 205
4572 42 209 211 215
4573 42 209 211 216
4574 42 209 211 217
4575 42 221 223 227
4576 42 221 223 228
4577 42 221 223 229
4578 42 233 235 239
4579 42 233 235 240
4580 42 233 235 241
4581 42 245 247 251
4582 42 245 247 252
4583 42 245 247 253
4584 42 257 259 263
4585 42 257 259 264
4586 42 257 259 265
4587 42 269 271 275
4588 42 269 271 276
4589 42 269 271 277
4590 42 281 283 287
4591 42 281 283 288
4592 42 281 283 289
4593 42 293 295 299
4594 42 293 295 300
4595 42 293 295 301
4596 42 305 307 311
4597 42 305 307 312
4598 42 305 307 313
4599 42 317 319 323
4600 42 317 319 324
4601 42 317 319 325
4602 42 329 331 335
4603 42 329 331 336
4604 42 329 331 337
4605 42 341 343 347
4606 42 341 343 348
4607 42 341 343 349
4608 42 353 355 359
4609 42 353 355 360
4610 42 353 355 361
4611 42 365 367 371
4612 42 365 367 372
4613 42 365 367 373
4614 42 377 379 383
4615 42 377 379 384
4616 42 377 379 385
4617 42 389 391 395
4618 42 389 391 396
4619 42 389 391 397
4620 42 401 403 407
4621 42 401 403 408
4622 42 401 403 409
4623 42 413 415 419
4624 42 413 415 420
4625 42 413 415 421
4626 42 425 427 431
4627 42 425 427 432
4628 42 425 427 433
4629 42 437 439 443
4630 42 437 439 444
4631 42 437 439 445
4632 42 449 451 455
4633 42 449 451 456
4634 42 449 451 457
4635 42 461 463 467
4636 42 461 463 468
4637 42 461 463 469
4638 42 473 475 479
4639 42 473 475 480
4640 42 473 475 481
4641 42 485 487 491
4642 42 485 487 492
4643 42 485 487 493
4644 42 497 499 503
4645 42 497 499 504
4646 42 497 499 505
4647 42 509 511 515
4648 42 509 511 516
4649 42 509 511 517
4650 42 521 523 527
4651 42 521 523 528
4652 42 521 523 529
4653 42 533 535 539
4654 42 533 535 540
4655 42 533 535 541
4656 42 545 547 551
4657 42 545 547 552
4658 42 545 547 553
4659 42 557 559 563
4660 42 557 559 564
4661 42 557 559 565
4662 42 569 571 575
4663 42 569 571 576
4664 42 569 571 577
4665 42 581 583 587
4666 42 581 583 588
4667 42 581 583 589
4668 42 593 595 600
4669 42 593 595 601
4670 42 593 595 602
4671 42 606 608 613
4672 42 606 608 614
4673 42 606 608 615
4674 42 619 621 625
4675 42 619 621 626
4676 42 619 621 627
4677 42 631 633 637
4678 42 631 633 638
4679 42 631 633 639
4680 42 643 645 649
4681 42 643 645 650
4682 42 643 645 651
4683 42 655 657 661
4684 42 655 657 662
4685 42 655 657 663
4686 42 667 669 673
4687 42 667 669 674
4688 42 667 669 675
4689 42 679 681 685
4690 42 679 681 686
4691 42 679 681 687
4692 42 691 693 697
4693 42 691 693 698
4694 42 691 693 699
4695 42 703 705 709
4696 42 703 705 710
4697 42 703 705 711
4698 42 715 717 721
4699 42 715 717 722
4700 42 715 717 723
4701 42 727 729 733
4702 42 727 729 734
4703 42 727 729 735
4704 42 739 741 745
4705 42 739 741 746
4706 42 739 741 747
4707 42 751 753 757
4708 42 751 753 758
4709 42 751 753 759
4710 42 763 765 769
4711 42 763 765 770
4712 42 763 765 771
4713 42 775 777 781
4714 42 775 777 782
4715 42 775 777 783
4716 42 787 789 793
4717 42 787 789 794
4718 42 787 789 795
4719 42 799 801 805
4720 42 799 801 806
4721 42 799 801 807
4722 42 811 813 817
4723 42 811 813 818
4724 42 811 813 819
4725 42 823 825 829
4726 42 823 825 830
4727 42 823 825 831
4728 42 835 837 841
4729 42 835 837 842
4730 42 835 837 843
4731 42 847 849 853
4732 42 847 849 854
4733 42 847 849 855
4734 42 859 861 865
4735 42 859 861 866
4736 42 859 861 867
4737 42 871 873 877
4738 42 871 873 878
4739 42 871 873 879
4740 42 883 885 889
4741 42 883 885 890
4742 42 883 885 891
4743 42 895 897 901
4744 42 895 897 902
4745 42 895 897 903
4746 42 907 909 913
4747 42 907 909 914
4748 42 907 909 915
4749 42 919 921 925
4750 42 919 921 926
4751 42 919 921 927
4752 42 931 933 937
4753 42 931 933 938
4754 42 931 933 939
4755 42 943 945 949
4756 42 943 945 950
4757 42 943 945 951
4758 42 955 957 961
4759 42 955 957 962
4760 42 955 957 963
4761 42 967 969 973
4762 42 967 969 974
4763 42 967 969 975
4764 42 979 981 985
4765 42 979 981 986
4766 42 979 981 987
4767 42 991 993 997
4768 42 991 993 998
4769 42 991 993 999
4770 42 1003 1005 1009
4771 42 1003 1005 1010
4772 42 1003 1005 1011
4773 42 1015 1017 1021
4774 42 1015 1017 1022
4775 42 1015 1017 1023
4776 42 1027 1029 1033
4777 42 1027 1029 1034
4778 42 1027 1029 1035
4779 42 1039 1041 1045
4780 42 1039 1041 1046
4781 42 1039 1041 1047
4782 42 1051 1053 1057
4783 42 1051 1053 1058
4784 42 1051 1053 1059
4785 42 1063 1065 1069
4786 42 1063 1065 1070
4787 42 1063 1065 1071
4788 42 1075 1077 1081
4789 42 1075 1077 1082
4790 42 1075 1077 1083
4791 42 1087 1089 1093
4792 42 1087 1089 1094
4793 42 1087 1089 1095
4794 42 1099 1101 1105
4795 42 1099 1101 1106
4796 42 1099 1101 1107
4797 42 1111 1113 1117
4798 42 1111 1113 1118
4799 42 1111 1113 1119
4800 42 1123 1125 1129
4801 42 1123 1125 1130
4802 42 1123 1125 1131
4803 42 1135 1137 1141
4804 42 1135 1137 1142
4805 42 1135 1137 1143
4806 42 1147 1149 1153
4807 42 1147 1149 1154
4808 42 1147 1149 1155
4809 42 1159 1161 1165
4810 42 1159 1161 1166
4811 42 1159 1161 1167
4812 42 1171 1173 1177
4813 42 1171 1173 1178
4814 42 1171 1173 1179
4815 42 1183 1185 1189
4816 42 1183 1185 1190
4817 42 1183 1185 1191
4818 42 1195 1197 1202
4819 42 1195 1197 1203
4820 42 1195 1197 1204
4821 42 1208 1210 1215
4822 42 1208 1210 1216
4823 42 1208 1210 1217
4824 42 1221 1223 1227
4825 42 1221 1223 1228
4826 42 1221 1223 1229
4827 42 1233 1235 1239
4828 42 1233 1235 1240
4829 42 1233 1235 1241
4830 42 1245 1247 1251
4831 42 1245 1247 1252
4832 42 1245 1247 1253
4833 42 1257 1259 1263
4834 42 1257 1259 1264
4835 42 1257 1259 1265
4836 42 1269 1271 1275
4837 42 1269 1271 1276
4838 42 1269 1271 1277
4839 42 1281 1283 1287
4840 42 1281 1283 1288
4841 42 1281 1283 1289
4842 42 1293 1295 1299
4843 42 1293 1295 1300
4844 42 1293 1295 1301
4845 42 1305 1307 1311
4846 42 1305 1307 1312
4847 42 1305 1307 1313
4848 42 1317 1319 1323
4849 42 1317 1319 1324
4850 42 1317 1319 1325
4851 42 1329 1331 1335
4852 42 1329 1331 1336
4853 42 1329 1331 1337
4854 42 1341 1343 1347
4855 42 1341 1343 1348
4856 42 1341 1343 1349
4857 42 1353 1355 1359
4858 42 1353 1355 1360
4859 42 1353 1355 1361
4860 42 1365 1367 1371
4861 42 1365 1367 1372
4862 42 1365 1367 1373
4863 42 1377 1379 1383
4864 42 1377 1379 1384
4865 42 1377 1379 1385
4866 42 1389 1391 1395
4867 42 1389 1391 1396
4868 42 1389 1391 1397
4869 42 1401 1403 1407
4870 42 1401 1403 1408
4871 42 1401 1403 1409
4872 42 1413 1415 1419
4873 42 1413 1415 1420
4874 42 1413 1415 1421
4875 42 1425 1427 1431
4876 42 1425 1427 1432
4877 42 1425 1427 1433
4878 42 1437 1439 1443
4879 42 1437 1439 1444
4880 42 1437 1439 1445
4881 42 1449 1451 1455
4882 42 1449 1451 1456
4883 42 1449 1451 1457
4884 42 1461 1463 1467
4885 42 1461 1463 1468
4886 42 1461 1463 1469
4887 42 1473 1475 1479
4888 42 1473 1475 1480
4889 42 1473 1475 1481
4890 42 1485 1487 1491
4891 42 1485 1487 1492
4892 42 1485 1487 1493
4893 42 1497 1499 1503
4894 42 1497 1499 1504
4895 42 1497 1499 1505
4896 42 1509 1511 1515
4897 42 1509 1511 1516
4898 42 1509 1511 1517
4899 42 1521 1523 1527
4900 42 1521 1523 1528
4901 42 1521 1523 1529
4902 42 1533 1535 1539
4903 42 1533 1535 1540
4904 42 1533 1535 1541
4905 42 1545 1547 1551
4906 42 1545 1547 1552
4907 42 1545 1547 1553
4908 42 1557 1559 1563
4909 42 1557 1559 1564
4910 42 1557 1559 1565
4911 42 1569 1571 1575
4912 42 1569 1571 1576
4913 42 1569 1571 1577
4914 42 1581 1583 1587
4915 42 1581 1583 1588
4916 42 1581 1583 1589
4917 42 1593 1595 1599
4918 42 1593 1595 1600
4919 42 1593 1595 1601
4920 42 1605 1607 1611
4921 42 1605 1607 1612
4922 42 1605 1607 1613
4923 42 1617 1619 1623
4924 42 1617 1619 1624
4925 42 1617 1619 1625
4926 42 1629 1631 1635
4927 42 1629 1631 1636
4928 42 1629 1631 1637
4929 42 1641 1643 1647
4930 42 1641 1643 1648
4931 42 1641 1643 1649
4932 42 1653 1655 1659
4933 42 1653 1655 1660
4934 42 1653 1655 1661
4935 42 1665 1667 1671
4936 42 1665 1667 1672
4937 42 1665 1667 1673
4938 42 1677 1679 1683
4939 42 1677 1679 1684
4940 42 1677 1679 1685
4941 42 1689 1691 1695
4942 42 1689 1691 1696
4943 42 1689 1691 1697
4944 42 1701 1703 1707
4945 42 1701 1703 1708
4946 42 1701 1703 1709
4947 42 1713 1715 1719
4948 42 1713 1715 1720
4949 42 1713 1715 1721
4950 42 1725 1727 1731
4951 42 1725 1727 1732
4952 42 1725 1727 1733
4953 42 1737 1739 1743
4954 42 1737 1739 1744
4955 42 1737 1739 1745
4956 42 1749 1751 1755
4957 42 1749 1751 1756
4958 42 1749 1751 1757
4959 42 1761 1763 1767
4960 42 1761 1763 1768
4961 42 1761 1763 1769
4962 42 1773 1775 1779
4963 42 1773 1775 1780
4964 42 1773 1775 1781
4965 42 1785 1787 1791
4966 42 1785 1787 1792
4967 42 1785 1787 1793
4968 42 1797 1799 1804
4969 42 1797 1799 1805
4970 42 1797 1799 1806
4971 42 1810 1812 1817
4972 42 1810 1812 1818
4973 42 1810 1812 1819
4974 42 1823 1825 1829
4975 42 1823 1825 1830
4976 42 1823 1825 1831
4977 42 1835 1837 1841
4978 42 1835 1837 1842
4979 42 1835 1837 1843
4980 42 1847 1849 1853
4981 42 1847 1849 1854
4982 42 1847 1849 1855
4983 42 1859 1861 1865
4984 42 1859 1861 1866
4985 42 1859 1861 1867
4986 42 1871 1873 1877
4987 42 1871 1873 1878
4988 42 1871 1873 1879
4989 42 1883 1885 1889
4990 42 1883 1885 1890
4991 42 1883 1885 1891
4992 42 1895 1897 1901
4993 42 1895 1897 1902
4994 42 1895 1897 1903
4995 42 1907 1909 1913
4996 42 1907 1909 1914
4997 42 1907 1909 1915
4998 42 1919 1921 1925
4999 42 1919 1921 1926
5000 42 1919 1921 1927
5001 42 1931 1933 1937
5002 42 1931 1933 1938
5003 42 1931 1933 1939
5004 42 1943 1945 1949
5005 42 1943 1945 1950
5006 42 1943 1945 1951
5007 42 1955 1957 1961
5008 42 1955 1957 1962
5009 42 1955 1957 1963
5010 42 1967 1969 1973
5011 42 1967 1969 1974
5012 42 1967 1969 1975
5013 42 1979 1981 1985
5014 42 1979 1981 1986
5015 42 1979 1981 1987
5016 42 1991 1993 1997
5017 42 1991 1993 1998
5018 42 1991 1993 1999
5019 42 2003 2005 2009
5020 42 2003 2005 2010
5021 42 2003 2005 2011
5022 42 2015 2017 2021
5023 42 2015 2017 2022
5024 42 2015 2017 2023
5025 42 2027 2029 2033
5026 42 2027 2029 2034
5027 42 2027 2029 2035
5028 42 2039 2041 2045
5029 42 2039 2041 2046
5030 42 2039 2041 2047
5031 42 2051 2053 2057
5032 42 2051 2053 2058
5033 42 2051 2053 2059
5034 42 2063 2065 2069
5035 42 2063 2065 2070
5036 42 2063 2065 2071
5037 42 2075 2077 2081
5038 42 2075 2077 2082
5039 42 2075 2077 2083
5040 42 2087 2089 2093
5041 42 2087 2089 2094
5042 42 2087 2089 2095
5043 42 2099 2101 2105
5044 42 2099 2101 2106
5045 42 2099 2101 2107
5046 42 2111 2113 2117
5047 42 2111 2113 2118
5048 42 2111 2113 2119
5049 42 2123 2125 2129
5050 42 2123 2125 2130
5051 42 2123 2125 2131
5052 42 2135 2137 2141
5053 42 2135 2137 2142
5054 42 2135 2137 2143
5055 42 2147 2149 2153
5056 42 2147 2149 2154
5057 42 2147 2149 2155
5058 42 2159 2161 2165
5059 42 2159 2161 2166
5060 42 2159 2161 2167
5061 42 2171 2173 2177
5062 42 2171 2173 2178
5063 42 2171 2173 2179
5064 42 2183 2185 2189
5065 42 2183 2185 2190
5066 42 2183 2185 2191
5067 42 2195 2197 2201
5068 42 2195 2197 2202
5069 42 2195 2197 2203
5070 42 2207 2209 2213
5071 42 2207 2209 2214
5072 42 2207 2209 2215
5073 42 2219 2221 2225
5074 42 2219 2221 2226
5075 42 2219 2221 2227
5076 42 2231 2233 2237
5077 42 2231 2233 2238
5078 42 2231 2233 2239
5079 42 2243 2245 2249
5080 42 2243 2245 2250
5081 42 2243 2245 2251
5082 42 2255 2257 2261
5083 42 2255 2257 2262
5084 42 2255 2257 2263
5085 42 2267 2269 2273
5086 42 2267 2269 2274
5087 42 2267 2269 2275
5088 42 2279 2281 2285
5089 42 2279 2281 2286
5090 42 2279 2281 2287
5091 42 2291 2293 2297
5092 42 2291 2293 2298
5093 42 2291 2293 2299
5094 42 2303 2305 2309
5095 42 2303 2305 2310
5096 42 2303 2305 2311
5097 42 2315 2317 2321
5098 42 2315 2317 2322
5099 42 2315 2317 2323
5100 42 2327 2329 2333
5101 42 2327 2329 2334
5102 42 2327 2329 2335
5103 42 2339 2341 2345
5104 42 2339 2341 2346
5105 42 2339 2341 2347
5106 42 2351 2353 2357
5107 42 2351 2353 2358
5108 42 2351 2353 2359
5109 42 2363 2365 2369
5110 42 2363 2365 2370
5111 42 2363 2365 2371
5112 42 2375 2377 2381
5113 42 2375 2377 2382
5114 42 2375 2377 2383
5115 42 2387 2389 2393
5116 42 2387 2389 2394
5117 42 2387 2389 2395
5118 42 2399 2401 2406
5119 42 2399 2401 2407
5120 42 2399 2401 2408
5121 42 2412 2414 2419
5122 42 2412 2414 2420
5123 42 2412 2414 2421
5124 42 2425 2427 2431
5125 42 2425 2427 2432
5126 42 2425 2427 2433
5127 42 2437 2439 2443
5128 42 2437 2439 2444
5129 42 2437 2439 2445
5130 42 2449 2451 2455
5131 42 2449 2451 2456
5132 42 2449 2451 2457
5133 42 2461 2463 2467
5134 42 2461 2463 2468
5135 42 2461 2463 2469
5136 42 2473 2475 2479
5137 42 2473 2475 2480
5138 42 2473 2475 2481
5139 42 2485 2487 2491
5140 42 2485 2487 2492
5141 42 2485 2487 2493
5142 42 2497 2499 2503
5143 42 2497 2499 2504
5144 42 2497 2499 2505
5145 42 2509 2511 2515
5146 42 2509 2511 2516
5147 42 2509 2511 2517
5148 42 2521 2523 2527
5149 42 2521 2523 2528
5150 42 2521 2523 2529
5151 42 2533 2535 2539
5152 42 2533 2535 2540
5153 42 2533 2535 2541
5154 42 2545 2547 2551
5155 42 2545 2547 2552
5156 42 2545 2547 2553
5157 42 2557 2559 2563
5158 42 2557 2559 2564
5159 42 2557 2559 2565
5160 42 2569 2571 2575
5161 42 2569 2571 2576
5162 42 2569 2571 2577
5163 42 2581 2583 2587
5164 42 2581 2583 2588
5165 42 2581 2583 2589
5166 42 2593 2595 2599
5167 42 2593 2595 2600
5168 42 2593 2595 2601
5169 42 2605 2607 2611
5170 42 2605 2607 2612
5171 42 2605 2607 2613
5172 42 2617 2619 2623
5173 42 2617 2619 2624
5174 42 2617 2619 2625
5175 42 2629 2631 2635
5176 42 2629 2631 2636
5177 42 2629 2631 2637
5178 42 2641 2643 2647
5179 42 2641 2643 2648
5180 42 2641 2643 2649
5181 42 2653 2655 2659
5182 42 2653 2655 2660
5183 42 2653 2655 2661
5184 42 2665 2667 2671
5185 42 2665 2667 2672
5186 42 2665 2667 2673
5187 42 2677 2679 2683
5188 42 2677 2679 2684
5189 42 2677 2679 2685
5190 42 2689 2691 2695
5191 42 2689 2691 2696
5192 42 2689 2691 2697
5193 42 2701 2703 2707
5194 42 2701 2703 2708
5195 42 2701 2703 2709
5196 42 2713 2715 2719
5197 42 2713 2715 2720
5198 42 2713 2715 2721
5199 42 2725 2727 2731
5200 42 2725 2727 2732
5201 42 2725 2727 2733
5202 42 2737 2739 2743
5203 42 2737 2739 2744
5204 42 2737 2739 2745
5205 42 2749 2751 2755
5206 42 2749 2751 2756
5207 42 2749 2751 2757
5208 42 2761 2763 2767
5209 42 2761 2763 2768
5210 42 2761 2763 2769
5211 42 2773 2775 2779
5212 42 2773 2775 2780
5213 42 2773 2775 2781
5214 42 2785 2787 2791
5215 42 2785 2787 2792
5216 42 2785 2787 2793
5217 42 2797 2799 2803
5218 42 2797 2799 2804
5219 42 2797 2799 2805
5220 42 2809 2811 2815
5221 42 2809 2811 2816
5222 42 2809 2811 2817
5223 42 2821 2823 2827
5224 42 2821 2823 2828
5225 42 2821 2823 2829
5226 42 2833 2835 2839
5227 42 2833 2835 2840
5228 42 2833 2835 2841
5229 42 2845 2847 2851
5230 42 2845 2847 2852
5231 42 2845 2847 2853
5232 42 2857 2859 2863
5233 42 2857 2859 2864
5234 42 2857 2859 2865
5235 42 2869 2871 2875
5236 42 2869 2871 2876
5237 42 2869 2871 2877
5238 42 2881 2883 2887
5239 42 2881 2883 2888
5240 42 2881 2883 2889
5241 42 2893 2895 2899
5242 42 2893 2895 2900
5243 42 2893 2895 2901
5244 42 2905 2907 2911
5245 42 2905 2907 2912
5246 42 2905 2907 2913
5247 42 2917 2919 2923
5248 42 2917 2919 2924
5249 42 2917 2919 2925
5250 42 2929 2931 2935
5251 42 2929 2931 2936
5252 42 2929 2931 2937
5253 42 2941 2943 2947
5254 42 2941 2943 2948
5255 42 2941 2943 2949
5256 42 2953 2955 2959
5257 42 2953 2955 2960
5258 42 2953 2955 2961
5259 42 2965 2967 2971
5260 42 2965 2967 2972
5261 42 2965 2967 2973
5262 42 2977 2979 2983
5263 42 2977 2979 2984
5264 42 2977 2979 2985
5265 42 2989 2991 2995
5266 42 2989 2991 2996
5267 42 2989 2991 2997
5268 42 3001 3003 3008
5269 42 3001 3003 3009
5270 42 3001 3003 3010
5271 42 3014 3016 3021
5272 42 3014 3016 3022
5273 42 3014 3016 3023
5274 42 3027 3029 3033
5275 42 3027 3029 3034
5276 42 3027 3029 3035
5277 42 3039 3041 3045
5278 42 3039 3041 3046
5279 42 3039 3041 3047
5280 42 3051 3053 3057
5281 42 3051 3053 3058
5282 42 3051 3053 3059
5283 42 3063 3065 3069
5284 42 3063 3065 3070
5285 42 3063 3065 3071
5286 42 3075 3077 3081
5287 42 3075 3077 3082
5288 42 3075 3077 3083
5289 42 3087 3089 3093
5290 42 3087 3089 3094
5291 42 3087 3089 3095
5292 42 3099 3101 3105
5293 42 3099 3101 3106
5294 42 3099 3101 3107
5295 42 3111 3113 3117
5296 42 3111 3113 3118
5297 42 3111 3113 3119
5298 42 3123 3125 3129
5299 42 3123 3125 3130
5300 42 3123 3125 3131
5301 42 3135 3137 3141
5302 42 3135 3137 3142
5303 42 3135 3137 3143
5304 42 3147 3149 3153
5305 42 3147 3149 3154
5306 42 3147 3149 3155
5307 42 3159 3161 3165
5308 42 3159 3161 3166
5309 42 3159 3161 3167
5310 42 3171 3173 3177
5311 42 3171 3173 3178
5312 42 3171 3173 3179
5313 42 3183 3185 3189
5314 42 3183 3185 3190
5315 42 3183 3185 3191
5316 42 3195 3197 3201
5317 42 3195 3197 3202
5318 42 3195 3197 3203
5319 42 3207 3209 3213
5320 42 3207 3209 3214
5321 42 3207 3209 3215
5322 42 3219 3221 3225
5323 42 3219 3221 3226
5324 42 3219 3221 3227
5325 42 3231 3233 3237
5326 42 3231 3233 3238
5327 42 3231 3233 3239
5328 42 3243 3245 3249
5329 42 3243 3245 3250
5330 42 3243 3245 3251
5331 42 3255 3257 3261
5332 42 3255 3257 3262
5333 42 3255 3257 3263
5334 42 3267 3269 3273
5335 42 3267 3269 3274
5336 42 3267 3269 3275
5337 42 3279 3281 3285
5338 42 3279 3281 3286
5339 42 3279 3281 3287
5340 42 3291 3293 3297
5341 42 3291 3293 3298
5342 42 3291 3293 3299
5343 42 3303 3305 3309
5344 42 3303 3305 3310
5345 42 3303 3305 3311
5346 42 3315 3317 3321
5347 42 3315 3317 3322
5348 42 3315 3317 3323
5349 42 3327 3329 3333
5350 42 3327 3329 3334
5351 42 3327 3329 3335
5352 42 3339 3341 3345
5353 42 3339 3341 3346
5354 42 3339 3341 3347
5355 42 3351 3353 3357
5356 42 3351 3353 3358
5357 42 3351 3353 3359
5358 42 3363 3365 3369
5359 42 3363 3365 3370
5360 42 3363 3365 3371
5361 42 3375 3377 3381
5362 42 3375 3377 3382
5363 42 3375 3377 3383
5364 42 3387 3389 3393
5365 42 3387 3389 3394
5366 42 3387 3389 3395
5367 42 3399 3401 3405
5368 42 3399 3401 3406
5369 42 3399 3401 3407
5370 42 3411 3413 3417
5371 42 3411 3413 3418
5372 42 3411 3413 3419
5373 42 3423 3425 3429
5374 42 3423 3425 3430
5375 42 3423 3425 3431
5376 42 3435 3437 3441
5377 42 3435 3437 3442
5378 42 3435 3437 3443
5379 42 3447 3449 3453
5380 42 3447 3449 3454
5381 42 3447 3449 3455
5382 42 3459 3461 3465
5383 42 3459 3461 3466
5384 42 3459 3461 3467
5385 42 3471 3473 3477
5386 42 3471 3473 3478
5387 42 3471 3473 3479
5388 42 3483 3485 3489
5389 42 3483 3485 3490
5390 42 3483 3485 3491
5391 42 3495 3497 3501
5392 42 3495 3497 3502
5393 42 3495 3497 3503
5394 42 3507 3509 3513
5395 42 3507 3509 3514
5396 42 3507 3509 3515
5397 42 3519 3521 3525
5398 42 3519 3521 3526
5399 42 3519 3521 3527
5400 42 3531 3533 3537
5401 42 3531 3533 3538
5402 42 3531 3533 3539
5403 42 3543 3545 3549
5404 42 3543 3545 3550
5405 42 3543 3545 3551
5406 42 3555 3557 3561
5407 42 3555 3557 3562
5408 42 3555 3557 3563
5409 42 3567 3569 3573
5410 42 3567 3569 3574
5411 42 3567 3569 3575
5412 42 3579 3581 3585
5413 42 3579 3581 3586
5414 42 3579 3581 3587
5415 42 3591 3593 3597
5416 42 3591 3593 3598
5417 42 3591 3593 3599
5418 42 3603 3605 3610
5419 42 3603 3605 3611
5420 42 3603 3605 3612
5421 42 3616 3618 3623
5422 42 3616 3618 3624
5423 42 3616 3618 3625
5424 42 3629 3631 3635
5425 42 3629 3631 3636
5426 42 3629 3631 3637
5427 42 3641 3643 3647
5428 42 3641 3643 3648
5429 42 3641 3643 3649
5430 42 3653 3655 3659
5431 42 3653 3655 3660
5432 42 3653 3655 3661
5433 42 3665 3667 3671
5434 42 3665 3667 3672
5435 42 3665 3667 3673
5436 42 3677 3679 3683
5437 42 3677 3679 3684
5438 42 3677 3679 3685
5439 42 3689 3691 3695
5440 42 3689 3691 3696
5441 42 3689 3691 3697
5442 42 3701 3703 3707
5443 42 3701 3703 3708
5444 42 3701 3703 3709
5445 42 3713 3715 3719
5446 42 3713 3715 3720
5447 42 3713 3715 3721
5448 42 3725 3727 3731
5449 42 3725 3727 3732
5450 42 3725 3727 3733
5451 42 3737 3739 3743
5452 42 3737 3739 3744
5453 42 3737 3739 3745
5454 42 3749 3751 3755
5455 42 3749 3751 3756
5456 42 3749 3751 3757
5457 42 3761 3763 3767
5458 42 3761 3763 3768
5459 42 3761 3763 3769
5460 42 3773 3775 3779
5461 42 3773 3775 3780
5462 42 3773 3775 3781
5463 42 3785 3787 3791
5464 42 3785 3787 3792
5465 42 3785 3787 3793
5466 42 3797 3799 3803
5467 42 3797 3799 3804
5468 42 3797 3799 3805
5469 42 3809 3811 3815
5470 42 3809 3811 3816
5471 42 3809 3811 3817
5472 42 3821 3823 3827
5473 42 3821 3823 3828
5474 42 3821 3823 3829
5475 42 3833 3835 3839
5476 42 3833 3835 3840
5477 42 3833 3835 3841
5478 42 3845 3847 3851
5479 42 3845 3847 3852
5480 42 3845 3847 3853
5481 42 3857 3859 3863
5482 42 3857 3859 3864
5483 42 3857 3859 3865
5484 42 3869 3871 3875
5485 42 3869 3871 3876
5486 42 3869 3871 3877
5487 42 3881 3883 3887
5488 42 3881 3883 3888
5489 42 3881 3883 3889
5490 42 3893 3895 3899
5491 42 3893 3895 3900
5492 42 3893 3895 3901
5493 42 3905 3907 3911
5494 42 3905 3907 3912
5495 42 3905 3907 3913
5496 42 3917 3919 3923
5497 42 3917 3919 3924
5498 42 3917 3919 3925
5499 42 3929 3931 3935
5500 42 3929 3931 3936
5501 42 3929 3931 3937
5502 42 3941 3943 3947
5503 42 3941 3943 3948
5504 42 3941 3943 3949
5505 42 3953 3955 3959
5506 42 3953 3955 3960
5507 42 3953 3955 3961
5508 42 3965 3967 3971
5509 42 3965 3967 3972
5510 42 3965 3967 3973
5511 42 3977 3979 3983
5512 42 3977 3979 3984
5513 42 3977 3979 3985
5514 42 3989 3991 3995
5515 42 3989 3991 3996
5516 42 3989 3991 3997
5517 42 4001 4003 4007
5518 42 4001 4003 4008
5519 42 4001 4003 4009
5520 42 4013 4015 4019
5521 42 4013 4015 4020
5522 42 4013 4015 4021
5523 42 4025 4027 4031
5524 42 4025 4027 4032
5525 42 4025 4027 4033
5526 42 4037 4039 4043
5527 42 4037 4039 4044
5528 42 4037 4039 4045
5529 42 4049 4051 4055
5530 42 4049 4051 4056
5531 42 4049 4051 4057
5532 42 4061 4063 4067
5533 42 4061 4063 4068
5534 42 4061 4063 4069
5535 42 4073 4075 4079
5536 42 4073 4075 4080
5537 42 4073 4075 4081
5538 42 4085 4087 4091
5539 42 4085 4087 4092
5540 42 4085 4087 4093
5541 42 4097 4099 4103
5542 42 4097 4099 4104
5543 42 4097 4099 4105
5544 42 4109 4111 4115
5545 42 4109 4111 4116
5546 42 4109 4111 4117
5547 42 4121 4123 4127
5548 42 4121 4123 4128
5549 42 4121 4123 4129
5550 42 4133 4135 4139
5551 42 4133 4135 4140
5552 42 4133 4135 4141
5553 42 4145 4147 4151
5554 42 4145 4147 4152
5555 42 4145 4147 4153
5556 42 4157 4159 4163
5557 42 4157 4159 4164
5558 42 4157 4159 4165
5559 42 4169 4171 4175
5560 42 4169 4171 4176
5561 42 4169 4171 4177
5562 42 4181 4183 4187
5563 42 4181 4183 4188
5564 42 4181 4183 4189
5565 42 4193 4195 4199
5566 42 4193 4195 4200
5567 42 4193 4195 4201
5568 42 4205 4207 4212
5569 42 4205 4207 4213
5570 42 4205 4207 4214
5571 42 4218 4220 4225
5572 42 4218 4220 4226
5573 42 4218 4220 4227
5574 42 4231 4233 4237
5575 42 4231 4233 4238
5576 42 4231 4233 4239
5577 42 4243 4245 4249
5578 42 4243 4245 4250
5579 42 4243 4245 4251
5580 42 4255 4257 4261
5581 42 4255 4257 4262
5582 42 4255 4257 4263
5583 42 4267 4269 4273
5584 42 4267 4269 4274
5585 42 4267 4269 4275
5586 42 4279 4281 4285
5587 42 4279 4281 4286
5588 42 4279 4281 4287
5589 42 4291 4293 4297
5590 42 4291 4293 4298
5591 42 4291 4293 4299
5592 42 4303 4305 4309
5593 42 4303 4305 4310
5594 42 4303 4305 4311
5595 42 4315 4317 4321
5596 42 4315 4317 4322
5597 42 4315 4317 4323
5598 42 4327 4329 4333
5599 42 4327 4329 4334
5600 42 4327 4329 4335
5601 42 4339 4341 4345
5602 42 4339 4341 4346
5603 42 4339 4341 4347
5604 42 4351 4353 4357
5605 42 4351 4353 4358
5606 42 4351 4353 4359
5607 42 4363 4365 4369
5608 42 4363 4365 4370
5609 42 4363 4365 4371
5610 42 4375 4377 4381
5611 42 4375 4377 4382
5612 42 4375 4377 4383
5613 42 4387 4389 4393
5614 42 4387 4389 4394
5615 42 4387 4389 4395
5616 42 4399 4401 4405
5617 42 4399 4401 4406
5618 42 4399 4401 4407
5619 42 4411 4413 4417
5620 42 4411 4413 4418
5621 42 4411 4413 4419
5622 42 4423 4425 4429
5623 42 4423 4425 4430
5624 42 4423 4425 4431
5625 42 4435 4437 4441
5626 42 4435 4437 4442
5627 42 4435 4437 4443
5628 42 4447 4449 4453
5629 42 4447 4449 4454
5630 42 4447 4449 4455
5631 42 4459 4461 4465
5632 42 4459 4461 4466
5633 42 4459 4461 4467
5634 42 4471 4473 4477
5635 42 4471 4473 4478
5636 42 4471 4473 4479
5637 42 4483 4485 4489
5638 42 4483 4485 4490
5639 42 4483 4485 4491
5640 42 4495 4497 4501
5641 42 4495 4497 4502
5642 42 4495 4497 4503
5643 42 4507 4509 4513
5644 42 4507 4509 4514
5645 42 4507 4509 4515
5646 42 4519 4521 4525
5647 42 4519 4521 4526
5648 42 4519 4521 4527
5649 42 4531 4533 4537
5650 42 4531 4533 4538
5651 42 4531 4533 4539
5652 42 4543 4545 4549
5653 42 4543 4545 4550
5654 42 4543 4545 4551
5655 42 4555 4557 4561
5656 42 4555 4557 4562
5657 42 4555 4557 4563
5658 42 4567 4569 4573
5659 42 4567 4569 4574
5660 42 4567 4569 4575
5661 42 4579 4581 4585
5662 42 4579 4581 4586
5663 42 4579 4581 4587
5664 42 4591 4593 4597
5665 42 4591 4593 4598
5666 42 4591 4593 4599
5667 42 4603 4605 4609
5668 42 4603 4605 4610
5669 42 4603 4605 4611
5670 42 4615 4617 4621
5671 42 4615 4617 4622
5672 42 4615 4617 4623
5673 42 4627 4629 4633
5674 42 4627 4629 4634
5675 42 4627 4629 4635
5676 42 4639 4641 4645
5677 42 4639 4641 4646
5678 42 4639 4641 4647
5679 42 4651 4653 4657
5680 42 4651 4653 4658
5681 42 4651 4653 4659
5682 42 4663 4665 4669
5683 42 4663 4665 4670
5684 42 4663 4665 4671
5685 42 4675 4677 4681
5686 42 4675 4677 4682
5687 42 4675 4677 4683
5688 42 4687 4689 4693
5689 42 4687 4689 4694
5690 42 4687 4689 4695
5691 42 4699 4701 4705
5692 42 4699 4701 4706
5693 42 4699 4701 4707
5694 42 4711 4713 4717
5695 42 4711 4713 4718
5696 42 4711 4713 4719
5697 42 4723 4725 4729
5698 42 4723 4725 4730
5699 42 4723 4725 4731
5700 42 4735 4737 4741
5701 42 4735 4737 4742
5702 42 4735 4737 4743
5703 42 4747 4749 4753
5704 42 4747 4749 4754
5705 42 4747 4749 4755
5706 42 4759 4761 4765
5707 42 4759 4761 4766
5708 42 4759 4761 4767
5709 42 4771 4773 4777
5710 42 4771 4773 4778
5711 42 4771 4773 4779
5712 42 4783 4785 4789
5713 42 4783 4785 4790
5714 42 4783 4785 4791
5715 42 4795 4797 4801
5716 42 4795 4797 4802
5717 42 4795 4797 4803
5718 42 4807 4809 4814
5719 42 4807 4809 4815
5720 42 4807 4809 4816
5721 42 4820 4822 4827
5722 42 4820 4822 4828
5723 42 4820 4822 4829
5724 42 4833 4835 4839
5725 42 4833 4835 4840
5726 42 4833 4835 4841
5727 42 4845 4847 4851
5728 42 4845 4847 4852
5729 42 4845 4847 4853
5730 42 4857 4859 4863
5731 42 4857 4859 4864
5732 42 4857 4859 4865
5733 42 4869 4871 4875
5734 42 4869 4871 4876
5735 42 4869 4871 4877
5736 42 4881 4883 4887
5737 42 4881 4883 4888
5738 42 4881 4883 4889
5739 42 4893 4895 4899
5740 42 4893 4895 4900
5741 42 4893 4895 4901
5742 42 4905 4907 4911
5743 42 4905 4907 4912
5744 42 4905 4907 4913
5745 42 4917 4919 4923
5746 42 4917 4919 4924
5747 42 4917 4919 4925
5748 42 4929 4931 4935
5749 42 4929 4931 4936
5750 42 4929 4931 4937
5751 42 4941 4943 4947
5752 42 4941 4943 4948
5753 42 4941 4943 4949
5754 42 4953 4955 4959
5755 42 4953 4955 4960
5756 42 4953 4955 4961
5757 42 4965 4967 4971
5758 42 4965 4967 4972
5759 42 4965 4967 4973
5760 42 4977 4979 4983
5761 42 4977 4979 4984
5762 42 4977 4979 4985
5763 42 4989 4991 4995
5764 42 4989 4991 4996
5765 42 4989 4991 4997
5766 42 5001 5003 5007
5767 42 5001 5003 5008
5768 42 5001 5003 5009
5769 42 5013 5015 5019
5770 42 5013 5015 5020
5771 42 5013 5015 5021
5772 42 5025 5027 5031
5773 42 5025 5027 5032
5774 42 5025 5027 5033
5775 42 5037 5039 5043
5776 42 5037 5039 5044
5777 42 5037 5039 5045
5778 42 5049 5051 5055
5779 42 5049 5051 5056
5780 42 5049 5051 5057
5781 42 5061 5063 5067
5782 42 5061 5063 5068
5783 42 5061 5063 5069
5784 42 5073 5075 5079
5785 42 5073 5075 5080
5786 42 5073 5075 5081
5787 42 5085 5087 5091
5788 42 5085 5087 5092
5789 42 5085 5087 5093
5790 42 5097 5099 5103
5791 42 5097 5099 5104
5792 42 5097 5099 5105
5793 42 5109 5111 5115
5794 42 5109 5111 5116
5795 42 5109 5111 5117
5796 42 5121 5123 5127
5797 42 5121 5123 5128
5798 42 5121 5123 5129
5799 42 5133 5135 5139
5800 42 5133 5135 5140
5801 42 5133 5135 5141
5802 42 5145 5147 5151
5803 42 5145 5147 5152
5804 42 5145 5147 5153
5805 42 5157 5159 5163
5806 42 5157 5159 5164
5807 42 5157 5159 5165
5808 42 5169 5171 5175
5809 42 5169 5171 5176
5810 42 5169 5171 5177
5811 42 5181 5183 5187
5812 42 5181 5183 5188
5813 42 5181 5183 5189
5814 42 5193 5195 5199
5815 42 5193 5195 5200
5816 42 5193 5195 5201
5817 42 5205 5207 5211
5818 42 5205 5207 5212
5819 42 5205 5207 5213
5820 42 5217 5219 5223
5821 42 5217 5219 5224
5822 42 5217 5219 5225
5823 42 5229 5231 5235
5824 42 5229 5231 5236
5825 42 5229 5231 5237
5826 42 5241 5243 5247
5827 42 5241 5243 5248
5828 42 5241 5243 5249
5829 42 5253 5255 5259
5830 42 5253 5255 5260
5831 42 5253 5255 5261
5832 42 5265 5267 5271
5833 42 5265 5267 5272
5834 42 5265 5267 5273
5835 42 5277 5279 5283
5836 42 5277 5279 5284
5837 42 5277 5279 5285
5838 42 5289 5291 5295
5839 42 5289 5291 5296
5840 42 5289 5291 5297
5841 42 5301 5303 5307
5842 42 5301 5303 5308
5843 42 5301 5303 5309
5844 42 5313 5315 5319
5845 42 5313 5315 5320
5846 42 5313 5315 5321
5847 42 5325 5327 5331
5848 42 5325 5327 5332
5849 42 5325 5327 5333
5850 42 5337 5339 5343
5851 42 5337 5339 5344
5852 42 5337 5339 5345
5853 42 5349 5351 5355
5854 42 5349 5351 5356
5855 42 5349 5351 5357
5856 42 5361 5363 5367
5857 42 5361 5363 5368
5858 42 5361 5363 5369
5859 42 5373 5375 5379
5860 42 5373 5375 5380
5861 42 5373 5375 5381
5862 42 5385 5387 5391
5863 42 5385 5387 5392
5864 42 5385 5387 5393
5865 42 5397 5399 5403
5866 42 5397 5399 5404
5867 42 5397 5399 5405
5868 42 5409 5411 5416
5869 42 5409 5411 5417
5870 42 5409 5411 5418
5871 42 5422 5424 5429
5872 42 5422 5424 5430
5873 42 5422 5424 5431
5874 42 5435 5437 5441
5875 42 5435 5437 5442
5876 42 5435 5437 5443
5877 42 5447 5449 5453
5878 42 5447 5449 5454
5879 42 5447 5449 5455
5880 42 5459 5461 5465
5881 42 5459 5461 5466
5882 42 5459 5461 5467
5883 42 5471 5473 5477
5884 42 5471 5473 5478
5885 42 5471 5473 5479
5886 42 5483 5485 5489
5887 42 5483 5485 5490
5888 42 5483 5485 5491
5889 42 5495 5497 5501
5890 42 5495 5497 5502
5891 42 5495 5497 5503
5892 42 5507 5509 5513
5893 42 5507 5509 5514
5894 42 5507 5509 5515
5895 42 5519 5521 5525
5896 42 5519 5521 5526
5897 42 5519 5521 5527
5898 42 5531 5533 5537
5899 42 5531 5533 5538
5900 42 5531 5533 5539
5901 42 5543 5545 5549
5902 42 5543 5545 5550
5903 42 5543 5545 5551
5904 42 5555 5557 5561
5905 42 5555 5557 5562
5906 42 5555 5557 5563
5907 42 5567 5569 5573
5908 42 5567 5569 5574
5909 42 5567 5569 5575
5910 42 5579 5581 5585
5911 42 5579 5581 5586
5912 42 5579 5581 5587
5913 42 5591 5593 5597
5914 42 5591 5593 5598
5915 42 5591 5593 5599
5916 42 5603 5605 5609
5917 42 5603 5605 5610
5918 42 5603 5605 5611
5919 42 5615 5617 5621
5920 42 5615 5617 5622
5921 42 5615 5617 5623
5922 42 5627 5629 5633
5923 42 5627 5629 5634
5924 42 5627 5629 5635
5925 42 5639 5641 5645
5926 42 5639 5641 5646
5927 42 5639 5641 5647
5928 42 5651 5653 5657
5929 42 5651 5653 5658
5930 42 5651 5653 5659
5931 42 5663 5665 5669
5932 42 5663 5665 5670
5933 42 5663 5665 5671
5934 42 5675 5677 5681
5935 42 5675 5677 5682
5936 42 5675 5677 5683
5937 42 5687 5689 5693
5938 42 5687 5689 5694
5939 42 5687 5689 5695
5940 42 5699 5701 5705
5941 42 5699 5701 5706
5942 42 5699 5701 5707
5943 42 5711 5713 5717
5944 42 5711 5713 5718
5945 42 5711 5713 5719
5946 42 5723 5725 5729
5947 42 5723 5725 5730
5948 42 5723 5725 5731
5949 42 5735 5737 5741
5950 42 5735 5737 5742
5951 42 5735 5737 5743
5952 42 5747 5749 5753
5953 42 5747 5749 5754
5954 42 5747 5749 5755
5955 42 5759 5761 5765
5956 42 5759 5761 5766
5957 42 5759 5761 5767
5958 42 5771 5773 5777
5959 42 5771 5773 5778
5960 42 5771 5773 5779
5961 42 5783 5785 5789
5962 42 5783 5785 5790
5963 42 5783 5785 5791
5964 42 5795 5797 5801
5965 42 5795 5797 5802
5966 42 5795 5797 5803
5967 42 5807 5809 5813
5968 42 5807 5809 5814
5969 42 5807 5809 5815
5970 42 5819 5821 5825
5971 42 5819 5821 5826
5972 42 5819 5821 5827
5973 42 5831 5833 5837
5974 42 5831 5833 5838
5975 42 5831 5833 5839
5976 42 5843 5845 5849
5977 42 5843 5845 5850
5978 42 5843 5845 5851
5979 42 5855 5857 5861
5980 42 5855 5857 5862
5981 42 5855 5857 5863
5982 42 5867 5869 5873
5983 42 5867 5869 5874
5984 42 5867 5869 5875
5985 42 5879 5881 5885
5986 42 5879 5881 5886
5987 42 5879 5881 5887
5988 42 5891 5893 5897
5989 42 5891 5893 5898
5990 42 5891 5893 5899
5991 42 5903 5905 5909
5992 42 5903 5905 5910
5993 42 5903 5905 5911
5994 42 5915 5917 5921
5995 42 5915 5917 5922
5996 42 5915 5917 5923
5997 42 5927 5929 5933
5998 42 5927 5929 5934
5999 42 5927 5929 5935
6000 42 5939 5941 5945
6001 42 5939 5941 5946
6002 42 5939 5941 5947
6003 42 5951 5953 5957
6004 42 5951 5953 5958
6005 42 5951 5953 5959
6006 42 5963 5965 5969
6007 42 5963 5965 5970
6008 42 5963 5965 5971
6009 42 5975 5977 5981
6010 42 5975 5977 5982
6011 42 5975 5977 5983
6012 42 5987 5989 5993
6013 42 5987 5989 5994
6014 42 5987 5989 5995
6015 42 5999 6001 6005
6016 42 5999 6001 6006
6017 42 5999 6001 6007
6018 42 6011 6013 6018
6019 42 6011 6013 6019
6020 42 6011 6013 6020
6021 55 592 591 598
6022 55 592 591 599
6023 55 1194 1193 1200
6024 55 1194 1193 1201
6025 55 1796 1795 1802
6026 55 1796 1795 1803
6027 55 2398 2397 2404
6028 55 2398 2397 2405
6029 55 3000 2999 3006
6030 55 3000 2999 3007
6031 55 3602 3601 3608
6032 55 3602 3601 3609
6033 55 4204 4203 4210
6034 55 4204 4203 4211
6035 55 4806 4805 4812
6036 55 4806 4805 4813
6037 55 5408 5407 5414
6038 55 5408 5407 5415
6039 55 6010 6009 6016
6040 55 6010 6009 6017
6041 57 3 2 10
6042 57 16 15 22
6043 57 28 27 34
6044 57 40 39 46
6045 57 52 51 58
6046 57 64 63 70
6047 57 76 75 82
6048 57 88 87 94
6049 57 100 99 106
6050 57 112 111 118
6051 57 124 123 130
6052 57 136 135 142
6053 57 148 147 154
6054 57 160 159 166
6055 57 172 171 178
6056 57 184 183 190
6057 57 196 195 202
6058 57 208 207 214
6059 57 220 219 226
6060 57 232 231 238
6061 57 244 243 250
6062 57 256 255 262
6063 57 268 267 274
6064 57 280 279 286
6065 57 292 291 298
6066 57 304 303 310
6067 57 316 315 322
6068 57 328 327 334
6069 57 340 339 346
6070 57 352 351 358
6071 57 364 363 370
6072 57 376 375 382
6073 57 388 387 394
6074 57 400 399 406
6075 57 412 411 418
6076 57 424 423 430
6077 57 436 435 442
6078 57 448 447 454
6079 57 460 459 466
6080 57 472 471 478
6081 57 484 483 490
6082 57 496 495 502
6083 57 508 507 514
6084 57 520 519 526
6085 57 532 531 538
6086 57 544 543 550
6087 57 556 555 562
6088 57 568 567 574
6089 57 580 579 586
6090 57 605 604 612
6091 57 618 617 624
6092 57 630 629 636
6093 57 642 641 648
6094 57 654 653 660
6095 57 666 665 672
6096 57 678 677 684
6097 57 690 689 696
6098 57 702 701 708
6099 57 714 713 720
6100 57 726 725 732
6101 57 738 737 744
6102 57 750 749 756
6103 57 762 761 768
6104 57 774 773 780
6105 57 786 785 792
6106 57 798 797 804
6107 57 810 809 816
6108 57 822 821 828
6109 57 834 833 840
6110 57 846 845 852
6111 57 858 857 864
6112 57 870 869 876
6113 57 882 881 888
6114 57 894 893 900
6115 57 906 905 912
6116 57 918 917 924
6117 57 930 929 936
6118 57 942 941 948
6119 57 954 953 960
6120 57 966 965 972
6121 57 978 977 984
6122 57 990 989 996
6123 57 1002 1001 1008
6124 57 1014 1013 1020
6125 57 1026 1025 1032
6126 57 1038 1037 1044
6127 57 1050 1049 1056
6128 57 1062 1061 1068
6129 57 1074 1073 1080
6130 57 1086 1085 1092
6131 57 1098 1097 1104
6132 57 1110 1109 1116
6133 57 1122 1121 1128
6134 57 1134 1133 1140
6135 57 1146 1145 1152
6136 57 1158 1157 1164
6137 57 1170 1169 1176
6138 57 1182 1181 1188
6139 57 1207 1206 1214
6140 57 1220 1219 1226
6141 57 1232 1231 1238
6142 57 1244 1243 1250
6143 57 1256 1255 1262
6144 57 1268 1267 1274
6145 57 1280 1279 1286
6146 57 1292 1291 1298
6147 57 1304 1303 1310
6148 57 1316 1315 1322
6149 57 1328 1327 1334
6150 57 1340 1339 1346
6151 57 1352 1351 1358
6152 57 1364 1363 1370
6153 57 1376 1375 1382
6154 57 1388 1387 1394
6155 57 1400 1399 1406
6156 57 1412 1411 1418
6157 57 1424 1423 1430
6158 57 1436 1435 1442
6159 57 1448 1447 1454
6160 57 1460 1459 1466
6161 57 1472 1471 1478
6162 57 1484 1483 1490
6163 57 1496 1495 1502
6164 57 1508 1507 1514
6165 57 1520 1519 1526
6166 57 1532 1531 1538
6167 57 1544 1543 1550
6168 57 1556 1555 1562
6169 57 1568 1567 1574
6170 57 1580 1579 1586
6171 57 1592 1591 1598
6172 57 1604 1603 1610
6173 57 1616 1615 1622
6174 57 1628 1627 1634
6175 57 1640 1639 1646
6176 57 1652 1651 1658
6177 57 1664 1663 1670
6178 57 1676 1675 1682
6179 57 1688 1687 1694
6180 57 1700 1699 1706
6181 57 1712 1711 1718
6182 57 1724 1723 1730
6183 57 1736 1735 1742
6184 57 1748 1747 1754
6185 57 1760 1759 1766
6186 57 1772 1771 1778
6187 57 1784 1783 1790
6188 57 1809 1808 1816
6189 57 1822 1821 1828
6190 57 1834 1833 1840
6191 57 1846 1845 1852
6192 57 1858 1857 1864
6193 57 1870 1869 1876
6194 57 1882 1881 1888
6195 57 1894 1893 1900
6196 57 1906 1905 1912
6197 57 1918 1917 1924
6198 57 1930 1929 1936
6199 57 1942 1941 1948
6200 57 1954 1953 1960
6201 57 1966 1965 1972
6202 57 1978 1977 1984
6203 57 1990 1989 1996
6204 57 2002 2001 2008
6205 57 2014 2013 2020
6206 57 2026 2025 2032
6207 57 2038 2037 2044
6208 57 2050 2049 2056
6209 57 2062 2061 2068
6210 57 2074 2073 2080
6211 57 2086 2085 2092
6212 57 2098 2097 2104
6213 57 2110 2109 2116
6214 57 2122 2121 2128
6215 57 2134 2133 2140
6216 57 2146 2145 2152
6217 57 2158 2157 2164
6218 57 2170 2169 2176
6219 57 2182 2181 2188
6220 57 2194 2193 2200
6221 57 2206 2205 2212
6222 57 2218 2217 2224
6223 57 2230 2229 2236
6224 57 2242 2241 2248
6225 57 2254 2253 2260
6226 57 2266 2265 2272
6227 57 2278 2277 2284
6228 57 2290 2289 2296
6229 57 2302 2301 2308
6230 57 2314 2313 2320
6231 57 2326 2325 2332
6232 57 2338 2337 2344
6233 57 2350 2349 2356
6234 57 2362 2361 2368
6235 57 2374 2373 2380
6236 57 2386 2385 2392
6237 57 2411 2410 2418
6238 57 2424 2423 2430
6239 57 2436 2435 2442
6240 57 2448 2447 2454
6241 57 2460 2459 2466
6242 57 2472 2471 2478
6243 57 2484 2483 2490
6244 57 2496 2495 2502
6245 57 2508 2507 2514
6246 57 2520 2519 2526
6247 57 2532 2531 2538
6248 57 2544 2543 2550
6249 57 2556 2555 2562
6250 57 2568 2567 2574
6251 57 2580 2579 2586
6252 57 2592 2591 2598
6253 57 2604 2603 2610
6254 57 2616 2615 2622
6255 57 2628 2627 2634
6256 57 2640 2639 2646
6257 57 2652 2651 2658
6258 57 2664 2663 2670
6259 57 2676 2675 2682
6260 57 2688 2687 2694
6261 57 2700 2699 2706
6262 57 2712 2711 2718
6263 57 2724 2723 2730
6264 57 2736 2735 2742
6265 57 2748 2747 2754
6266 57 2760 2759 2766
6267 57 2772 2771 2778
6268 57 2784 2783 2790
6269 57 2796 2795 2802
6270 57 2808 2807 2814
6271 57 2820 2819 2826
6272 57 2832 2831 2838
6273 57 2844 2843 2850
6274 57 2856 2855 2862
6275 57 2868 2867 2874
6276 57 2880 2879 2886
6277 57 2892 2891 2898
6278 57 2904 2903 2910
6279 57 2916 2915 2922
6280 57 2928 2927 2934
6281 57 2940 2939 2946
6282 57 2952 2951 2958
6283 57 2964 2963 2970
6284 57 2976 2975 2982
6285 57 2988 2987 2994
6286 57 3013 3012 3020
6287 57 3026 3025 3032
6288 57 3038 3037 3044
6289 57 3050 3049 3056
6290 57 3062 3061 3068
6291 57 3074 3073 3080
6292 57 3086 3085 3092
6293 57 3098 3097 3104
6294 57 3110 3109 3116
6295 57 3122 3121 3128
6296 57 3134 3133 3140
6297 57 3146 3145 3152
6298 57 3158 3157 3164
6299 57 3170 3169 3176
6300 57 3182 3181 3188
6301 57 3194 3193 3200
6302 57 3206 3205 3212
6303 57 3218 3217 3224
6304 57 3230 3229 3236
6305 57 3242 3241 3248
6306 57 3254 3253 3260
6307 57 3266 3265 3272
6308 57 3278 3277 3284
6309 57 3290 3289 3296
6310 57 3302 3301 3308
6311 57 3314 3313 3320
6312 57 3326 3325 3332
6313 57 3338 3337 3344
6314 57 3350 3349 3356
6315 57 3362 3361 3368
6316 57 3374 3373 3380
6317 57 3386 3385 3392
6318 57 3398 3397 3404
6319 57 3410 3409 3416
6320 57 3422 3421 3428
6321 57 3434 3433 3440
6322 57 3446 3445 3452
6323 57 3458 3457 3464
6324 57 3470 3469 3476
6325 57 3482 3481 3488
6326 57 3494 3493 3500
6327 57 3506 3505 3512
6328 57 3518 3517 3524
6329 57 3530 3529 3536
6330 57 3542 3541 3548
6331 57 3554 3553 3560
6332 57 3566 3565 3572
6333 57 3578 3577 3584
6334 57 3590 3589 3596
6335 57 3615 3614 3622
6336 57 3628 3627 3634
6337 57 3640 3639 3646
6338 57 3652 3651 3658
6339 57 3664 3663 3670
6340 57 3676 3675 3682
6341 57 3688 3687 3694
6342 57 3700 3699 3706
6343 57 3712 3711 3718
6344 57 3724 3723 3730
6345 57 3736 3735 3742
6346 57 3748 3747 3754
6347 57 3760 3759 3766
6348 57 3772 3771 3778
6349 57 3784 3783 3790
6350 57 3796 3795 3802
6351 57 3808 3807 3814
6352 57 3820 3819 3826
6353 57 3832 3831 3838
6354 57 3844 3843 3850
6355 57 3856 3855 3862
6356 57 3868 3867 3874
6357 57 3880 3879 3886
6358 57 3892 3891 3898
6359 57 3904 3903 3910
6360 57 3916 3915 3922
6361 57 3928 3927 3934
6362 57 3940 3939 3946
6363 57 3952 3951 3958
6364 57 3964 3963 3970
6365 57 3976 3975 3982
6366 57 3988 3987 3994
6367 57 4000 3999 4006
6368 57 4012 4011 4018
6369 57 4024 4023 4030
6370 57 4036 4035 4042
6371 57 4048 4047 4054
6372 57 4060 4059 4066
6373 57 4072 4071 4078
6374 57 4084 4083 4090
6375 57 4096 4095 4102
6376 57 4108 4107 4114
6377 57 4120 4119 4126
6378 57 4132 4131 4138
6379 57 4144 4143 4150
6380 57 4156 4155 4162
6381 57 4168 4167 4174
6382 57 4180 4179 4186
6383 57 4192 4191 4198
6384 57 4217 4216 4224
6385 57 4230 4229 4236
6386 57 4242 4241 4248
6387 57 4254 4253 4260
6388 57 4266 4265 4272
6389 57 4278 4277 4284
6390 57 4290 4289 4296
6391 57 4302 4301 4308
6392 57 4314 4313 4320
6393 57 4326 4325 4332
6394 57 4338 4337 4344
6395 57 4350 4349 4356
6396 57 4362 4361 4368
6397 57 4374 4373 4380
6398 57 4386 4385 4392
6399 57 4398 4397 4404
6400 57 4410 4409 4416
6401 57 4422 4421 4428
6402 57 4434 4433 4440
6403 57 4446 4445 4452
6404 57 4458 4457 4464
6405 57 4470 4469 4476
6406 57 4482 4481 4488
6407 57 4494 4493 4500
6408 57 4506 4505 4512
6409 57 4518 4517 4524
6410 57 4530 4529 4536
6411 57 4542 4541 4548
6412 57 4554 4553 4560
6413 57 4566 4565 4572
6414 57 4578 4577 4584
6415 57 4590 4589 4596
6416 57 4602 4601 4608
6417 57 4614 4613 4620
6418 57 4626 4625 4632
6419 57 4638 4637 4644
6420 57 4650 4649 4656
6421 57 4662 4661 4668
6422 57 4674 4673 4680
6423 57 4686 4685 4692
6424 57 4698 4697 4704
6425 57 4710 4709 4716
6426 57 4722 4721 4728
6427 57 4734 4733 4740
6428 57 4746 4745 4752
6429 57 4758 4757 4764
6430 57 4770 4769 4776
6431 57 4782 4781 4788
6432 57 4794 4793 4800
6433 57 4819 4818 4826
6434 57 4832 4831 4838
6435 57 4844 4843 4850
6436 57 4856 4855 4862
6437 57 4868 4867 4874
6438 57 4880 4879 4886
6439 57 4892 4891 4898
6440 57 4904 4903 4910
6441 57 4916 4915 4922
6442 57 4928 4927 4934
6443 57 4940 4939 4946
6444 57 4952 4951 4958
6445 57 4964 4963 4970
6446 57 4976 4975 4982
6447 57 4988 4987 4994
6448 57 5000 4999 5006
6449 57 5012 5011 5018
6450 57 5024 5023 5030
6451 57 5036 5035 5042
6452 57 5048 5047 5054
6453 57 5060 5059 5066
6454 57 5072 5071 5078
6455 57 5084 5083 5090
6456 57 5096 5095 5102
6457 57 5108 5107 5114
6458 57 5120 5119 5126
6459 57 5132 5131 5138
6460 57 5144 5143 5150
6461 57 5156 5155 5162
6462 57 5168 5167 5174
6463 57 5180 5179 5186
6464 57 5192 5191 5198
6465 57 5204 5203 5210
6466 57 5216 5215 5222
6467 57 5228 5227 5234
6468 57 5240 5239 5246
6469 57 5252 5251 5258
6470 57 5264 5263 5270
6471 57 5276 5275 5282
6472 57 5288 5287 5294
6473 57 5300 5299 5306
6474 57 5312 5311 5318
6475 57 5324 5323 5330
6476 57 5336 5335 5342
6477 57 5348 5347 5354
6478 57 5360 5359 5366
6479 57 5372 5371 5378
6480 57 5384 5383 5390
6481 57 5396 5395 5402
6482 57 5421 5420 5428
6483 57 5434 5433 5440
6484 57 5446 5445 5452
6485 57 5458 5457 5464
6486 57 5470 5469 5476
6487 57 5482 5481 5488
6488 57 5494 5493 5500
6489 57 5506 5505 5512
6490 57 5518 5517 5524
6491 57 5530 5529 5536
6492 57 5542 5541 5548
6493 57 5554 5553 5560
6494 57 5566 5565 5572
6495 57 5578 5577 5584
6496 57 5590 5589 5596
6497 57 5602 5601 5608
6498 57 5614 5613 5620
6499 57 5626 5625 5632
6500 57 5638 5637 5644
6501 57 5650 5649 5656
6502 57 5662 5661 5668
6503 57 5674 5673 5680
6504 57 5686 5685 5692
6505 57 5698 5697 5704
6506 57 5710 5709 5716
6507 57 5722 5721 5728
6508 57 5734 5733 5740
6509 57 5746 5745 5752
6510 57 5758 5757 5764
6511 57 5770 5769 5776
6512 57 5782 5781 5788
6513 57 5794 5793 5800
6514 57 5806 5805 5812
6515 57 5818 5817 5824
6516 57 5830 5829 5836
6517 57 5842 5841 5848
6518 57 5854 5853 5860
6519 57 5866 5865 5872
6520 57 5878 5877 5884
6521 57 5890 5889 5896
6522 57 5902 5901 5908
6523 57 5914 5913 5920
6524 57 5926 5925 5932
6525 57 5938 5937 5944
6526 57 5950 5949 5956
6527 57 5962 5961 5968
6528 57 5974 5973 5980
6529 57 5986 5985 5992
6530 57 5998 5997 6004
6531 65 1 2 10
6532 65 603 604 612
6533 65 1205 1206 1214
6534 65 1807 1808 1816
6535 65 2409 2410 2418
6536 65 3011 3012 3020
6537 65 3613 3614 3622
6538 65 4215 4216 4224
6539 65 4817 4818 4826
6540 65 5419 5420 5428
6541 71 590 591 598
6542 71 590 591 599
6543 71 1192 1193 1200
6544 71 1192 1193 1201
6545 71 1794 1795 1802
6546 71 1794 1795 1803
6547 71 2396 2397 2404
6548 71 2396 2397 2405
6549 71 2998 2999 3006
6550 71 2998 2999 3007
6551 71 3600 3601 3608
6552 71 3600 3601 3609
6553 71 4202 4203 4210
6554 71 4202 4203 4211
6555 71 4804 4805 4812
6556 71 4804 4805 4813
6557 71 5406 5407 5414
6558 71 5406 5407 5415
6559 71 6008 6009 6016
6560 71 6008 6009 6017
6561 73 14 15 22
6562 73 10 2 14
6563 73 26 27 34
6564 73 22 15 26
6565 73 38 39 46
6566 73 34 27 38
6567 73 50 51 58
6568 73 46 39 50
6569 73 62 63 70
6570 73 58 51 62
6571 73 74 75 82
6572 73 70 63 74
6573 73 86 87 94
6574 73 82 75 86
6575 73 98 99 106
6576 73 94 87 98
6577 73 110 111 118
6578 73 106 99 110
6579 73 122 123 130
6580 73 118 111 122
6581 73 134 135 142
6582 73 130 123 134
6583 73 146 147 154
6584 73 142 135 146
6585 73 158 159 166
6586 73 154 147 158
6587 73 170 171 178
6588 73 166 159 170
6589 73 182 183 190
6590 73 178 171 182
6591 73 194 195 202
6592 73 190 183 194
6593 73 206 207 214
6594 73 202 195 206
6595 73 218 219 226
6596 73 214 207 218
6597 73 230 231 238
6598 73 226 219 230
6599 73 242 243 250
6600 73 238 231 242
6601 73 254 255 262
6602 73 250 243 254
6603 73 266 267 274
6604 73 262 255 266
6605 73 278 279 286
6606 73 274 267 278
6607 73 290 291 298
6608 73 286 279 290
6609 73 302 303 310
6610 73 298 291 302
6611 73 314 315 322
6612 73 310 303 314
6613 73 326 327 334
6614 73 322 315 326
6615 73 338 339 346
6616 73 334 327 338
6617 73 350 351 358
6618 73 346 339 350
6619 73 362 363 370
6620 73 358 351 362
6621 73 374 375 382
6622 73 370 363 374
6623 73 386 387 394
6624 73 382 375 386
6625 73 398 399 406
6626 73 394 387 398
6627 73 410 411 418
6628 73 406 399 410
6629 73 422 423 430
6630 73 418 411 422
6631 73 434 435 442
6632 73 430 423 434
6633 73 446 447 454
6634 73 442 435 446
6635 73 458 459 466
6636 73 454 447 458
6637 73 470 471 478
6638 73 466 459 470
6639 73 482 483 490
6640 73 478 471 482
6641 73 494 495 502
6642 73 490 483 494
6643 73 506 507 514
6644 73 502 495 506
6645 73 518 519 526
6646 73 514 507 518
6647 73 530 531 538
6648 73 526 519 530
6649 73 542 543 550
6650 73 538 531 542
6651 73 554 555 562
6652 73 550 543 554
6653 73 566 567 574
6654 73 562 555 566
6655 73 578 579 586
6656 73 574 567 578
6657 73 586 579 590
6658 73 616 617 624
6659 73 612 604 616
6660 73 628 629 636
6661 73 624 617 628
6662 73 640 641 648
6663 73 636 629 640
6664 73 652 653 660
6665 73 648 641 652
6666 73 664 665 672
6667 73 660 653 664
6668 73 676 677 684
6669 73 672 665 676
6670 73 688 689 696
6671 73 684 677 688
6672 73 700 701 708
6673 73 696 689 700
6674 73 712 713 720
6675 73 708 701 712
6676 73 724 725 732
6677 73 720 713 724
6678 73 736 737 744
6679 73 732 725 736
6680 73 748 749 756
6681 73 744 737 748
6682 73 760 761 768
6683 73 756 749 760
6684 73 772 773 780
6685 73 768 761 772
6686 73 784 785 792
6687 73 780 773 784
6688 73 796 797 804
6689 73 792 785 796
6690 73 808 809 816
6691 73 804 797 808
6692 73 820 821 828
6693 73 816 809 820
6694 73 832 833 840
6695 73 828 821 832
6696 73 844 845 852
6697 73 840 833 844
6698 73 856 857 864
6699 73 852 845 856
6700 73 868 869 876
6701 73 864 857 868
6702 73 880 881 888
6703 73 876 869 880
6704 73 892 893 900
6705 73 888 881 892
6706 73 904 905 912
6707 73 900 893 904
6708 73 916 917 924
6709 73 912 905 916
6710 73 928 929 936
6711 73 924 917 928
6712 73 940 941 948
6713 73 936 929 940
6714 73 952 953 960
6715 73 948 941 952
6716 73 964 965 972
6717 73 960 953 964
6718 73 976 977 984
6719 73 972 965 976
6720 73 988 989 996
6721 73 984 977 988
6722 73 1000 1001 1008
6723 73 996 989 1000
6724 73 1012 1013 1020
6725 73 1008 1001 1012
6726 73 1024 1025 1032
6727 73 1020 1013 1024
6728 73 1036 1037 1044
6729 73 1032 1025 1036
6730 73 1048 1049 1056
6731 73 1044 1037 1048
6732 73 1060 1061 1068
6733 73 1056 1049 1060
6734 73 1072 1073 1080
6735 73 1068 1061 1072
6736 73 1084 1085 1092
6737 73 1080 1073 1084
6738 73 1096 1097 1104
6739 73 1092 1085 1096
6740 73 1108 1109 1116
6741 73 1104 1097 1108
6742 73 1120 1121 1128
6743 73 1116 1109 1120
6744 73 1132 1133 1140
6745 73 1128 1121 1132
6746 73 1144 1145 1152
6747 73 1140 1133 1144
6748 73 1156 1157 1164
6749 73 1152 1145 1156
6750 73 1168 1169 1176
6751 73 1164 1157 1168
6752 73 1180 1181 1188
6753 73 1176 1169 1180
6754 73 1188 1181 1192
6755 73 1218 1219 1226
6756 73 1214 1206 1218
6757 73 1230 1231 1238
6758 73 1226 1219 1230
6759 73 1242 1243 1250
6760 73 1238 1231 1242
6761 73 1254 1255 1262
6762 73 1250 1243 1254
6763 73 1266 1267 1274
6764 73 1262 1255 1266
6765 73 1278 1279 1286
6766 73 1274 1267 1278
6767 73 1290 1291 1298
6768 73 1286 1279 1290
6769 73 1302 1303 1310
6770 73 1298 1291 1302
6771 73 1314 1315 1322
6772 73 1310 1303 1314
6773 73 1326 1327 1334
6774 73 1322 1315 1326
6775 73 1338 1339 1346
6776 73 1334 1327 1338
6777 73 1350 1351 1358
6778 73 1346 1339 1350
6779 73 1362 1363 1370
6780 73 1358 1351 1362
6781 73 1374 1375 1382
6782 73 1370 1363 1374
6783 73 1386 1387 1394
6784 73 1382 1375 1386
6785 73 1398 1399 1406
6786 73 1394 1387 1398
6787 73 1410 1411 1418
6788 73 1406 1399 1410
6789 73 1422 1423 1430
6790 73 1418 1411 1422
6791 73 1434 1435 1442
6792 73 1430 1423 1434
6793 73 1446 1447 1454
6794 73 1442 1435 1446
6795 73 1458 1459 1466
6796 73 1454 1447 1458
6797 73 1470 1471 1478
6798 73 1466 1459 1470
6799 73 1482 1483 1490
6800 73 1478 1471 1482
6801 73 1494 1495 1502
6802 73 1490 1483 1494
6803 73 1506 1507 1514
6804 73 1502 1495 1506
6805 73 1518 1519 1526
6806 73 1514 1507 1518
6807 73 1530 1531 1538
6808 73 1526 1519 1530
6809 73 1542 1543 1550
6810 73 1538 1531 1542
6811 73 1554 1555 1562
6812 73 1550 1543 1554
6813 73 1566 1567 1574
6814 73 1562 1555 1566
6815 73 1578 1579 1586
6816 73 1574 1567 1578
6817 73 1590 1591 1598
6818 73 1586 1579 1590
6819 73 1602 1603 1610
6820 73 1598 1591 1602
6821 73 1614 1615 1622
6822 73 1610 1603 1614
6823 73 1626 1627 1634
6824 73 1622 1615 1626
6825 73 1638 1639 1646
6826 73 1634 1627 1638
6827 73 1650 1651 1658
6828 73 1646 1639 1650
6829 73 1662 1663 1670
6830 73 1658 1651 1662
6831 73 1674 1675 1682
6832 73 1670 1663 1674
6833 73 1686 1687 1694
6834 73 1682 1675 1686
6835 73 1698 1699 1706
6836 73 1694 1687 1698
6837 73 1710 1711 1718
6838 73 1706 1699 1710
6839 73 1722 1723 1730
6840 73 1718 1711 1722
6841 73 1734 1735 1742
6842 73 1730 1723 1734
6843 73 1746 1747 1754
6844 73 1742 1735 1746
6845 73 1758 1759 1766
6846 73 1754 1747 1758
6847 73 1770 1771 1778
6848 73 1766 1759 1770
6849 73 1782 1783 1790
6850 73 1778 1771 1782
6851 73 1790 1783 1794
6852 73 1820 1821 1828
6853 73 1816 1808 1820
6854 73 1832 1833 1840
6855 73 1828 1821 1832
6856 73 1844 1845 1852
6857 73 1840 1833 1844
6858 73 1856 1857 1864
6859 73 1852 1845 1856
6860 73 1868 1869 1876
6861 73 1864 1857 1868
6862 73 1880 1881 1888
6863 73 1876 1869 1880
6864 73 1892 1893 1900
6865 73 1888 1881 1892
6866 73 1904 1905 1912
6867 73 1900 1893 1904
6868 73 1916 1917 1924
6869 73 1912 1905 1916
6870 73 1928 1929 1936
6871 73 1924 1917 1928
6872 73 1940 1941 1948
6873 73 1936 1929 1940
6874 73 1952 1953 1960
6875 73 1948 1941 1952
6876 73 1964 1965 1972
6877 73 1960 1953 1964
6878 73 1976 1977 1984
6879 73 1972 1965 1976
6880 73 1988 1989 1996
6881 73 1984 1977 1988
6882 73 2000 2001 2008
6883 73 1996 1989 2000
6884 73 2012 2013 2020
6885 73 2008 2001 2012
6886 73 2024 2025 2032
6887 73 2020 2013 2024
6888 73 2036 2037 2044
6889 73 2032 2025 2036
6890 73 2048 2049 2056
6891 73 2044 2037 2048
6892 73 2060 2061 2068
6893 73 2056 2049 2060
6894 73 2072 2073 2080
6895 73 2068 2061 2072
6896 73 2084 2085 2092
6897 73 2080 2073 2084
6898 73 2096 2097 2104
6899 73 2092 2085 2096
6900 73 2108 2109 2116
6901 73 2104 2097 2108
6902 73 2120 2121 2128
6903 73 2116 2109 2120
6904 73 2132 2133 2140
6905 73 2128 2121 2132
6906 73 2144 2145 2152
6907 73 2140 2133 2144
6908 73 2156 2157 2164
6909 73 2152 2145 2156
6910 73 2168 2169 2176
6911 73 2164 2157 2168
6912 73 2180 2181 2188
6913 73 2176 2169 2180
6914 73 2192 2193 2200
6915 73 2188 2181 2192
6916 73 2204 2205 2212
6917 73 2200 2193 2204
6918 73 2216 2217 2224
6919 73 2212 2205 2216
6920 73 2228 2229 2236
6921 73 2224 2217 2228
6922 73 2240 2241 2248
6923 73 2236 2229 2240
6924 73 2252 2253 2260
6925 73 2248 2241 2252
6926 73 2264 2265 2272
6927 73 2260 2253 2264
6928 73 2276 2277 2284
6929 73 2272 2265 2276
6930 73 2288 2289 2296
6931 73 2284 2277 2288
6932 73 2300 2301 2308
6933 73 2296 2289 2300
6934 73 2312 2313 2320
6935 73 2308 2301 2312
6936 73 2324 2325 2332
6937 73 2320 2313 2324
6938 73 2336 2337 2344
6939 73 2332 2325 2336
6940 73 2348 2349 2356
6941 73 2344 2337 2348
6942 73 2360 2361 2368
6943 73 2356 2349 2360
6944 73 2372 2373 2380
6945 73 2368 2361 2372
6946 73 2384 2385 2392
6947 73 2380 2373 2384
6948 73 2392 2385 2396
6949 73 2422 2423 2430
6950 73 2418 2410 2422
6951 73 2434 2435 2442
6952 73 2430 2423 2434
6953 73 2446 2447 2454
6954 73 2442 2435 2446
6955 73 2458 2459 2466
6956 73 2454 2447 2458
6957 73 2470 2471 2478
6958 73 2466 2459 2470
6959 73 2482 2483 2490
6960 73 2478 2471 2482
6961 73 2494 2495 2502
6962 73 2490 2483 2494
6963 73 2506 2507 2514
6964 73 2502 2495 2506
6965 73 2518 2519 2526
6966 73 2514 2507 2518
6967 73 2530 2531 2538
6968 73 2526 2519 2530
6969 73 2542 2543 2550
6970 73 2538 2531 2542
6971 73 2554 2555 2562
6972 73 2550 2543 2554
6973 73 2566 2567 2574
6974 73 2562 2555 2566
6975 73 2578 2579 2586
6976 73 2574 2567 2578
6977 73 2590 2591 2598
6978 73 2586 2579 2590
6979 73 2602 2603 2610
6980 73 2598 2591 2602
6981 73 2614 2615 2622
6982 73 2610 2603 2614
6983 73 2626 2627 2634
6984 73 2622 2615 2626
6985 73 2638 2639 2646
6986 73 2634 2627 2638
6987 73 2650 2651 2658
6988 73 2646 2639 2650
6989 73 2662 2663 2670
6990 73 2658 2651 2662
6991 73 2674 2675 2682
6992 73 2670 2663 2674
6993 73 2686 2687 2694
6994 73 2682 2675 2686
6995 73 2698 2699 2706
6996 73 2694 2687 2698
6997 73 2710 2711 2718
6998 73 2706 2699 2710
6999 73 2722 2723 2730
7000 73 2718 2711 2722
7001 73 2734 2735 2742
7002 73 2730 2723 2734
7003 73 2746 2747 2754
7004 73 2742 2735 2746
7005 73 2758 2759 2766
7006 73 2754 2747 2758
7007 73 2770 2771 2778
7008 73 2766 2759 2770
7009 73 2782 2783 2790
7010 73 2778 2771 2782
7011 73 2794 2795 2802
7012 73 2790 2783 2794
7013 73 2806 2807 2814
7014 73 2802 2795 2806
7015 73 2818 2819 2826
7016 73 2814 2807 2818
7017 73 2830 2831 2838
7018 73 2826 2819 2830
7019 73 2842 2843 2850
7020 73 2838 2831 2842
7021 73 2854 2855 2862
7022 73 2850 2843 2854
7023 73 2866 2867 2874
7024 73 2862 2855 2866
7025 73 2878 2879 2886
7026 73 2874 2867 2878
7027 73 2890 2891 2898
7028 73 2886 2879 2890
7029 73 2902 2903 2910
7030 73 2898 2891 2902
7031 73 2914 2915 2922
7032 73 2910 2903 2914
7033 73 2926 2927 2934
7034 73 2922 2915 2926
7035 73 2938 2939 2946
7036 73 2934 2927 2938
7037 73 2950 2951 2958
7038 73 2946 2939 2950
7039 73 2962 2963 2970
7040 73 2958 2951 2962
7041 73 2974 2975 2982
7042 73 2970 2963 2974
7043 73 2986 2987 2994
7044 73 2982 2975 2986
7045 73 2994 2987 2998
7046 73 3024 3025 3032
7047 73 3020 3012 3024
7048 73 3036 3037 3044
7049 73 3032 3025 3036
7050 73 3048 3049 3056
7051 73 3044 3037 3048
7052 73 3060 3061 3068
7053 73 3056 3049 3060
7054 73 3072 3073 3080
7055 73 3068 3061 3072
7056 73 3084 3085 3092
7057 73 3080 3073 3084
7058 73 3096 3097 3104
7059 73 3092 3085 3096
7060 73 3108 3109 3116
7061 73 3104 3097 3108
7062 73 3120 3121 3128
7063 73 3116 3109 3120
7064 73 3132 3133 3140
7065 73 3128 3121 3132
7066 73 3144 3145 3152
7067 73 3140 3133 3144
7068 73 3156 3157 3164
7069 73 3152 3145 3156
7070 73 3168 3169 3176
7071 73 3164 3157 3168
7072 73 3180 3181 3188
7073 73 3176 3169 3180
7074 73 3192 3193 3200
7075 73 3188 3181 3192
7076 73 3204 3205 3212
7077 73 3200 3193 3204
7078 73 3216 3217 3224
7079 73 3212 3205 3216
7080 73 3228 3229 3236
7081 73 3224 3217 3228
7082 73 3240 3241 3248
7083 73 3236 3229 3240
7084 73 3252 3253 3260
7085 73 3248 3241 3252
7086 73 3264 3265 3272
7087 73 3260 3253 3264
7088 73 3276 3277 3284
7089 73 3272 3265 3276
7090 73 3288 3289 3296
7091 73 3284 3277 3288
7092 73 3300 3301 3308
7093 73 3296 3289 3300
7094 73 3312 3313 3320
7095 73 3308 3301 3312
7096 73 3324 3325 3332
7097 73 3320 3313 3324
7098 73 3336 3337 3344
7099 73 3332 3325 3336
7100 73 3348 3349 3356
7101 73 3344 3337 3348
7102 73 3360 3361 3368
7103 73 3356 3349 3360
7104 73 3372 3373 3380
7105 73 3368 3361 3372
7106 73 3384 3385 3392
7107 73 3380 3373 3384
7108 73 3396 3397 3404
7109 73 3392 3385 3396
7110 73 3408 3409 3416
7111 73 3404 3397 3408
7112 73 3420 3421 3428
7113 73 3416 3409 3420
7114 73 3432 3433 3440
7115 73 3428 3421 3432
7116 73 3444 3445 3452
7117 73 3440 3433 3444
7118 73 3456 3457 3464
7119 73 3452 3445 3456
7120 73 3468 3469 3476
7121 73 3464 3457 3468
7122 73 3480 3481 3488
7123 73 3476 3469 3480
7124 73 3492 3493 3500
7125 73 3488 3481 3492
7126 73 3504 3505 3512
7127 73 3500 3493 3504
7128 73 3516 3517 3524
7129 73 3512 3505 3516
7130 73 3528 3529 3536
7131 73 3524 3517 3528
7132 73 3540 3541 3548
7133 73 3536 3529 3540
7134 73 3552 3553 3560
7135 73 3548 3541 3552
7136 73 3564 3565 3572
7137 73 3560 3553 3564
7138 73 3576 3577 3584
7139 73 3572 3565 3576
7140 73 3588 3589 3596
7141 73 3584 3577 3588
7142 73 3596 3589 3600
7143 73 3626 3627 3634
7144 73 3622 3614 3626
7145 73 3638 3639 3646
7146 73 3634 3627 3638
7147 73 3650 3651 3658
7148 73 3646 3639 3650
7149 73 3662 3663 3670
7150 73 3658 3651 3662
7151 73 3674 3675 3682
7152 73 3670 3663 3674
7153 73 3686 3687 3694
7154 73 3682 3675 3686
7155 73 3698 3699 3706
7156 73 3694 3687 3698
7157 73 3710 3711 3718
7158 73 3706 3699 3710
7159 73 3722 3723 3730
7160 73 3718 3711 3722
7161 73 3734 3735 3742
7162 73 3730 3723 3734
7163 73 3746 3747 3754
7164 73 3742 3735 3746
7165 73 3758 3759 3766
7166 73 3754 3747 3758
7167 73 3770 3771 3778
7168 73 3766 3759 3770
7169 73 3782 3783 3790
7170 73 3778 3771 3782
7171 73 3794 3795 3802
7172 73 3790 3783 3794
7173 73 3806 3807 3814
7174 73 3802 3795 3806
7175 73 3818 3819 3826
7176 73 3814 3807 3818
7177 73 3830 3831 3838
7178 73 3826 3819 3830
7179 73 3842 3843 3850
7180 73 3838 3831 3842
7181 73 3854 3855 3862
7182 73 3850 3843 3854
7183 73 3866 3867 3874
7184 73 3862 3855 3866
7185 73 3878 3879 3886
7186 73 3874 3867 3878
7187 73 3890 3891 3898
7188 73 3886 3879 3890
7189 73 3902 3903 3910
7190 73 3898 3891 3902
7191 73 3914 3915 3922
7192 73 3910 3903 3914
7193 73 3926 3927 3934
7194 73 3922 3915 3926
7195 73 3938 3939 3946
7196 73 3934 3927 3938
7197 73 3950 3951 3958
7198 73 3946 3939 3950
7199 73 3962 3963 3970
7200 73 3958 3951 3962
7201 73 3974 3975 3982
7202 73 3970 3963 3974
7203 73 3986 3987 3994
7204 73 3982 3975 3986
7205 73 3998 3999 4006
7206 73 3994 3987 3998
7207 73 4010 4011 4018
7208 73 4006 3999 4010
7209 73 4022 4023 4030
7210 73 4018 4011 4022
7211 73 4034 4035 4042
7212 73 4030 4023 4034
7213 73 4046 4047 4054
7214 73 4042 4035 4046
7215 73 4058 4059 4066
7216 73 4054 4047 4058
7217 73 4070 4071 4078
7218 73 4066 4059 4070
7219 73 4082 4083 4090
7220 73 4078 4071 4082
7221 73 4094 4095 4102
7222 73 4090 4083 4094
7223 73 4106 4107 4114
7224 73 4102 4095 4106
7225 73 4118 4119 4126
7226 73 4114 4107 4118
7227 73 4130 4131 4138
7228 73 4126 4119 4130
7229 73 4142 4143 4150
7230 73 4138 4131 4142
7231 73 4154 4155 4162
7232 73 4150 4143 4154
7233 73 4166 4167 4174
7234 73 4162 4155 4166
7235 73 4178 4179 4186
7236 73 4174 4167 4178
7237 73 4190 4191 4198
7238 73 4186 4179 4190
7239 73 4198 4191 4202
7240 73 4228 4229 4236
7241 73 4224 4216 4228
7242 73 4240 4241 4248
7243 73 4236 4229 4240
7244 73 4252 4253 4260
7245 73 4248 4241 4252
7246 73 4264 4265 4272
7247 73 4260 4253 4264
7248 73 4276 4277 4284
7249 73 4272 4265 4276
7250 73 4288 4289 4296
7251 73 4284 4277 4288
7252 73 4300 4301 4308
7253 73 4296 4289 4300
7254 73 4312 4313 4320
7255 73 4308 4301 4312
7256 73 4324 4325 4332
7257 73 4320 4313 4324
7258 73 4336 4337 4344
7259 73 4332 4325 4336
7260 73 4348 4349 4356
7261 73 4344 4337 4348
7262 73 4360 4361 4368
7263 73 4356 4349 4360
7264 73 4372 4373 4380
7265 73 4368 4361 4372
7266 73 4384 4385 4392
7267 73 4380 4373 4384
7268 73 4396 4397 4404
7269 73 4392 4385 4396
7270 73 4408 4409 4416
7271 73 4404 4397 4408
7272 73 4420 4421 4428
7273 73 4416 4409 4420
7274 73 4432 4433 4440
7275 73 4428 4421 4432
7276 73 4444 4445 4452
7277 73 4440 4433 4444
7278 73 4456 4457 4464
7279 73 4452 4445 4456
7280 73 4468 4469 4476
7281 73 4464 4457 4468
7282 73 4480 4481 4488
7283 73 4476 4469 4480
7284 73 4492 4493 4500
7285 73 4488 4481 4492
7286 73 4504 4505 4512
7287 73 4500 4493 4504
7288 73 4516 4517 4524
7289 73 4512 4505 4516
7290 73 4528 4529 4536
7291 73 4524 4517 4528
7292 73 4540 4541 4548
7293 73 4536 4529 4540
7294 73 4552 4553 4560
7295 73 4548 4541 4552
7296 73 4564 4565 4572
7297 73 4560 4553 4564
7298 73 4576 4577 4584
7299 73 4572 4565 4576
7300 73 4588 4589 4596
7301 73 4584 4577 4588
7302 73 4600 4601 4608
7303 73 4596 4589 4600
7304 73 4612 4613 4620
7305 73 4608 4601 4612
7306 73 4624 4625 4632
7307 73 4620 4613 4624
7308 73 4636 4637 4644
7309 73 4632 4625 4636
7310 73 4648 4649 4656
7311 73 4644 4637 4648
7312 73 4660 4661 4668
7313 73 4656 4649 4660
7314 73 4672 4673 4680
7315 73 4668 4661 4672
7316 73 4684 4685 4692
7317 73 4680 4673 4684
7318 73 4696 4697 4704
7319 73 4692 4685 4696
7320 73 4708 4709 4716
7321 73 4704 4697 4708
7322 73 4720 4721 4728
7323 73 4716 4709 4720
7324 73 4732 4733 4740
7325 73 4728 4721 4732
7326 73 4744 4745 4752
7327 73 4740 4733 4744
7328 73 4756 4757 4764
7329 73 4752 4745 4756
7330 73 4768 4769 4776
7331 73 4764 4757 4768
7332 73 4780 4781 4788
7333 73 4776 4769 4780
7334 73 4792 4793 4800
7335 73 4788 4781 4792
7336 73 4800 4793 4804
7337 73 4830 4831 4838
7338 73 4826 4818 4830
7339 73 4842 4843 4850
7340 73 4838 4831 4842
7341 73 4854 4855 4862
7342 73 4850 4843 4854
7343 73 4866 4867 4874
7344 73 4862 4855 4866
7345 73 4878 4879 4886
7346 73 4874 4867 4878
7347 73 4890 4891 4898
7348 73 4886 4879 4890
7349 73 4902 4903 4910
7350 73 4898 4891 4902
7351 73 4914 4915 4922
7352 73 4910 4903 4914
7353 73 4926 4927 4934
7354 73 4922 4915 4926
7355 73 4938 4939 4946
7356 73 4934 4927 4938
7357 73 4950 4951 4958
7358 73 4946 4939 4950
7359 73 4962 4963 4970
7360 73 4958 4951 4962
7361 73 4974 4975 4982
7362 73 4970 4963 4974
7363 73 4986 4987 4994
7364 73 4982 4975 4986
7365 73 4998 4999 5006
7366 73 4994 4987 4998
7367 73 5010 5011 5018
7368 73 5006 4999 5010
7369 73 5022 5023 5030
7370 73 5018 5011 5022
7371 73 5034 5035 5042
7372 73 5030 5023 5034
7373 73 5046 5047 5054
7374 73 5042 5035 5046
7375 73 5058 5059 5066
7376 73 5054 5047 5058
7377 73 5070 5071 5078
7378 73 5066 5059 5070
7379 73 5082 5083 5090
7380 73 5078 5071 5082
7381 73 5094 5095 5102
7382 73 5090 5083 5094
7383 73 5106 5107 5114
7384 73 5102 5095 5106
7385 73 5118 5119 5126
7386 73 5114 5107 5118
7387 73 5130 5131 5138
7388 73 5126 5119 5130
7389 73 5142 5143 5150
7390 73 5138 5131 5142
7391 73 5154 5155 5162
7392 73 5150 5143 5154
7393 73 5166 5167 5174
7394 73 5162 5155 5166
7395 73 5178 5179 5186
7396 73 5174 5167 5178
7397 73 5190 5191 5198
7398 73 5186 5179 5190
7399 73 5202 5203 5210
7400 73 5198 5191 5202
7401 73 5214 5215 5222
7402 73 5210 5203 5214
7403 73 5226 5227 5234
7404 73 5222 5215 5226
7405 73 5238 5239 5246
7406 73 5234 5227 5238
7407 73 5250 5251 5258
7408 73 5246 5239 5250
7409 73 5262 5263 5270
7410 73 5258 5251 5262
7411 73 5274 5275 5282
7412 73 5270 5263 5274
7413 73 5286 5287 5294
7414 73 5282 5275 5286
7415 73 5298 5299 5306
7416 73 5294 5287 5298
7417 73 5310 5311 5318
7418 73 5306 5299 5310
7419 73 5322 5323 5330
7420 73 5318 5311 5322
7421 73 5334 5335 5342
7422 73 5330 5323 5334
7423 73 5346 5347 5354
7424 73 5342 5335 5346
7425 73 5358 5359 5366
7426 73 5354 5347 5358
7427 73 5370 5371 5378
7428 73 5366 5359 5370
7429 73 5382 5383 5390
7430 73 5378 5371 5382
7431 73 5394 5395 5402
7432 73 5390 5383 5394
7433 73 5402 5395 5406
7434 73 5432 5433 5440
7435 73 5428 5420 5432
7436 73 5444 5445 5452
7437 73 5440 5433 5444
7438 73 5456 5457 5464
7439 73 5452 5445 5456
7440 73 5468 5469 5476
7441 73 5464 5457 5468
7442 73 5480 5481 5488
7443 73 5476 5469 5480
7444 73 5492 5493 5500
7445 73 5488 5481 5492
7446 73 5504 5505 5512
7447 73 5500 5493 5504
7448 73 5516 5517 5524
7449 73 5512 5505 5516
7450 73 5528 5529 5536
7451 73 5524 5517 5528
7452 73 5540 5541 5548
7453 73 5536 5529 5540
7454 73 5552 5553 5560
7455 73 5548 5541 5552
7456 73 5564 5565 5572
7457 73 5560 5553 5564
7458 73 5576 5577 5584
7459 73 5572 5565 5576
7460 73 5588 5589 5596
7461 73 5584 5577 5588
7462 73 5600 5601 5608
7463 73 5596 5589 5600
7464 73 5612 5613 5620
7465 73 5608 5601 5612
7466 73 5624 5625 5632
7467 73 5620 5613 5624
7468 73 5636 5637 5644
7469 73 5632 5625 5636
7470 73 5648 5649 5656
7471 73 5644 5637 5648
7472 73 5660 5661 5668
7473 73 5656 5649 5660
7474 73 5672 5673 5680
7475 73 5668 5661 5672
7476 73 5684 5685 5692
7477 73 5680 5673 5684
7478 73 5696 5697 5704
7479 73 5692 5685 5696
7480 73 5708 5709 5716
7481 73 5704 5697 5708
7482 73 5720 5721 5728
7483 73 5716 5709 5720
7484 73 5732 5733 5740
7485 73 5728 5721 5732
7486 73 5744 5745 5752
7487 73 5740 5733 5744
7488 73 5756 5757 5764
7489 73 5752 5745 5756
7490 73 5768 5769 5776
7491 73 5764 5757 5768
7492 73 5780 5781 5788
7493 73 5776 5769 5780
7494 73 5792 5793 5800
7495 73 5788 5781 5792
7496 73 5804 5805 5812
7497 73 5800 5793 5804
7498 73 5816 5817 5824
7499 73 5812 5805 5816
7500 73 5828 5829 5836
7501 73 5824 5817 5828
7502 73 5840 5841 5848
7503 73 5836 5829 5840
7504 73 5852 5853 5860
7505 73 5848 5841 5852
7506 73 5864 5865 5872
7507 73 5860 5853 5864
7508 73 5876 5877 5884
7509 73 5872 5865 5876
7510 73 5888 5889 5896
7511 73 5884 5877 5888
7512 73 5900 5901 5908
7513 73 5896 5889 5900
7514 73 5912 5913 5920
7515 73 5908 5901 5912
7516 73 5924 5925 5932
7517 73 5920 5913 5924
7518 73 5936 5937 5944
7519 73 5932 5925 5936
7520 73 5948 5949 5956
7521 73 5944 5937 5948
7522 73 5960 5961 5968
7523 73 5956 5949 5960
7524 73 5972 5973 5980
7525 73 5968 5961 5972
7526 73 5984 5985 5992
7527 73 5980 5973 5984
7528 73 5996 5997 6004
7529 73 5992 5985 5996
7530 73 6004 5997 6008
7531 76 591 590 596
7532 76 591 590 597
7533 76 1193 1192 1198
7534 76 1193 1192 1199
7535 76 1795 1794 1800
7536 76 1795 1794 1801
7537 76 2397 2396 2402
7538 76 2397 2396 2403
7539 76 2999 2998 3004
7540 76 2999 2998 3005
7541 76 3601 3600 3606
7542 76 3601 3600 3607
7543 76 4203 4202 4208
7544 76 4203 4202 4209
7545 76 4805 4804 4810
7546 76 4805 4804 4811
7547 76 5407 5406 5412
7548 76 5407 5406 5413
7549 76 6009 6008 6014
7550 76 6009 6008 6015
7551 82 2 1 7
7552 82 2 1 8
7553 82 2 1 9
7554 82 604 603 609
7555 82 604 603 610
7556 82 604 603 611
7557 82 1206 1205 1211
7558 82 1206 1205 1212
7559 82 1206 1205 1213
7560 82 1808 1807 1813
7561 82 1808 1807 1814
7562 82 1808 1807 1815
7563 82 2410 2409 2415
7564 82 2410 2409 2416
7565 82 2410 2409 2417
7566 82 3012 3011 3017
7567 82 3012 3011 3018
7568 82 3012 3011 3019
7569 82 3614 3613 3619
7570 82 3614 3613 3620
7571 82 3614 3613 3621
7572 82 4216 4215 4221
7573 82 4216 4215 4222
7574 82 4216 4215 4223
7575 82 4818 4817 4823
7576 82 4818 4817 4824
7577 82 4818 4817 4825
7578 82 5420 5419 5425
7579 82 5420 5419 5426
7580 82 5420 5419 5427
7581 84 2 14 20
7582 84 2 14 21
7583 84 15 14 20
7584 84 15 14 21
7585 84 15 26 32
7586 84 15 26 33
7587 84 27 26 32
7588 84 27 26 33
7589 84 27 38 44
7590 84 27 38 45
7591 84 39 38 44
7592 84 39 38 45
7593 84 39 50 56
7594 84 39 50 57
7595 84 51 50 56
7596 84 51 50 57
7597 84 51 62 68
7598 84 51 62 69
7599 84 63 62 68
7600 84 63 62 69
7601 84 63 74 80
7602 84 63 74 81
7603 84 75 74 80
7604 84 75 74 81
7605 84 75 86 92
7606 84 75 86 93
7607 84 87 86 92
7608 84 87 86 93
7609 84 87 98 104
7610 84 87 98 105
7611 84 99 98 104
7612 84 99 98 105
7613 84 99 110 116
7614 84 99 110 117
7615 84 111 110 116
7616 84 111 110 117
7617 84 111 122 128
7618 84 111 122 129
7619 84 123 122 128
7620 84 123 122 129
7621 84 123 134 140
7622 84 123 134 141
7623 84 135 134 140
7624 84 135 134 141
7625 84 135 146 152
7626 84 135 146 153
7627 84 147 146 152
7628 84 147 146 153
7629 84 147 158 164
7630 84 147 158 165
7631 84 159 158 164
7632 84 159 158 165
7633 84 159 170 176
7634 84 159 170 177
7635 84 171 170 176
7636 84 171 170 177
7637 84 171 182 188
7638 84 171 182 189
7639 84 183 182 188
7640 84 183 182 189
7641 84 183 194 200
7642 84 183 194 201
7643 84 195 194 200
7644 84 195 194 201
7645 84 195 206 212
7646 84 195 206 213
7647 84 207 206 212
7648 84 207 206 213
7649 84 207 218 224
7650 84 207 218 225
7651 84 219 218 224
7652 84 219 218 225
7653 84 219 230 236
7654 84 219 230 237
7655 84 231 230 236
7656 84 231 230 237
7657 84 231 242 248
7658 84 231 242 249
7659 84 243 242 248
7660 84 243 242 249
7661 84 243 254 260
7662 84 243 254 261
7663 84 255 254 260
7664 84 255 254 261
7665 84 255 266 272
7666 84 255 266 273
7667 84 267 266 272
7668 84 267 266 273
7669 84 267 278 284
7670 84 267 278 285
7671 84 279 278 284
7672 84 279 278 285
7673 84 279 290 296
7674 84 279 290 297
7675 84 291 290 296
7676 84 291 290 297
7677 84 291 302 308
7678 84 291 302 309
7679 84 303 302 308
7680 84 303 302 309
7681 84 303 314 320
7682 84 303 314 321
7683 84 315 314 320
7684 84 315 314 321
7685 84 315 326 332
7686 84 315 326 333
7687 84 327 326 332
7688 84 327 326 333
7689 84 327 338 344
7690 84 327 338 345
7691 84 339 338 344
7692 84 339 338 345
7693 84 339 350 356
7694 84 339 350 357
7695 84 351 350 356
7696 84 351 350 357
7697 84 351 362 368
7698 84 351 362 369
7699 84 363 362 368
7700 84 363 362 369
7701 84 363 374 380
7702 84 363 374 381
7703 84 375 374 380
7704 84 375 374 381
7705 84 375 386 392
7706 84 375 386 393
7707 84 387 386 392
7708 84 387 386 393
7709 84 387 398 404
7710 84 387 398 405
7711 84 399 398 404
7712 84 399 398 405
7713 84 399 410 416
7714 84 399 410 417
7715 84 411 410 416
7716 84 411 410 417
7717 84 411 422 428
7718 84 411 422 429
7719 84 423 422 428
7720 84 423 422 429
7721 84 423 434 440
7722 84 423 434 441
7723 84 435 434 440
7724 84 435 434 441
7725 84 435 446 452
7726 84 435 446 453
7727 84 447 446 452
7728 84 447 446 453
7729 84 447 458 464
7730 84 447 458 465
7731 84 459 458 464
7732 84 459 458 465
7733 84 459 470 476
7734 84 459 470 477
7735 84 471 470 476
7736 84 471 470 477
7737 84 471 482 488
7738 84 471 482 489
7739 84 483 482 488
7740 84 483 482 489
7741 84 483 494 500
7742 84 483 494 501
7743 84 495 494 500
7744 84 495 494 501
7745 84 495 506 512
7746 84 495 506 513
7747 84 507 506 512
7748 84 507 506 513
7749 84 507 518 524
7750 84 507 518 525
7751 84 519 518 524
7752 84 519 518 525
7753 84 519 530 536
7754 84 519 530 537
7755 84 531 530 536
7756 84 531 530 537
7757 84 531 542 548
7758 84 531 542 549
7759 84 543 542 548
7760 84 543 542 549
7761 84 543 554 560
7762 84 543 554 561
7763 84 555 554 560
7764 84 555 554 561
7765 84 555 566 572
7766 84 555 566 573
7767 84 567 566 572
7768 84 567 566 573
7769 84 567 578 584
7770 84 567 578 585
7771 84 579 578 584
7772 84 579 578 585
7773 84 579 590 596
7774 84 579 590 597
7775 84 604 616 622
7776 84 604 616 623
7777 84 617 616 622
7778 84 617 616 623
7779 84 617 628 634
7780 84 617 628 635
7781 84 629 628 634
7782 84 629 628 635
7783 84 629 640 646
7784 84 629 640 647
7785 84 641 640 646
7786 84 641 640 647
7787 84 641 652 658
7788 84 641 652 659
7789 84 653 652 658
7790 84 653 652 659
7791 84 653 664 670
7792 84 653 664 671
7793 84 665 664 670
7794 84 665 664 671
7795 84 665 676 682
7796 84 665 676 683
7797 84 677 676 682
7798 84 677 676 683
7799 84 677 688 694
7800 84 677 688 695
7801 84 689 688 694
7802 84 689 688 695
7803 84 689 700 706
7804 84 689 700 707
7805 84 701 700 706
7806 84 701 700 707
7807 84 701 712 718
7808 84 701 712 719
7809 84 713 712 718
7810 84 713 712 719
7811 84 713 724 730
7812 84 713 724 731
7813 84 725 724 730
7814 84 725 724 731
7815 84 725 736 742
7816 84 725 736 743
7817 84 737 736 742
7818 84 737 736 743
7819 84 737 748 754
7820 84 737 748 755
7821 84 749 748 754
7822 84 749 748 755
7823 84 749 760 766
7824 84 749 760 767
7825 84 761 760 766
7826 84 761 760 767
7827 84 761 772 778
7828 84 761 772 779
7829 84 773 772 778
7830 84 773 772 779
7831 84 773 784 790
7832 84 773 784 791
7833 84 785 784 790
7834 84 785 784 791
7835 84 785 796 802
7836 84 785 796 803
7837 84 797 796 802
7838 84 797 796 803
7839 84 797 808 814
7840 84 797 808 815
7841 84 809 808 814
7842 84 809 808 815
7843 84 809 820 826
7844 84 809 820 827
7845 84 821 820 826
7846 84 821 820 827
7847 84 821 832 838
7848 84 821 832 839
7849 84 833 832 838
7850 84 833 832 839
7851 84 833 844 850
7852 84 833 844 851
7853 84 845 844 850
7854 84 845 844 851
7855 84 845 856 862
7856 84 845 856 863
7857 84 857 856 862
7858 84 857 856 863
7859 84 857 868 874
7860 84 857 868 875
7861 84 869 868 874
7862 84 869 868 875
7863 84 869 880 886
7864 84 869 880 887
7865 84 881 880 886
7866 84 881 880 887
7867 84 881 892 898
7868 84 881 892 899
7869 84 893 892 898
7870 84 893 892 899
7871 84 893 904 910
7872 84 893 904 911
7873 84 905 904 910
7874 84 905 904 911
7875 84 905 916 922
7876 84 905 916 923
7877 84 917 916 922
7878 84 917 916 923
7879 84 917 928 934
7880 84 917 928 935
7881 84 929 928 934
7882 84 929 928 935
7883 84 929 940 946
7884 84 929 940 947
7885 84 941 940 946
7886 84 941 940 947
7887 84 941 952 958
7888 84 941 952 959
7889 84 953 952 958
7890 84 953 952 959
7891 84 953 964 970
7892 84 953 964 971
7893 84 965 964 970
7894 84 965 964 971
7895 84 965 976 982
7896 84 965 976 983
7897 84 977 976 982
7898 84 977 976 983
7899 84 977 988 994
7900 84 977 988 995
7901 84 989 988 994
7902 84 989 988 995
7903 84 989 1000 1006
7904 84 989 1000 1007
7905 84 1001 1000 1006
7906 84 1001 1000 1007
7907 84 1001 1012 1018
7908 84 1001 1012 1019
7909 84 1013 1012 1018
7910 84 1013 1012 1019
7911 84 1013 1024 1030
7912 84 1013 1024 1031
7913 84 1025 1024 1030
7914 84 1025 1024 1031
7915 84 1025 1036 1042
7916 84 1025 1036 1043
7917 84 1037 1036 1042
7918 84 1037 1036 1043
7919 84 1037 1048 1054
7920 84 1037 1048 1055
7921 84 1049 1048 1054
7922 84 1049 1048 1055
7923 84 1049 1060 1066
7924 84 1049 1060 1067
7925 84 1061 1060 1066
7926 84 1061 1060 1067
7927 84 1061 1072 1078
7928 84 1061 1072 1079
7929 84 1073 1072 1078
7930 84 1073 1072 1079
7931 84 1073 1084 1090
7932 84 1073 1084 1091
7933 84 1085 1084 1090
7934 84 1085 1084 1091
7935 84 1085 1096 1102
7936 84 1085 1096 1103
7937 84 1097 1096 1102
7938 84 1097 1096 1103
7939 84 1097 1108 1114
7940 84 1097 1108 1115
7941 84 1109 1108 1114
7942 84 1109 1108 1115
7943 84 1109 1120 1126
7944 84 1109 1120 1127
7945 84 1121 1120 1126
7946 84 1121 1120 1127
7947 84 1121 1132 1138
7948 84 1121 1132 1139
7949 84 1133 1132 1138
7950 84 1133 1132 1139
7951 84 1133 1144 1150
7952 84 1133 1144 1151
7953 84 1145 1144 1150
7954 84 1145 1144 1151
7955 84 1145 1156 1162
7956 84 1145 1156 1163
7957 84 1157 1156 1162
7958 84 1157 1156 1163
7959 84 1157 1168 1174
7960 84 1157 1168 1175
7961 84 1169 1168 1174
7962 84 1169 1168 1175
7963 84 1169 1180 1186
7964 84 1169 1180 1187
7965 84 1181 1180 1186
7966 84 1181 1180 1187
7967 84 1181 1192 1198
7968 84 1181 1192 1199
7969 84 1206 1218 1224
7970 84 1206 1218 1225
7971 84 1219 1218 1224
7972 84 1219 1218 1225
7973 84 1219 1230 1236
7974 84 1219 1230 1237
7975 84 1231 1230 1236
7976 84 1231 1230 1237
7977 84 1231 1242 1248
7978 84 1231 1242 1249
7979 84 1243 1242 1248
7980 84 1243 1242 1249
7981 84 1243 1254 1260
7982 84 1243 1254 1261
7983 84 1255 1254 1260
7984 84 1255 1254 1261
7985 84 1255 1266 1272
7986 84 1255 1266 1273
7987 84 1267 1266 1272
7988 84 1267 1266 1273
7989 84 1267 1278 1284
7990 84 1267 1278 1285
7991 84 1279 1278 1284
7992 84 1279 1278 1285
7993 84 1279 1290 1296
7994 84 1279 1290 1297
7995 84 1291 1290 1296
7996 84 1291 1290 1297
7997 84 1291 1302 1308
7998 84 1291 1302 1309
7999 84 1303 1302 1308
8000 84 1303 1302 1309
8001 84 1303 1314 1320
8002 84 1303 1314 1321
8003 84 1315 1314 1320
8004 84 1315 1314 1321
8005 84 1315 1326 1332
8006 84 1315 1326 1333
8007 84 1327 1326 1332
8008 84 1327 1326 1333
8009 84 1327 1338 1344
8010 84 1327 1338 1345
8011 84 1339 1338 1344
8012 84 1339 1338 1345
8013 84 1339 1350 1356
8014 84 1339 1350 1357
8015 84 1351 1350 1356
8016 84 1351 1350 1357
8017 84 1351 1362 1368
8018 84 1351 1362 1369
8019 84 1363 1362 1368
8020 84 1363 1362 1369
8021 84 1363 1374 1380
8022 84 1363 1374 1381
8023 84 1375 1374 1380
8024 84 1375 1374 1381
8025 84 1375 1386 1392
8026 84 1375 1386 1393
8027 84 1387 1386 1392
8028 84 1387 1386 1393
8029 84 1387 1398 1404
8030 84 1387 1398 1405
8031 84 1399 1398 1404
8032 84 1399 1398 1405
8033 84 1399 1410 1416
8034 84 1399 1410 1417
8035 84 1411 1410 1416
8036 84 1411 1410 1417
8037 84 1411 1422 1428
8038 84 1411 1422 1429
8039 84 1423 1422 1428
8040 84 1423 1422 1429
8041 84 1423 1434 1440
8042 84 1423 1434 1441
8043 84 1435 1434 1440
8044 84 1435 1434 1441
8045 84 1435 1446 1452
8046 84 1435 1446 1453
8047 84 1447 1446 1452
8048 84 1447 1446 1453
8049 84 1447 1458 1464
8050 84 1447 1458 1465
8051 84 1459 1458 1464
8052 84 1459 1458 1465
8053 84 1459 1470 1476
8054 84 1459 1470 1477
8055 84 1471 1470 1476
8056 84 1471 1470 1477
8057 84 1471 1482 1488
8058 84 1471 1482 1489
8059 84 1483 1482 1488
8060 84 1483 1482 1489
8061 84 1483 1494 1500
8062 84 1483 1494 1501
8063 84 1495 1494 1500
8064 84 1495 1494 1501
8065 84 1495 1506 1512
8066 84 1495 1506 1513
8067 84 1507 1506 1512
8068 84 1507 1506 1513
8069 84 1507 1518 1524
8070 84 1507 1518 1525
8071 84 1519 1518 1524
8072 84 1519 1518 1525
8073 84 1519 1530 1536
8074 84 1519 1530 1537
8075 84 1531 1530 1536
8076 84 1531 1530 1537
8077 84 1531 1542 1548
8078 84 1531 1542 1549
8079 84 1543 1542 1548
8080 84 1543 1542 1549
8081 84 1543 1554 1560
8082 84 1543 1554 1561
8083 84 1555 1554 1560
8084 84 1555 1554 1561
8085 84 1555 1566 1572
8086 84 1555 1566 1573
8087 84 1567 1566 1572
8088 84 1567 1566 1573
8089 84 1567 1578 1584
8090 84 1567 1578 1585
8091 84 1579 1578 1584
8092 84 1579 1578 1585
8093 84 1579 1590 1596
8094 84 1579 1590 1597
8095 84 1591 1590 1596
8096 84 1591 1590 1597
8097 84 1591 1602 1608
8098 84 1591 1602 1609
8099 84 1603 1602 1608
8100 84 1603 1602 1609
8101 84 1603 1614 1620
8102 84 1603 1614 1621
8103 84 1615 1614 1620
8104 84 1615 1614 1621
8105 84 1615 1626 1632
8106 84 1615 1626 1633
8107 84 1627 1626 1632
8108 84 1627 1626 1633
8109 84 1627 1638 1644
8110 84 1627 1638 1645
8111 84 1639 1638 1644
8112 84 1639 1638 1645
8113 84 1639 1650 1656
8114 84 1639 1650 1657
8115 84 1651 1650 1656
8116 84 1651 1650 1657
8117 84 1651 1662 1668
8118 84 1651 1662 1669
8119 84 1663 1662 1668
8120 84 1663 1662 1669
8121 84 1663 1674 1680
8122 84 1663 1674 1681
8123 84 1675 1674 1680
8124 84 1675 1674 1681
8125 84 1675 1686 1692
8126 84 1675 1686 1693
8127 84 1687 1686 1692
8128 84 1687 1686 1693
8129 84 1687 1698 1704
8130 84 1687 1698 1705
8131 84 1699 1698 1704
8132 84 1699 1698 1705
8133 84 1699 1710 1716
8134 84 1699 1710 1717
8135 84 1711 1710 1716
8136 84 1711 1710 1717
8137 84 1711 1722 1728
8138 84 1711 1722 1729
8139 84 1723 1722 1728
8140 84 1723 1722 1729
8141 84 1723 1734 1740
8142 84 1723 1734 1741
8143 84 1735 1734 1740
8144 84 1735 1734 1741
8145 84 1735 1746 1752
8146 84 1735 1746 1753
8147 84 1747 1746 1752
8148 84 1747 1746 1753
8149 84 1747 1758 1764
8150 84 1747 1758 1765
8151 84 1759 1758 1764
8152 84 1759 1758 1765
8153 84 1759 1770 1776
8154 84 1759 1770 1777
8155 84 1771 1770 1776
8156 84 1771 1770 1777
8157 84 1771 1782 1788
8158 84 1771 1782 1789
8159 84 1783 1782 1788
8160 84 1783 1782 1789
8161 84 1783 1794 1800
8162 84 1783 1794 1801
8163 84 1808 1820 1826
8164 84 1808 1820 1827
8165 84 1821 1820 1826
8166 84 1821 1820 1827
8167 84 1821 1832 1838
8168 84 1821 1832 1839
8169 84 1833 1832 1838
8170 84 1833 1832 1839
8171 84 1833 1844 1850
8172 84 1833 1844 1851
8173 84 1845 1844 1850
8174 84 1845 1844 1851
8175 84 1845 1856 1862
8176 84 1845 1856 1863
8177 84 1857 1856 1862
8178 84 1857 1856 1863
8179 84 1857 1868 1874
8180 84 1857 1868 1875
8181 84 1869 1868 1874
8182 84 1869 1868 1875
8183 84 1869 1880 1886
8184 84 1869 1880 1887
8185 84 1881 1880 1886
8186 84 1881 1880 1887
8187 84 1881 1892 1898
8188 84 1881 1892 1899
8189 84 1893 1892 1898
8190 84 1893 1892 1899
8191 84 1893 1904 1910
8192 84 1893 1904 1911
8193 84 1905 1904 1910
8194 84 1905 1904 1911
8195 84 1905 1916 1922
8196 84 1905 1916 1923
8197 84 1917 1916 1922
8198 84 1917 1916 1923
8199 84 1917 1928 1934
8200 84 1917 1928 1935
8201 84 1929 1928 1934
8202 84 1929 1928 1935
8203 84 1929 1940 1946
8204 84 1929 1940 1947
8205 84 1941 1940 1946
8206 84 1941 1940 1947
8207 84 1941 1952 1958
8208 84 1941 1952 1959
8209 84 1953 1952 1958
8210 84 1953 1952 1959
8211 84 1953 1964 1970
8212 84 1953 1964 1971
8213 84 1965 1964 1970
8214 84 1965 1964 1971
8215 84 1965 1976 1982
8216 84 1965 1976 1983
8217 84 1977 1976 1982
8218 84 1977 1976 1983
8219 84 1977 1988 1994
8220 84 1977 1988 1995
8221 84 1989 1988 1994
8222 84 1989 1988 1995
8223 84 1989 2000 2006
8224 84 1989 2000 2007
8225 84 2001 2000 2006
8226 84 2001 2000 2007
8227 84 2001 2012 2018
8228 84 2001 2012 2019
8229 84 2013 2012 2018
8230 84 2013 2012 2019
8231 84 2013 2024 2030
8232 84 2013 2024 2031
8233 84 2025 2024 2030
8234 84 2025 2024 2031
8235 84 2025 2036 2042
8236 84 2025 2036 2043
8237 84 2037 2036 2042
8238 84 2037 2036 2043
8239 84 2037 2048 2054
8240 84 2037 2048 2055
8241 84 2049 2048 2054
8242 84 2049 2048 2055
8243 84 2049 2060 2066
8244 84 2049 2060 2067
8245 84 2061 2060 2066
8246 84 2061 2060 2067
8247 84 2061 2072 2078
8248 84 2061 2072 2079
8249 84 2073 2072 2078
8250 84 2073 2072 2079
8251 84 2073 2084 2090
8252 84 2073 2084 2091
8253 84 2085 2084 2090
8254 84 2085 2084 2091
8255 84 2085 2096 2102
8256 84 2085 2096 2103
8257 84 2097 2096 2102
8258 84 2097 2096 2103
8259 84 2097 2108 2114
8260 84 2097 2108 2115
8261 84 2109 2108 2114
8262 84 2109 2108 2115
8263 84 2109 2120 2126
8264 84 2109 2120 2127
8265 84 2121 2120 2126
8266 84 2121 2120 2127
8267 84 2121 2132 2138
8268 84 2121 2132 2139
8269 84 2133 2132 2138
8270 84 2133 2132 2139
8271 84 2133 2144 2150
8272 84 2133 2144 2151
8273 84 2145 2144 2150
8274 84 2145 2144 2151
8275 84 2145 2156 2162
8276 84 2145 2156 2163
8277 84 2157 2156 2162
8278 84 2157 2156 2163
8279 84 2157 2168 2174
8280 84 2157 2168 2175
8281 84 2169 2168 2174
8282 84 2169 2168 2175
8283 84 2169 2180 2186
8284 84 2169 2180 2187
8285 84 2181 2180 2186
8286 84 2181 2180 2187
8287 84 2181 2192 2198
8288 84 2181 2192 2199
8289 84 2193 2192 2198
8290 84 2193 2192 2199
8291 84 2193 2204 2210
8292 84 2193 2204 2211
8293 84 2205 2204 2210
8294 84 2205 2204 2211
8295 84 2205 2216 2222
8296 84 2205 2216 2223
8297 84 2217 2216 2222
8298 84 2217 2216 2223
8299 84 2217 2228 2234
8300 84 2217 2228 2235
8301 84 2229 2228 2234
8302 84 2229 2228 2235
8303 84 2229 2240 2246
8304 84 2229 2240 2247
8305 84 2241 2240 2246
8306 84 2241 2240 2247
8307 84 2241 2252 2258
8308 84 2241 2252 2259
8309 84 2253 2252 2258
8310 84 2253 2252 2259
8311 84 2253 2264 2270
8312 84 2253 2264 2271
8313 84 2265 2264 2270
8314 84 2265 2264 2271
8315 84 2265 2276 2282
8316 84 2265 2276 2283
8317 84 2277 2276 2282
8318 84 2277 2276 2283
8319 84 2277 2288 2294
8320 84 2277 2288 2295
8321 84 2289 2288 2294
8322 84 2289 2288 2295
8323 84 2289 2300 2306
8324 84 2289 2300 2307
8325 84 2301 2300 2306
8326 84 2301 2300 2307
8327 84 2301 2312 2318
8328 84 2301 2312 2319
8329 84 2313 2312 2318
8330 84 2313 2312 2319
8331 84 2313 2324 2330
8332 84 2313 2324 2331
8333 84 2325 2324 2330
8334 84 2325 2324 2331
8335 84 2325 2336 2342
8336 84 2325 2336 2343
8337 84 2337 2336 2342
8338 84 2337 2336 2343
8339 84 2337 2348 2354
8340 84 2337 2348 2355
8341 84 2349 2348 2354
8342 84 2349 2348 2355
8343 84 2349 2360 2366
8344 84 2349 2360 2367
8345 84 2361 2360 2366
8346 84 2361 2360 2367
8347 84 2361 2372 2378
8348 84 2361 2372 2379
8349 84 2373 2372 2378
8350 84 2373 2372 2379
8351 84 2373 2384 2390
8352 84 2373 2384 2391
8353 84 2385 2384 2390
8354 84 2385 2384 2391
8355 84 2385 2396 2402
8356 84 2385 2396 2403
8357 84 2410 2422 2428
8358 84 2410 2422 2429
8359 84 2423 2422 2428
8360 84 2423 2422 2429
8361 84 2423 2434 2440
8362 84 2423 2434 2441
8363 84 2435 2434 2440
8364 84 2435 2434 2441
8365 84 2435 2446 2452
8366 84 2435 2446 2453
8367 84 2447 2446 2452
8368 84 2447 2446 2453
8369 84 2447 2458 2464
8370 84 2447 2458 2465
8371 84 2459 2458 2464
8372 84 2459 2458 2465
8373 84 2459 2470 2476
8374 84 2459 2470 2477
8375 84 2471 2470 2476
8376 84 2471 2470 2477
8377 84 2471 2482 2488
8378 84 2471 2482 2489
8379 84 2483 2482 2488
8380 84 2483 2482 2489
8381 84 2483 2494 2500
8382 84 2483 2494 2501
8383 84 2495 2494 2500
8384 84 2495 2494 2501
8385 84 2495 2506 2512
8386 84 2495 2506 2513
8387 84 2507 2506 2512
8388 84 2507 2506 2513
8389 84 2507 2518 2524
8390 84 2507 2518 2525
8391 84 2519 2518 2524
8392 84 2519 2518 2525
8393 84 2519 2530 2536
8394 84 2519 2530 2537
8395 84 2531 2530 2536
8396 84 2531 2530 2537
8397 84 2531 2542 2548
8398 84 2531 2542 2549
8399 84 2543 2542 2548
8400 84 2543 2542 2549
8401 84 2543 2554 2560
8402 84 2543 2554 2561
8403 84 2555 2554 2560
8404 84 2555 2554 2561
8405 84 2555 2566 2572
8406 84 2555 2566 2573
8407 84 2567 2566 2572
8408 84 2567 2566 2573
8409 84 2567 2578 2584
8410 84 2567 2578 2585
8411 84 2579 2578 2584
8412 84 2579 2578 2585
8413 84 2579 2590 2596
8414 84 2579 2590 2597
8415 84 2591 2590 2596
8416 84 2591 2590 2597
8417 84 2591 2602 2608
8418 84 2591 2602 2609
8419 84 2603 2602 2608
8420 84 2603 2602 2609
8421 84 2603 2614 2620
8422 84 2603 2614 2621
8423 84 2615 2614 2620
8424 84 2615 2614 2621
8425 84 2615 2626 2632
8426 84 2615 2626 2633
8427 84 2627 2626 2632
8428 84 2627 2626 2633
8429 84 2627 2638 2644
8430 84 2627 2638 2645
8431 84 2639 2638 2644
8432 84 2639 2638 2645
8433 84 2639 2650 2656
8434 84 2639 2650 2657
8435 84 2651 2650 2656
8436 84 2651 2650 2657
8437 84 2651 2662 2668
8438 84 2651 2662 2669
8439 84 2663 2662 2668
8440 84 2663 2662 2669
8441 84 2663 2674 2680
8442 84 2663 2674 2681
8443 84 2675 2674 2680
8444 84 2675 2674 2681
8445 84 2675 2686 2692
8446 84 2675 2686 2693
8447 84 2687 2686 2692
8448 84 2687 2686 2693
8449 84 2687 2698 2704
8450 84 2687 2698 2705
8451 84 2699 2698 2704
8452 84 2699 2698 2705
8453 84 2699 2710 2716
8454 84 2699 2710 2717
8455 84 2711 2710 2716
8456 84 2711 2710 2717
8457 84 2711 2722 2728
8458 84 2711 2722 2729
8459 84 2723 2722 2728
8460 84 2723 2722 2729
8461 84 2723 2734 2740
8462 84 2723 2734 2741
8463 84 2735 2734 2740
8464 84 2735 2734 2741
8465 84 2735 2746 2752
8466 84 2735 2746 2753
8467 84 2747 2746 2752
8468 84 2747 2746 2753
8469 84 2747 2758 2764
8470 84 2747 2758 2765
8471 84 2759 2758 2764
8472 84 2759 2758 2765
8473 84 2759 2770 2776
8474 84 2759 2770 2777
8475 84 2771 2770 2776
8476 84 2771 2770 2777
8477 84 2771 2782 2788
8478 84 2771 2782 2789
8479 84 2783 2782 2788
8480 84 2783 2782 2789
8481 84 2783 2794 2800
8482 84 2783 2794 2801
8483 84 2795 2794 2800
8484 84 2795 2794 2801
8485 84 2795 2806 2812
8486 84 2795 2806 2813
8487 84 2807 2806 2812
8488 84 2807 2806 2813
8489 84 2807 2818 2824
8490 84 2807 2818 2825
8491 84 2819 2818 2824
8492 84 2819 2818 2825
8493 84 2819 2830 2836
8494 84 2819 2830 2837
8495 84 2831 2830 2836
8496 84 2831 2830 2837
8497 84 2831 2842 2848
8498 84 2831 2842 2849
8499 84 2843 2842 2848
8500 84 2843 2842 2849
8501 84 2843 2854 2860
8502 84 2843 2854 2861
8503 84 2855 2854 2860
8504 84 2855 2854 2861
8505 84 2855 2866 2872
8506 84 2855 2866 2873
8507 84 2867 2866 2872
8508 84 2867 2866 2873
8509 84 2867 2878 2884
8510 84 2867 2878 2885
8511 84 2879 2878 2884
8512 84 2879 2878 2885
8513 84 2879 2890 2896
8514 84 2879 2890 2897
8515 84 2891 2890 2896
8516 84 2891 2890 2897
8517 84 2891 2902 2908
8518 84 2891 2902 2909
8519 84 2903 2902 2908
8520 84 2903 2902 2909
8521 84 2903 2914 2920
8522 84 2903 2914 2921
8523 84 2915 2914 2920
8524 84 2915 2914 2921
8525 84 2915 2926 2932
8526 84 2915 2926 2933
8527 84 2927 2926 2932
8528 84 2927 2926 2933
8529 84 2927 2938 2944
8530 84 2927 2938 2945
8531 84 2939 2938 2944
8532 84 2939 2938 2945
8533 84 2939 2950 2956
8534 84 2939 2950 2957
8535 84 2951 2950 2956
8536 84 2951 2950 2957
8537 84 2951 2962 2968
8538 84 2951 2962 2969
8539 84 2963 2962 2968
8540 84 2963 2962 2969
8541 84 2963 2974 2980
8542 84 2963 2974 2981
8543 84 2975 2974 2980
8544 84 2975 2974 2981
8545 84 2975 2986 2992
8546 84 2975 2986 2993
8547 84 2987 2986 2992
8548 84 2987 2986 2993
8549 84 2987 2998 3004
8550 84 2987 2998 3005
8551 84 3012 3024 3030
8552 84 3012 3024 3031
8553 84 3025 3024 3030
8554 84 3025 3024 3031
8555 84 3025 3036 3042
8556 84 3025 3036 3043
8557 84 3037 3036 3042
8558 84 3037 3036 3043
8559 84 3037 3048 3054
8560 84 3037 3048 3055
8561 84 3049 3048 3054
8562 84 3049 3048 3055
8563 84 3049 3060 3066
8564 84 3049 3060 3067
8565 84 3061 3060 3066
8566 84 3061 3060 3067
8567 84 3061 3072 3078
8568 84 3061 3072 3079
8569 84 3073 3072 3078
8570 84 3073 3072 3079
8571 84 3073 3084 3090
8572 84 3073 3084 3091
8573 84 3085 3084 3090
8574 84 3085 3084 3091
8575 84 3085 3096 3102
8576 84 3085 3096 3103
8577 84 3097 3096 3102
8578 84 3097 3096 3103
8579 84 3097 3108 3114
8580 84 3097 3108 3115
8581 84 3109 3108 3114
8582 84 3109 3108 3115
8583 84 3109 3120 3126
8584 84 3109 3120 3127
8585 84 3121 3120 3126
8586 84 3121 3120 3127
8587 84 3121 3132 3138
8588 84 3121 3132 3139
8589 84 3133 3132 3138
8590 84 3133 3132 3139
8591 84 3133 3144 3150
8592 84 3133 3144 3151
8593 84 3145 3144 3150
8594 84 3145 3144 3151
8595 84 3145 3156 3162
8596 84 3145 3156 3163
8597 84 3157 3156 3162
8598 84 3157 3156 3163
8599 84 3157 3168 3174
8600 84 3157 3168 3175
8601 84 3169 3168 3174
8602 84 3169 3168 3175
8603 84 3169 3180 3186
8604 84 3169 3180 3187
8605 84 3181 3180 3186
8606 84 3181 3180 3187
8607 84 3181 3192 3198
8608 84 3181 3192 3199
8609 84 3193 3192 3198
8610 84 3193 3192 3199
8611 84 3193 3204 3210
8612 84 3193 3204 3211
8613 84 3205 3204 3210
8614 84 3205 3204 3211
8615 84 3205 3216 3222
8616 84 3205 3216 3223
8617 84 3217 3216 3222
8618 84 3217 3216 3223
8619 84 3217 3228 3234
8620 84 3217 3228 3235
8621 84 3229 3228 3234
8622 84 3229 3228 3235
8623 84 3229 3240 3246
8624 84 3229 3240 3247
8625 84 3241 3240 3246
8626 84 3241 3240 3247
8627 84 3241 3252 3258
8628 84 3241 3252 3259
8629 84 3253 3252 3258
8630 84 3253 3252 3259
8631 84 3253 3264 3270
8632 84 3253 3264 3271
8633 84 3265 3264 3270
8634 84 3265 3264 3271
8635 84 3265 3276 3282
8636 84 3265 3276 3283
8637 84 3277 3276 3282
8638 84 3277 3276 3283
8639 84 3277 3288 3294
8640 84 3277 3288 3295
8641 84 3289 3288 3294
8642 84 3289 3288 3295
8643 84 3289 3300 3306
8644 84 3289 3300 3307
8645 84 3301 3300 3306
8646 84 3301 3300 3307
8647 84 3301 3312 3318
8648 84 3301 3312 3319
8649 84 3313 3312 3318
8650 84 3313 3312 3319
8651 84 3313 3324 3330
8652 84 3313 3324 3331
8653 84 3325 3324 3330
8654 84 3325 3324 3331
8655 84 3325 3336 3342
8656 84 3325 3336 3343
8657 84 3337 3336 3342
8658 84 3337 3336 3343
8659 84 3337 3348 3354
8660 84 3337 3348 3355
8661 84 3349 3348 3354
8662 84 3349 3348 3355
8663 84 3349 3360 3366
8664 84 3349 3360 3367
8665 84 3361 3360 3366
8666 84 3361 3360 3367
8667 84 3361 3372 3378
8668 84 3361 3372 3379
8669 84 3373 3372 3378
8670 84 3373 3372 3379
8671 84 3373 3384 3390
8672 84 3373 3384 3391
8673 84 3385 3384 3390
8674 84 3385 3384 3391
8675 84 3385 3396 3402
8676 84 3385 3396 3403
8677 84 3397 3396 3402
8678 84 3397 3396 3403
8679 84 3397 3408 3414
8680 84 3397 3408 3415
8681 84 3409 3408 3414
8682 84 3409 3408 3415
8683 84 3409 3420 3426
8684 84 3409 3420 3427
8685 84 3421 3420 3426
8686 84 3421 3420 3427
8687 84 3421 3432 3438
8688 84 3421 3432 3439
8689 84 3433 3432 3438
8690 84 3433 3432 3439
8691 84 3433 3444 3450
8692 84 3433 3444 3451
8693 84 3445 3444 3450
8694 84 3445 3444 3451
8695 84 3445 3456 3462
8696 84 3445 3456 3463
8697 84 3457 3456 3462
8698 84 3457 3456 3463
8699 84 3457 3468 3474
8700 84 3457 3468 3475
8701 84 3469 3468 3474
8702 84 3469 3468 3475
8703 84 3469 3480 3486
8704 84 3469 3480 3487
8705 84 3481 3480 3486
8706 84 3481 3480 3487
8707 84 3481 3492 3498
8708 84 3481 3492 3499
8709 84 3493 3492 3498
8710 84 3493 3492 3499
8711 84 3493 3504 3510
8712 84 3493 3504 3511
8713 84 3505 3504 3510
8714 84 3505 3504 3511
8715 84 3505 3516 3522
8716 84 3505 3516 3523
8717 84 3517 3516 3522
8718 84 3517 3516 3523
8719 84 3517 3528 3534
8720 84 3517 3528 3535
8721 84 3529 3528 3534
8722 84 3529 3528 3535
8723 84 3529 3540 3546
8724 84 3529 3540 3547
8725 84 3541 3540 3546
8726 84 3541 3540 3547
8727 84 3541 3552 3558
8728 84 3541 3552 3559
8729 84 3553 3552 3558
8730 84 3553 3552 3559
8731 84 3553 3564 3570
8732 84 3553 3564 3571
8733 84 3565 3564 3570
8734 84 3565 3564 3571
8735 84 3565 3576 3582
8736 84 3565 3576 3583
8737 84 3577 3576 3582
8738 84 3577 3576 3583
8739 84 3577 3588 3594
8740 84 3577 3588 3595
8741 84 3589 3588 3594
8742 84 3589 3588 3595
8743 84 3589 3600 3606
8744 84 3589 3600 3607
8745 84 3614 3626 3632
8746 84 3614 3626 3633
8747 84 3627 3626 3632
8748 84 3627 3626 3633
8749 84 3627 3638 3644
8750 84 3627 3638 3645
8751 84 3639 3638 3644
8752 84 3639 3638 3645
8753 84 3639 3650 3656
8754 84 3639 3650 3657
8755 84 3651 3650 3656
8756 84 3651 3650 3657
8757 84 3651 3662 3668
8758 84 3651 3662 3669
8759 84 3663 3662 3668
8760 84 3663 3662 3669
8761 84 3663 3674 3680
8762 84 3663 3674 3681
8763 84 3675 3674 3680
8764 84 3675 3674 3681
8765 84 3675 3686 3692
8766 84 3675 3686 3693
8767 84 3687 3686 3692
8768 84 3687 3686 3693
8769 84 3687 3698 3704
8770 84 3687 3698 3705
8771 84 3699 3698 3704
8772 84 3699 3698 3705
8773 84 3699 3710 3716
8774 84 3699 3710 3717
8775 84 3711 3710 3716
8776 84 3711 3710 3717
8777 84 3711 3722 3728
8778 84 3711 3722 3729
8779 84 3723 3722 3728
8780 84 3723 3722 3729
8781 84 3723 3734 3740
8782 84 3723 3734 3741
8783 84 3735 3734 3740
8784 84 3735 3734 3741
8785 84 3735 3746 3752
8786 84 3735 3746 3753
8787 84 3747 3746 3752
8788 84 3747 3746 3753
8789 84 3747 3758 3764
8790 84 3747 3758 3765
8791 84 3759 3758 3764
8792 84 3759 3758 3765
8793 84 3759 3770 3776
8794 84 3759 3770 3777
8795 84 3771 3770 3776
8796 84 3771 3770 3777
8797 84 3771 3782 3788
8798 84 3771 3782 3789
8799 84 3783 3782 3788
8800 84 3783 3782 3789
8801 84 3783 3794 3800
8802 84 3783 3794 3801
8803 84 3795 3794 3800
8804 84 3795 3794 3801
8805 84 3795 3806 3812
8806 84 3795 3806 3813
8807 84 3807 3806 3812
8808 84 3807 3806 3813
8809 84 3807 3818 3824
8810 84 3807 3818 3825
8811 84 3819 3818 3824
8812 84 3819 3818 3825
8813 84 3819 3830 3836
8814 84 3819 3830 3837
8815 84 3831 3830 3836
8816 84 3831 3830 3837
8817 84 3831 3842 3848
8818 84 3831 3842 3849
8819 84 3843 3842 3848
8820 84 3843 3842 3849
8821 84 3843 3854 3860
8822 84 3843 3854 3861
8823 84 3855 3854 3860
8824 84 3855 3854 3861
8825 84 3855 3866 3872
8826 84 3855 3866 3873
8827 84 3867 3866 3872
8828 84 3867 3866 3873
8829 84 3867 3878 3884
8830 84 3867 3878 3885
8831 84 3879 3878 3884
8832 84 3879 3878 3885
8833 84 3879 3890 3896
8834 84 3879 3890 3897
8835 84 3891 3890 3896
8836 84 3891 3890 3897
8837 84 3891 3902 3908
8838 84 3891 3902 3909
8839 84 3903 3902 3908
8840 84 3903 3902 3909
8841 84 3903 3914 3920
8842 84 3903 3914 3921
8843 84 3915 3914 3920
8844 84 3915 3914 3921
8845 84 3915 3926 3932
8846 84 3915 3926 3933
8847 84 3927 3926 3932
8848 84 3927 3926 3933
8849 84 3927 3938 3944
8850 84 3927 3938 3945
8851 84 3939 3938 3944
8852 84 3939 3938 3945
8853 84 3939 3950 3956
8854 84 3939 3950 3957
8855 84 3951 3950 3956
8856 84 3951 3950 3957
8857 84 3951 3962 3968
8858 84 3951 3962 3969
8859 84 3963 3962 3968
8860 84 3963 3962 3969
8861 84 3963 3974 3980
8862 84 3963 3974 3981
8863 84 3975 3974 3980
8864 84 3975 3974 3981
8865 84 3975 3986 3992
8866 84 3975 3986 3993
8867 84 3987 3986 3992
8868 84 3987 3986 3993
8869 84 3987 3998 4004
8870 84 3987 3998 4005
8871 84 3999 3998 4004
8872 84 3999 3998 4005
8873 84 3999 4010 4016
8874 84 3999 4010 4017
8875 84 4011 4010 4016
8876 84 4011 4010 4017
8877 84 4011 4022 4028
8878 84 4011 4022 4029
8879 84 4023 4022 4028
8880 84 4023 4022 4029
8881 84 4023 4034 4040
8882 84 4023 4034 4041
8883 84 4035 4034 4040
8884 84 4035 4034 4041
8885 84 4035 4046 4052
8886 84 4035 4046 4053
8887 84 4047 4046 4052
8888 84 4047 4046 4053
8889 84 4047 4058 4064
8890 84 4047 4058 4065
8891 84 4059 4058 4064
8892 84 4059 4058 4065
8893 84 4059 4070 4076
8894 84 4059 4070 4077
8895 84 4071 4070 4076
8896 84 4071 4070 4077
8897 84 4071 4082 4088
8898 84 4071 4082 4089
8899 84 4083 4082 4088
8900 84 4083 4082 4089
8901 84 4083 4094 4100
8902 84 4083 4094 4101
8903 84 4095 4094 4100
8904 84 4095 4094 4101
8905 84 4095 4106 4112
8906 84 4095 4106 4113
8907 84 4107 4106 4112
8908 84 4107 4106 4113
8909 84 4107 4118 4124
8910 84 4107 4118 4125
8911 84 4119 4118 4124
8912 84 4119 4118 4125
8913 84 4119 4130 4136
8914 84 4119 4130 4137
8915 84 4131 4130 4136
8916 84 4131 4130 4137
8917 84 4131 4142 4148
8918 84 4131 4142 4149
8919 84 4143 4142 4148
8920 84 4143 4142 4149
8921 84 4143 4154 4160
8922 84 4143 4154 4161
8923 84 4155 4154 4160
8924 84 4155 4154 4161
8925 84 4155 4166 4172
8926 84 4155 4166 4173
8927 84 4167 4166 4172
8928 84 4167 4166 4173
8929 84 4167 4178 4184
8930 84 4167 4178 4185
8931 84 4179 4178 4184
8932 84 4179 4178 4185
8933 84 4179 4190 4196
8934 84 4179 4190 4197
8935 84 4191 4190 4196
8936 84 4191 4190 4197
8937 84 4191 4202 4208
8938 84 4191 4202 4209
8939 84 4216 4228 4234
8940 84 4216 4228 4235
8941 84 4229 4228 4234
8942 84 4229 4228 4235
8943 84 4229 4240 4246
8944 84 4229 4240 4247
8945 84 4241 4240 4246
8946 84 4241 4240 4247
8947 84 4241 4252 4258
8948 84 4241 4252 4259
8949 84 4253 4252 4258
8950 84 4253 4252 4259
8951 84 4253 4264 4270
8952 84 4253 4264 4271
8953 84 4265 4264 4270
8954 84 4265 4264 4271
8955 84 4265 4276 4282
8956 84 4265 4276 4283
8957 84 4277 4276 4282
8958 84 4277 4276 4283
8959 84 4277 4288 4294
8960 84 4277 4288 4295
8961 84 4289 4288 4294
8962 84 4289 4288 4295
8963 84 4289 4300 4306
8964 84 4289 4300 4307
8965 84 4301 4300 4306
8966 84 4301 4300 4307
8967 84 4301 4312 4318
8968 84 4301 4312 4319
8969 84 4313 4312 4318
8970 84 4313 4312 4319
8971 84 4313 4324 4330
8972 84 4313 4324 4331
8973 84 4325 4324 4330
8974 84 4325 4324 4331
8975 84 4325 4336 4342
8976 84 4325 4336 4343
8977 84 4337 4336 4342
8978 84 4337 4336 4343
8979 84 4337 4348 4354
8980 84 4337 4348 4355
8981 84 4349 4348 4354
8982 84 4349 4348 4355
8983 84 4349 4360 4366
8984 84 4349 4360 4367
8985 84 4361 4360 4366
8986 84 4361 4360 4367
8987 84 4361 4372 4378
8988 84 4361 4372 4379
8989 84 4373 4372 4378
8990 84 4373 4372 4379
8991 84 4373 4384 4390
8992 84 4373 4384 4391
8993 84 4385 4384 4390
8994 84 4385 4384 4391
8995 84 4385 4396 4402
8996 84 4385 4396 4403
8997 84 4397 4396 4402
8998 84 4397 4396 4403
8999 84 4397 4408 4414
9000 84 4397 4408 4415
9001 84 4409 4408 4414
9002 84 4409 4408 4415
9003 84 4409 4420 4426
9004 84 4409 4420 4427
9005 84 4421 4420 4426
9006 84 4421 4420 4427
9007 84 4421 4432 4438
9008 84 4421 4432 4439
9009 84 4433 4432 4438
9010 84 4433 4432 4439
9011 84 4433 4444 4450
9012 84 4433 4444 4451
9013 84 4445 4444 4450
9014 84 4445 4444 4451
9015 84 4445 4456 4462
9016 84 4445 4456 4463
9017 84 4457 4456 4462
9018 84 4457 4456 4463
9019 84 4457 4468 4474
9020 84 4457 4468 4475
9021 84 4469 4468 4474
9022 84 4469 4468 4475
9023 84 4469 4480 4486
9024 84 4469 4480 4487
9025 84 4481 4480 4486
9026 84 4481 4480 4487
9027 84 4481 4492 4498
9028 84 4481 4492 4499
9029 84 4493 4492 4498
9030 84 4493 4492 4499
9031 84 4493 4504 4510
9032 84 4493 4504 4511
9033 84 4505 4504 4510
9034 84 4505 4504 4511
9035 84 4505 4516 4522
9036 84 4505 4516 4523
9037 84 4517 4516 4522
9038 84 4517 4516 4523
9039 84 4517 4528 4534
9040 84 4517 4528 4535
9041 84 4529 4528 4534
9042 84 4529 4528 4535
9043 84 4529 4540 4546
9044 84 4529 4540 4547
9045 84 4541 4540 4546
9046 84 4541 4540 4547
9047 84 4541 4552 4558
9048 84 4541 4552 4559
9049 84 4553 4552 4558
9050 84 4553 4552 4559
9051 84 4553 4564 4570
9052 84 4553 4564 4571
9053 84 4565 4564 4570
9054 84 4565 4564 4571
9055 84 4565 4576 4582
9056 84 4565 4576 4583
9057 84 4577 4576 4582
9058 84 4577 4576 4583
9059 84 4577 4588 4594
9060 84 4577 4588 4595
9061 84 4589 4588 4594
9062 84 4589 4588 4595
9063 84 4589 4600 4606
9064 84 4589 4600 4607
9065 84 4601 4600 4606
9066 84 4601 4600 4607
9067 84 4601 4612 4618
9068 84 4601 4612 4619
9069 84 4613 4612 4618
9070 84 4613 4612 4619
9071 84 4613 4624 4630
9072 84 4613 4624 4631
9073 84 4625 4624 4630
9074 84 4625 4624 4631
9075 84 4625 4636 4642
9076 84 4625 4636 4643
9077 84 4637 4636 4642
9078 84 4637 4636 4643
9079 84 4637 4648 4654
9080 84 4637 4648 4655
9081 84 4649 4648 4654
9082 84 4649 4648 4655
9083 84 4649 4660 4666
9084 84 4649 4660 4667
9085 84 4661 4660 4666
9086 84 4661 4660 4667
9087 84 4661 4672 4678
9088 84 4661 4672 4679
9089 84 4673 4672 4678
9090 84 4673 4672 4679
9091 84 4673 4684 4690
9092 84 4673 4684 4691
9093 84 4685 4684 4690
9094 84 4685 4684 4691
9095 84 4685 4696 4702
9096 84 4685 4696 4703
9097 84 4697 4696 4702
9098 84 4697 4696 4703
9099 84 4697 4708 4714
9100 84 4697 4708 4715
9101 84 4709 4708 4714
9102 84 4709 4708 4715
9103 84 4709 4720 4726
9104 84 4709 4720 4727
9105 84 4721 4720 4726
9106 84 4721 4720 4727
9107 84 4721 4732 4738
9108 84 4721 4732 4739
9109 84 4733 4732 4738
9110 84 4733 4732 4739
9111 84 4733 4744 4750
9112 84 4733 4744 4751
9113 84 4745 4744 4750
9114 84 4745 4744 4751
9115 84 4745 4756 4762
9116 84 4745 4756 4763
9117 84 4757 4756 4762
9118 84 4757 4756 4763
9119 84 4757 4768 4774
9120 84 4757 4768 4775
9121 84 4769 4768 4774
9122 84 4769 4768 4775
9123 84 4769 4780 4786
9124 84 4769 4780 4787
9125 84 4781 4780 4786
9126 84 4781 4780 4787
9127 84 4781 4792 4798
9128 84 4781 4792 4799
9129 84 4793 4792 4798
9130 84 4793 4792 4799
9131 84 4793 4804 4810
9132 84 4793 4804 4811
9133 84 4818 4830 4836
9134 84 4818 4830 4837
9135 84 4831 4830 4836
9136 84 4831 4830 4837
9137 84 4831 4842 4848
9138 84 4831 4842 4849
9139 84 4843 4842 4848
9140 84 4843 4842 4849
9141 84 4843 4854 4860
9142 84 4843 4854 4861
9143 84 4855 4854 4860
9144 84 4855 4854 4861
9145 84 4855 4866 4872
9146 84 4855 4866 4873
9147 84 4867 4866 4872
9148 84 4867 4866 4873
9149 84 4867 4878 4884
9150 84 4867 4878 4885
9151 84 4879 4878 4884
9152 84 4879 4878 4885
9153 84 4879 4890 4896
9154 84 4879 4890 4897
9155 84 4891 4890 4896
9156 84 4891 4890 4897
9157 84 4891 4902 4908
9158 84 4891 4902 4909
9159 84 4903 4902 4908
9160 84 4903 4902 4909
9161 84 4903 4914 4920
9162 84 4903 4914 4921
9163 84 4915 4914 4920
9164 84 4915 4914 4921
9165 84 4915 4926 4932
9166 84 4915 4926 4933
9167 84 4927 4926 4932
9168 84 4927 4926 4933
9169 84 4927 4938 4944
9170 84 4927 4938 4945
9171 84 4939 4938 4944
9172 84 4939 4938 4945
9173 84 4939 4950 4956
9174 84 4939 4950 4957
9175 84 4951 4950 4956
9176 84 4951 4950 4957
9177 84 4951 4962 4968
9178 84 4951 4962 4969
9179 84 4963 4962 4968
9180 84 4963 4962 4969
9181 84 4963 4974 4980
9182 84 4963 4974 4981
9183 84 4975 4974 4980
9184 84 4975 4974 4981
9185 84 4975 4986 4992
9186 84 4975 4986 4993
9187 84 4987 4986 4992
9188 84 4987 4986 4993
9189 84 4987 4998 5004
9190 84 4987 4998 5005
9191 84 4999 4998 5004
9192 84 4999 4998 5005
9193 84 4999 5010 5016
9194 84 4999 5010 5017
9195 84 5011 5010 5016
9196 84 5011 5010 5017
9197 84 5011 5022 5028
9198 84 5011 5022 5029
9199 84 5023 5022 5028
9200 84 5023 5022 5029
9201 84 5023 5034 5040
9202 84 5023 5034 5041
9203 84 5035 5034 5040
9204 84 5035 5034 5041
9205 84 5035 5046 5052
9206 84 5035 5046 5053
9207 84 5047 5046 5052
9208 84 5047 5046 5053
9209 84 5047 5058 5064
9210 84 5047 5058 5065
9211 84 5059 5058 5064
9212 84 5059 5058 5065
9213 84 5059 5070 5076
9214 84 5059 5070 5077
9215 84 5071 5070 5076
9216 84 5071 5070 5077
9217 84 5071 5082 5088
9218 84 5071 5082 5089
9219 84 5083 5082 5088
9220 84 5083 5082 5089
9221 84 5083 5094 5100
9222 84 5083 5094 5101
9223 84 5095 5094 5100
9224 84 5095 5094 5101
9225 84 5095 5106 5112
9226 84 5095 5106 5113
9227 84 5107 5106 5112
9228 84 5107 5106 5113
9229 84 5107 5118 5124
9230 84 5107 5118 5125
9231 84 5119 5118 5124
9232 84 5119 5118 5125
9233 84 5119 5130 5136
9234 84 5119 5130 5137
9235 84 5131 5130 5136
9236 84 5131 5130 5137
9237 84 5131 5142 5148
9238 84 5131 5142 5149
9239 84 5143 5142 5148
9240 84 5143 5142 5149
9241 84 5143 5154 5160
9242 84 5143 5154 5161
9243 84 5155 5154 5160
9244 84 5155 5154 5161
9245 84 5155 5166 5172
9246 84 5155 5166 5173
9247 84 5167 5166 5172
9248 84 5167 5166 5173
9249 84 5167 5178 5184
9250 84 5167 5178 5185
9251 84 5179 5178 5184
9252 84 5179 5178 5185
9253 84 5179 5190 5196
9254 84 5179 5190 5197
9255 84 5191 5190 5196
9256 84 5191 5190 5197
9257 84 5191 5202 5208
9258 84 5191 5202 5209
9259 84 5203 5202 5208
9260 84 5203 5202 5209
9261 84 5203 5214 5220
9262 84 5203 5214 5221
9263 84 5215 5214 5220
9264 84 5215 5214 5221
9265 84 5215 5226 5232
9266 84 5215 5226 5233
9267 84 5227 5226 5232
9268 84 5227 5226 5233
9269 84 5227 5238 5244
9270 84 5227 5238 5245
9271 84 5239 5238 5244
9272 84 5239 5238 5245
9273 84 5239 5250 5256
9274 84 5239 5250 5257
9275 84 5251 5250 5256
9276 84 5251 5250 5257
9277 84 5251 5262 5268
9278 84 5251 5262 5269
9279 84 5263 5262 5268
9280 84 5263 5262 5269
9281 84 5263 5274 5280
9282 84 5263 5274 5281
9283 84 5275 5274 5280
9284 84 5275 5274 5281
9285 84 5275 5286 5292
9286 84 5275 5286 5293
9287 84 5287 5286 5292
9288 84 5287 5286 5293
9289 84 5287 5298 5304
9290 84 5287 5298 5305
9291 84 5299 5298 5304
9292 84 5299 5298 5305
9293 84 5299 5310 5316
9294 84 5299 5310 5317
9295 84 5311 5310 5316
9296 84 5311 5310 5317
9297 84 5311 5322 5328
9298 84 5311 5322 5329
9299 84 5323 5322 5328
9300 84 5323 5322 5329
9301 84 5323 5334 5340
9302 84 5323 5334 5341
9303 84 5335 5334 5340
9304 84 5335 5334 5341
9305 84 5335 5346 5352
9306 84 5335 5346 5353
9307 84 5347 5346 5352
9308 84 5347 5346 5353
9309 84 5347 5358 5364
9310 84 5347 5358 5365
9311 84 5359 5358 5364
9312 84 5359 5358 5365
9313 84 5359 5370 5376
9314 84 5359 5370 5377
9315 84 5371 5370 5376
9316 84 5371 5370 5377
9317 84 5371 5382 5388
9318 84 5371 5382 5389
9319 84 5383 5382 5388
9320 84 5383 5382 5389
9321 84 5383 5394 5400
9322 84 5383 5394 5401
9323 84 5395 5394 5400
9324 84 5395 5394 5401
9325 84 5395 5406 5412
9326 84 5395 5406 5413
9327 84 5420 5432 5438
9328 84 5420 5432 5439
9329 84 5433 5432 5438
9330 84 5433 5432 5439
9331 84 5433 5444 5450
9332 84 5433 5444 5451
9333 84 5445 5444 5450
9334 84 5445 5444 5451
9335 84 5445 5456 5462
9336 84 5445 5456 5463
9337 84 5457 5456 5462
9338 84 5457 5456 5463
9339 84 5457 5468 5474
9340 84 5457 5468 5475
9341 84 5469 5468 5474
9342 84 5469 5468 5475
9343 84 5469 5480 5486
9344 84 5469 5480 5487
9345 84 5481 5480 5486
9346 84 5481 5480 5487
9347 84 5481 5492 5498
9348 84 5481 5492 5499
9349 84 5493 5492 5498
9350 84 5493 5492 5499
9351 84 5493 5504 5510
9352 84 5493 5504 5511
9353 84 5505 5504 5510
9354 84 5505 5504 5511
9355 84 5505 5516 5522
9356 84 5505 5516 5523
9357 84 5517 5516 5522
9358 84 5517 5516 5523
9359 84 5517 5528 5534
9360 84 5517 5528 5535
9361 84 5529 5528 5534
9362 84 5529 5528 5535
9363 84 5529 5540 5546
9364 84 5529 5540 5547
9365 84 5541 5540 5546
9366 84 5541 5540 5547
9367 84 5541 5552 5558
9368 84 5541 5552 5559
9369 84 5553 5552 5558
9370 84 5553 5552 5559
9371 84 5553 5564 5570
9372 84 5553 5564 5571
9373 84 5565 5564 5570
9374 84 5565 5564 5571
9375 84 5565 5576 5582
9376 84 5565 5576 5583
9377 84 5577 5576 5582
9378 84 5577 5576 5583
9379 84 5577 5588 5594
9380 84 5577 5588 5595
9381 84 5589 5588 5594
9382 84 5589 5588 5595
9383 84 5589 5600 5606
9384 84 5589 5600 5607
9385 84 5601 5600 5606
9386 84 5601 5600 5607
9387 84 5601 5612 5618
9388 84 5601 5612 5619
9389 84 5613 5612 5618
9390 84 5613 5612 5619
9391 84 5613 5624 5630
9392 84 5613 5624 5631
9393 84 5625 5624 5630
9394 84 5625 5624 5631
9395 84 5625 5636 5642
9396 84 5625 5636 5643
9397 84 5637 5636 5642
9398 84 5637 5636 5643
9399 84 5637 5648 5654
9400 84 5637 5648 5655
9401 84 5649 5648 5654
9402 84 5649 5648 5655
9403 84 5649 5660 5666
9404 84 5649 5660 5667
9405 84 5661 5660 5666
9406 84 5661 5660 5667
9407 84 5661 5672 5678
9408 84 5661 5672 5679
9409 84 5673 5672 5678
9410 84 5673 5672 5679
9411 84 5673 5684 5690
9412 84 5673 5684 5691
9413 84 5685 5684 5690
9414 84 5685 5684 5691
9415 84 5685 5696 5702
9416 84 5685 5696 5703
9417 84 5697 5696 5702
9418 84 5697 5696 5703
9419 84 5697 5708 5714
9420 84 5697 5708 5715
9421 84 5709 5708 5714
9422 84 5709 5708 5715
9423 84 5709 5720 5726
9424 84 5709 5720 5727
9425 84 5721 5720 5726
9426 84 5721 5720 5727
9427 84 5721 5732 5738
9428 84 5721 5732 5739
9429 84 5733 5732 5738
9430 84 5733 5732 5739
9431 84 5733 5744 5750
9432 84 5733 5744 5751
9433 84 5745 5744 5750
9434 84 5745 5744 5751
9435 84 5745 5756 5762
9436 84 5745 5756 5763
9437 84 5757 5756 5762
9438 84 5757 5756 5763
9439 84 5757 5768 5774
9440 84 5757 5768 5775
9441 84 5769 5768 5774
9442 84 5769 5768 5775
9443 84 5769 5780 5786
9444 84 5769 5780 5787
9445 84 5781 5780 5786
9446 84 5781 5780 5787
9447 84 5781 5792 5798
9448 84 5781 5792 5799
9449 84 5793 5792 5798
9450 84 5793 5792 5799
9451 84 5793 5804 5810
9452 84 5793 5804 5811
9453 84 5805 5804 5810
9454 84 5805 5804 5811
9455 84 5805 5816 5822
9456 84 5805 5816 5823
9457 84 5817 5816 5822
9458 84 5817 5816 5823
9459 84 5817 5828 5834
9460 84 5817 5828 5835
9461 84 5829 5828 5834
9462 84 5829 5828 5835
9463 84 5829 5840 5846
9464 84 5829 5840 5847
9465 84 5841 5840 5846
9466 84 5841 5840 5847
9467 84 5841 5852 5858
9468 84 5841 5852 5859
9469 84 5853 5852 5858
9470 84 5853 5852 5859
9471 84 5853 5864 5870
9472 84 5853 5864 5871
9473 84 5865 5864 5870
9474 84 5865 5864 5871
9475 84 5865 5876 5882
9476 84 5865 5876 5883
9477 84 5877 5876 5882
9478 84 5877 5876 5883
9479 84 5877 5888 5894
9480 84 5877 5888 5895
9481 84 5889 5888 5894
9482 84 5889 5888 5895
9483 84 5889 5900 5906
9484 84 5889 5900 5907
9485 84 5901 5900 5906
9486 84 5901 5900 5907
9487 84 5901 5912 5918
9488 84 5901 5912 5919
9489 84 5913 5912 5918
9490 84 5913 5912 5919
9491 84 5913 5924 5930
9492 84 5913 5924 5931
9493 84 5925 5924 5930
9494 84 5925 5924 5931
9495 84 5925 5936 5942
9496 84 5925 5936 5943
9497 84 5937 5936 5942
9498 84 5937 5936 5943
9499 84 5937 5948 5954
9500 84 5937 5948 5955
9501 84 5949 5948 5954
9502 84 5949 5948 5955
9503 84 5949 5960 5966
9504 84 5949 5960 5967
9505 84 5961 5960 5966
9506 84 5961 5960 5967
9507 84 5961 5972 5978
9508 84 5961 5972 5979
9509 84 5973 5972 5978
9510 84 5973 5972 5979
9511 84 5973 5984 5990
9512 84 5973 5984 5991
9513 84 5985 5984 5990
9514 84 5985 5984 5991
9515 84 5985 5996 6002
9516 84 5985 5996 6003
9517 84 5997 5996 6002
9518 84 5997 5996 6003
9519 84 5997 6008 6014
9520 84 5997 6008 6015
9521 92 591 592 593
9522 92 1193 1194 1195
9523 92 1795 1796 1797
9524 92 2397 2398 2399
9525 92 2999 3000 3001
9526 92 3601 3602 3603
9527 92 4203 4204 4205
9528 92 4805 4806 4807
9529 92 5407 5408 5409
9530 92 6009 6010 6011
9531 93 2 3 4
9532 93 15 16 17
9533 93 27 28 29
9534 93 39 40 41
9535 93 51 52 53
9536 93 63 64 65
9537 93 75 76 77
9538 93 87 88 89
9539 93 99 100 101
9540 93 111 112 113
9541 93 123 124 125
9542 93 135 136 137
9543 93 147 148 149
9544 93 159 160 161
9545 93 171 172 173
9546 93 183 184 185
9547 93 195 196 197
9548 93 207 208 209
9549 93 219 220 221
9550 93 231 232 233
9551 93 243 244 245
9552 93 255 256 257
9553 93 267 268 269
9554 93 279 280 281
9555 93 291 292 293
9556 93 303 304 305
9557 93 315 316 317
9558 93 327 328 329
9559 93 339 340 341
9560 93 351 352 353
9561 93 363 364 365
9562 93 375 376 377
9563 93 387 388 389
9564 93 399 400 401
9565 93 411 412 413
9566 93 423 424 425
9567 93 435 436 437
9568 93 447 448 449
9569 93 459 460 461
9570 93 471 472 473
9571 93 483 484 485
9572 93 495 496 497
9573 93 507 508 509
9574 93 519 520 521
9575 93 531 532 533
9576 93 543 544 545
9577 93 555 556 557
9578 93 567 568 569
9579 93 579 580 581
9580 93 604 605 606
9581 93 617 618 619
9582 93 629 630 631
9583 93 641 642 643
9584 93 653 654 655
9585 93 665 666 667
9586 93 677 678 679
9587 93 689 690 691
9588 93 701 702 703
9589 93 713 714 715
9590 93 725 726 727
9591 93 737 738 739
9592 93 749 750 751
9593 93 761 762 763
9594 93 773 774 775
9595 93 785 786 787
9596 93 797 798 799
9597 93 809 810 811
9598 93 821 822 823
9599 93 833 834 835
9600 93 845 846 847
9601 93 857 858 859
9602 93 869 870 871
9603 93 881 882 883
9604 93 893 894 895
9605 93 905 906 907
9606 93 917 918 919
9607 93 929 930 931
9608 93 941 942 943
9609 93 953 954 955
9610 93 965 966 967
9611 93 977 978 979
9612 93 989 990 991
9613 93 1001 1002 1003
9614 93 1013 1014 1015
9615 93 1025 1026 1027
9616 93 1037 1038 1039
9617 93 1049 1050 1051
9618 93 1061 1062 1063
9619 93 1073 1074 1075
9620 93 1085 1086 1087
9621 93 1097 1098 1099
9622 93 1109 1110 1111
9623 93 1121 1122 1123
9624 93 1133 1134 1135
9625 93 1145 1146 1147
9626 93 1157 1158 1159
9627 93 1169 1170 1171
9628 93 1181 1182 1183
9629 93 1206 1207 1208
9630 93 1219 1220 1221
9631 93 1231 1232 1233
9632 93 1243 1244 1245
9633 93 1255 1256 1257
9634 93 1267 1268 1269
9635 93 1279 1280 1281
9636 93 1291 1292 1293
9637 93 1303 1304 1305
9638 93 1315 1316 1317
9639 93 1327 1328 1329
9640 93 1339 1340 1341
9641 93 1351 1352 1353
9642 93 1363 1364 1365
9643 93 1375 1376 1377
9644 93 1387 1388 1389
9645 93 1399 1400 1401
9646 93 1411 1412 1413
9647 93 1423 1424 1425
9648 93 1435 1436 1437
9649 93 1447 1448 1449
9650 93 1459 1460 1461
9651 93 1471 1472 1473
9652 93 1483 1484 1485
9653 93 1495 1496 1497
9654 93 1507 1508 1509
9655 93 1519 1520 1521
9656 93 1531 1532 1533
9657 93 1543 1544 1545
9658 93 1555 1556 1557
9659 93 1567 1568 1569
9660 93 1579 1580 1581
9661 93 1591 1592 1593
9662 93 1603 1604 1605
9663 93 1615 1616 1617
9664 93 1627 1628 1629
9665 93 1639 1640 1641
9666 93 1651 1652 1653
9667 93 1663 1664 1665
9668 93 1675 1676 1677
9669 93 1687 1688 1689
9670 93 1699 1700 1701
9671 93 1711 1712 1713
9672 93 1723 1724 1725
9673 93 1735 1736 1737
9674 93 1747 1748 1749
9675 93 1759 1760 1761
9676 93 1771 1772 1773
9677 93 1783 1784 1785
9678 93 1808 1809 1810
9679 93 1821 1822 1823
9680 93 1833 1834 1835
9681 93 1845 1846 1847
9682 93 1857 1858 1859
9683 93 1869 1870 1871
9684 93 1881 1882 1883
9685 93 1893 1894 1895
9686 93 1905 1906 1907
9687 93 1917 1918 1919
9688 93 1929 1930 1931
9689 93 1941 1942 1943
9690 93 1953 1954 1955
9691 93 1965 1966 1967
9692 93 1977 1978 1979
9693 93 1989 1990 1991
9694 93 2001 2002 2003
9695 93 2013 2014 2015
9696 93 2025 2026 2027
9697 93 2037 2038 2039
9698 93 2049 2050 2051
9699 93 2061 2062 2063
9700 93 2073 2074 2075
9701 93 2085 2086 2087
9702 93 2097 2098 2099
9703 93 2109 2110 2111
9704 93 2121 2122 2123
9705 93 2133 2134 2135
9706 93 2145 2146 2147
9707 93 2157 2158 2159
9708 93 2169 2170 2171
9709 93 2181 2182 2183
9710 93 2193 2194 2195
9711 93 2205 2206 2207
9712 93 2217 2218 2219
9713 93 2229 2230 2231
9714 93 2241 2242 2243
9715 93 2253 2254 2255
9716 93 2265 2266 2267
9717 93 2277 2278 2279
9718 93 2289 2290 2291
9719 93 2301 2302 2303
9720 93 2313 2314 2315
9721 93 2325 2326 2327
9722 93 2337 2338 2339
9723 93 2349 2350 2351
9724 93 2361 2362 2363
9725 93 2373 2374 2375
9726 93 2385 2386 2387
9727 93 2410 2411 2412
9728 93 2423 2424 2425
9729 93 2435 2436 2437
9730 93 2447 2448 2449
9731 93 2459 2460 2461
9732 93 2471 2472 2473
9733 93 2483 2484 2485
9734 93 2495 2496 2497
9735 93 2507 2508 2509
9736 93 2519 2520 2521
9737 93 2531 2532 2533
9738 93 2543 2544 2545
9739 93 2555 2556 2557
9740 93 2567 2568 2569
9741 93 2579 2580 2581
9742 93 2591 2592 2593
9743 93 2603 2604 2605
9744 93 2615 2616 2617
9745 93 2627 2628 2629
9746 93 2639 2640 2641
9747 93 2651 2652 2653
9748 93 2663 2664 2665
9749 93 2675 2676 2677
9750 93 2687 2688 2689
9751 93 2699 2700 2701
9752 93 2711 2712 2713
9753 93 2723 2724 2725
9754 93 2735 2736 2737
9755 93 2747 2748 2749
9756 93 2759 2760 2761
9757 93 2771 2772 2773
9758 93 2783 2784 2785
9759 93 2795 2796 2797
9760 93 2807 2808 2809
9761 93 2819 2820 2821
9762 93 2831 2832 2833
9763 93 2843 2844 2845
9764 93 2855 2856 2857
9765 93 2867 2868 2869
9766 93 2879 2880 2881
9767 93 2891 2892 2893
9768 93 2903 2904 2905
9769 93 2915 2916 2917
9770 93 2927 2928 2929
9771 93 2939 2940 2941
9772 93 2951 2952 2953
9773 93 2963 2964 2965
9774 93 2975 2976 2977
9775 93 2987 2988 2989
9776 93 3012 3013 3014
9777 93 3025 3026 3027
9778 93 3037 3038 3039
9779 93 3049 3050 3051
9780 93 3061 3062 3063
9781 93 3073 3074 3075
9782 93 3085 3086 3087
9783 93 3097 3098 3099
9784 93 3109 3110 3111
9785 93 3121 3122 3123
9786 93 3133 3134 3135
9787 93 3145 3146 3147
9788 93 3157 3158 3159
9789 93 3169 3170 3171
9790 93 3181 3182 3183
9791 93 3193 3194 3195
9792 93 3205 3206 3207
9793 93 3217 3218 3219
9794 93 3229 3230 3231
9795 93 3241 3242 3243
9796 93 3253 3254 3255
9797 93 3265 3266 3267
9798 93 3277 3278 3279
9799 93 3289 3290 3291
9800 93 3301 3302 3303
9801 93 3313 3314 3315
9802 93 3325 3326 3327
9803 93 3337 3338 3339
9804 93 3349 3350 3351
9805 93 3361 3362 3363
9806 93 3373 3374 3375
9807 93 3385 3386 3387
9808 93 3397 3398 3399
9809 93 3409 3410 3411
9810 93 3421 3422 3423
9811 93 3433 3434 3435
9812 93 3445 3446 3447
9813 93 3457 3458 3459
9814 93 3469 3470 3471
9815 93 3481 3482 3483
9816 93 3493 3494 3495
9817 93 3505 3506 3507
9818 93 3517 3518 3519
9819 93 3529 3530 3531
9820 93 3541 3542 3543
9821 93 3553 3554 3555
9822 93 3565 3566 3567
9823 93 3577 3578 3579
9824 93 3589 3590 3591
9825 93 3614 3615 3616
9826 93 3627 3628 3629
9827 93 3639 3640 3641
9828 93 3651 3652 3653
9829 93 3663 3664 3665
9830 93 3675 3676 3677
9831 93 3687 3688 3689
9832 93 3699 3700 3701
9833 93 3711 3712 3713
9834 93 3723 3724 3725
9835 93 3735 3736 3737
9836 93 3747 3748 3749
9837 93 3759 3760 3761
9838 93 3771 3772 3773
9839 93 3783 3784 3785
9840 93 3795 3796 3797
9841 93 3807 3808 3809
9842 93 3819 3820 3821
9843 93 3831 3832 3833
9844 93 3843 3844 3845
9845 93 3855 3856 3857
9846 93 3867 3868 3869
9847 93 3879 3880 3881
9848 93 3891 3892 3893
9849 93 3903 3904 3905
9850 93 3915 3916 3917
9851 93 3927 3928 3929
9852 93 3939 3940 3941
9853 93 3951 3952 3953
9854 93 3963 3964 3965
9855 93 3975 3976 3977
9856 93 3987 3988 3989
9857 93 3999 4000 4001
9858 93 4011 4012 4013
9859 93 4023 4024 4025
9860 93 4035 4036 4037
9861 93 4047 4048 4049
9862 93 4059 4060 4061
9863 93 4071 4072 4073
9864 93 4083 4084 4085
9865 93 4095 4096 4097
9866 93 4107 4108 4109
9867 93 4119 4120 4121
9868 93 4131 4132 4133
9869 93 4143 4144 4145
9870 93 4155 4156 4157
9871 93 4167 4168 4169
9872 93 4179 4180 4181
9873 93 4191 4192 4193
9874 93 4216 4217 4218
9875 93 4229 4230 4231
9876 93 4241 4242 4243
9877 93 4253 4254 4255
9878 93 4265 4266 4267
9879 93 4277 4278 4279
9880 93 4289 4290 4291
9881 93 4301 4302 4303
9882 93 4313 4314 4315
9883 93 4325 4326 4327
9884 93 4337 4338 4339
9885 93 4349 4350 4351
9886 93 4361 4362 4363
9887 93 4373 4374 4375
9888 93 4385 4386 4387
9889 93 4397 4398 4399
9890 93 4409 4410 4411
9891 93 4421 4422 4423
9892 93 4433 4434 4435
9893 93 4445 4446 4447
9894 93 4457 4458 4459
9895 93 4469 4470 4471
9896 93 4481 4482 4483
9897 93 4493 4494 4495
9898 93 4505 4506 4507
9899 93 4517 4518 4519
9900 93 4529 4530 4531
9901 93 4541 4542 4543
9902 93 4553 4554 4555
9903 93 4565 4566 4567
9904 93 4577 4578 4579
9905 93 4589 4590 4591
9906 93 4601 4602 4603
9907 93 4613 4614 4615
9908 93 4625 4626 4627
9909 93 4637 4638 4639
9910 93 4649 4650 4651
9911 93 4661 4662 4663
9912 93 4673 4674 4675
9913 93 4685 4686 4687
9914 93 4697 4698 4699
9915 93 4709 4710 4711
9916 93 4721 4722 4723
9917 93 4733 4734 4735
9918 93 4745 4746 4747
9919 93 4757 4758 4759
9920 93 4769 4770 4771
9921 93 4781 4782 4783
9922 93 4793 4794 4795
9923 93 4818 4819 4820
9924 93 4831 4832 4833
9925 93 4843 4844 4845
9926 93 4855 4856 4857
9927 93 4867 4868 4869
9928 93 4879 4880 4881
9929 93 4891 4892 4893
9930 93 4903 4904 4905
9931 93 4915 4916 4917
9932 93 4927 4928 4929
9933 93 4939 4940 4941
9934 93 4951 4952 4953
9935 93 4963 4964 4965
9936 93 4975 4976 4977
9937 93 4987 4988 4989
9938 93 4999 5000 5001
9939 93 5011 5012 5013
9940 93 5023 5024 5025
9941 93 5035 5036 5037
9942 93 5047 5048 5049
9943 93 5059 5060 5061
9944 93 5071 5072 5073
9945 93 5083 5084 5085
9946 93 5095 5096 5097
9947 93 5107 5108 5109
9948 93 5119 5120 5121
9949 93 5131 5132 5133
9950 93 5143 5144 5145
9951 93 5155 5156 5157
9952 93 5167 5168 5169
9953 93 5179 5180 5181
9954 93 5191 5192 5193
9955 93 5203 5204 5205
9956 93 5215 5216 5217
9957 93 5227 5228 5229
9958 93 5239 5240 5241
9959 93 5251 5252 5253
9960 93 5263 5264 5265
9961 93 5275 5276 5277
9962 93 5287 5288 5289
9963 93 5299 5300 5301
9964 93 5311 5312 5313
9965 93 5323 5324 5325
9966 93 5335 5336 5337
9967 93 5347 5348 5349
9968 93 5359 5360 5361
9969 93 5371 5372 5373
9970 93 5383 5384 5385
9971 93 5395 5396 5397
9972 93 5420 5421 5422
9973 93 5433 5434 5435
9974 93 5445 5446 5447
9975 93 5457 5458 5459
9976 93 5469 5470 5471
9977 93 5481 5482 5483
9978 93 5493 5494 5495
9979 93 5505 5506 5507
9980 93 5517 5518 5519
9981 93 5529 5530 5531
9982 93 5541 5542 5543
9983 93 5553 5554 5555
9984 93 5565 5566 5567
9985 93 5577 5578 5579
9986 93 5589 5590 5591
9987 93 5601 5602 5603
9988 93 5613 5614 5615
9989 93 5625 5626 5627
9990 93 5637 5638 5639
9991 93 5649 5650 5651
9992 93 5661 5662 5663
9993 93 5673 5674 5675
9994 93 5685 5686 5687
9995 93 5697 5698 5699
9996 93 5709 5710 5711
9997 93 5721 5722 5723
9998 93 5733 5734 5735
9999 93 5745 5746 5747
10000 93 5757 5758 5759
10001 93 5769 5770 5771
10002 93 5781 5782 5783
10003 93 5793 5794 5795
10004 93 5805 5806 5807
10005 93 5817 5818 5819
10006 93 5829 5830 5831
10007 93 5841 5842 5843
10008 93 5853 5854 5855
10009 93 5865 5866 5867
10010 93 5877 5878 5879
10011 93 5889 5890 5891
10012 93 5901 5902 5903
10013 93 5913 5914 5915
10014 93 5925 5926 5927
10015 93 5937 5938 5939
10016 93 5949 5950 5951
10017 93 5961 5962 5963
10018 93 5973 5974 5975
10019 93 5985 5986 5987
10020 93 5997 5998 5999

Dihedrals

1 1 5 4 6 11
2 1 5 4 6 12
3 1 5 4 6 13
4 1 18 17 19 23
5 1 18 17 19 24
6 1 18 17 19 25
7 1 30 29 31 35
8 1 30 29 31 36
9 1 30 29 31 37
10 1 42 41 43 47
11 1 42 41 43 48
12 1 42 41 43 49
13 1 54 53 55 59
14 1 54 53 55 60
15 1 54 53 55 61
16 1 66 65 67 71
17 1 66 65 67 72
18 1 66 65 67 73
19 1 78 77 79 83
20 1 78 77 79 84
21 1 78 77 79 85
22 1 90 89 91 95
23 1 90 89 91 96
24 1 90 89 91 97
25 1 102 101 103 107
26 1 102 101 103 108
27 1 102 101 103 109
28 1 114 113 115 119
29 1 114 113 115 120
30 1 114 113 115 121
31 1 126 125 127 131
32 1 126 125 127 132
33 1 126 125 127 133
34 1 138 137 139 143
35 1 138 137 139 144
36 1 138 137 139 145
37 1 150 149 151 155
38 1 150 149 151 156
39 1 150 149 151 157
40 1 162 161 163 167
41 1 162 161 163 168
42 1 162 161 163 169
43 1 174 173 175 179
44 1 174 173 175 180
45 1 174 173 175 181
46 1 186 185 187 191
47 1 186 185 187 192
48 1 186 185 187 193
49 1 198 197 199 203
50 1 198 197 199 204
51 1 198 197 199 205
52 1 210 209 211 215
53 1 210 209 211 216
54 1 210 209 211 217
55 1 222 221 223 227
56 1 222 221 223 228
57 1 222 221 223 229
58 1 234 233 235 239
59 1 234 233 235 240
60 1 234 233 235 241
61 1 246 245 247 251
62 1 246 245 247 252
63 1 246 245 247 253
64 1 258 257 259 263
65 1 258 257 259 264
66 1 258 257 259 265
67 1 270 269 271 275
68 1 270 269 271 276
69 1 270 269 271 277
70 1 282 281 283 287
71 1 282 281 283 288
72 1 282 281 283 289
73 1 294 293 295 299
74 1 294 293 295 300
75 1 294 293 295 301
76 1 306 305 307 311
77 1 306 305 307 312
78 1 306 305 307 313
79 1 318 317 319 323
80 1 318 317 319 324
81 1 318 317 319 325
82 1 330 329 331 335
83 1 330 329 331 336
84 1 330 329 331 337
85 1 342 341 343 347
86 1 342 341 343 348
87 1 342 341 343 349
88 1 354 353 355 359
89 1 354 353 355 360
90 1 354 353 355 361
91 1 366 365 367 371
92 1 366 365 367 372
93 1 366 365 367 373
94 1 378 377 379 383
95 1 378 377 379 384
96 1 378 377 379 385
97 1 390 389 391 395
98 1 390 389 391 396
99 1 390 389 391 397
100 1 402 401 403 407
101 1 402 401 403 408
102 1 402 401 403 409
103 1 414 413 415 419
104 1 414 413 415 420
105 1 414 413 415 421
106 1 426 425 427 431
107 1 426 425 427 432
108 1 426 425 427 433
109 1 438 437 439 443
110 1 438 437 439 444
111 1 438 437 439 445
112 1 450 449 451 455
113 1 450 449 451 456
114 1 450 449 451 457
115 1 462 461 463 467
116 1 462 461 463 468
117 1 462 461 463 469
118 1 474 473 475 479
119 1 474 473 475 480
120 1 474 473 475 481
121 1 486 485 487 491
122 1 486 485 487 492
123 1 486 485 487 493
124 1 498 497 499 503
125 1 498 497 499 504
126 1 498 497 499 505
127 1 510 509 511 515
128 1 510 509 511 516
129 1 510 509 511 517
130 1 522 521 523 527
131 1 522 521 523 528
132 1 522 521 523 529
133 1 534 533 535 539
134 1 534 533 535 540
135 1 534 533 535 541
136 1 546 545 547 551
137 1 546 545 547 552
138 1 546 545 547 553
139 1 558 557 559 563
140 1 558 557 559 564
141 1 558 557 559 565
142 1 570 569 571 575
143 1 570 569 571 576
144 1 570 569 571 577
145 1 582 581 583 587
146 1 582 581 583 588
147 1 582 581 583 589
148 1 594 593 595 600
149 1 594 593 595 601
150 1 594 593 595 602
151 1 607 606 608 613
152 1 607 606 608 614
153 1 607 606 608 615
154 1 620 619 621 625
155 1 620 619 621 626
156 1 620 619 621 627
157 1 632 631 633 637
158 1 632 631 633 638
159 1 632 631 633 639
160 1 644 643 645 649
161 1 644 643 645 650
162 1 644 643 645 651
163 1 656 655 657 661
164 1 656 655 657 662
165 1 656 655 657 663
166 1 668 667 669 673
167 1 668 667 669 674
168 1 668 667 669 675
169 1 680 679 681 685
170 1 680 679 681 686
171 1 680 679 681 687
172 1 692 691 693 697
173 1 692 691 693 698
174 1 692 691 693 699
175 1 704 703 705 709
176 1 704 703 705 710
177 1 704 703 705 711
178 1 716 715 717 721
179 1 716 715 717 722
180 1 716 715 717 723
181 1 728 727 729 733
182 1 728 727 729 734
183 1 728 727 729 735
184 1 740 739 741 745
185 1 740 739 741 746
186 1 740 739 741 747
187 1 752 751 753 757
188 1 752 751 753 758
189 1 752 751 753 759
190 1 764 763 765 769
191 1 764 763 765 770
192 1 764 763 765 771
193 1 776 775 777 781
194 1 776 775 777 782
195 1 776 775 777 783
196 1 788 787 789 793
197 1 788 787 789 794
198 1 788 787 789 795
199 1 800 799 801 805
200 1 800 799 801 806
201 1 800 799 801 807
202 1 812 811 813 817
203 1 812 811 813 818
204 1 812 811 813 819
205 1 824 823 825 829
206 1 824 823 825 830
207 1 824 823 825 831
208 1 836 835 837 841
209 1 836 835 837 842
210 1 836 835 837 843
211 1 848 847 849 853
212 1 848 847 849 854
213 1 848 847 849 855
214 1 860 859 861 865
215 1 860 859 861 866
216 1 860 859 861 867
217 1 872 871 873 877
218 1 872 871 873 878
219 1 872 871 873 879
220 1 884 883 885 889
221 1 884 883 885 890
222 1 884 883 885 891
223 1 896 895 897 901
224 1 896 895 897 902
225 1 896 895 897 903
226 1 908 907 909 913
227 1 908 907 909 914
228 1 908 907 909 915
229 1 920 919 921 925
230 1 920 919 921 926
231 1 920 919 921 927
232 1 932 931 933 937
233 1 932 931 933 938
234 1 932 931 933 939
235 1 944 943 945 949
236 1 944 943 945 950
237 1 944 943 945 951
238 1 956 955 957 961
239 1 956 955 957 962
240 1 956 955 957 963
241 1 968 967 969 973
242 1 968 967 969 974
243 1 968 967 969 975
244 1 980 979 981 985
245 1 980 979 981 986
246 1 980 979 981 987
247 1 992 991 993 997
248 1 992 991 993 998
249 1 992 991 993 999
250 1 1004 1003 1005 1009
251 1 1004 1003 1005 1010
252 1 1004 1003 1005 1011
253 1 1016 1015 1017 1021
254 1 1016 1015 1017 1022
255 1 1016 1015 1017 1023
256 1 1028 1027 1029 1033
257 1 1028 1027 1029 1034
258 1 1028 1027 1029 1035
259 1 1040 1039 1041 1045
260 1 1040 1039 1041 1046
261 1 1040 1039 1041 1047
262 1 1052 1051 1053 1057
263 1 1052 1051 1053 1058
264 1 1052 1051 1053 1059
265 1 1064 1063 1065 1069
266 1 1064 1063 1065 1070
267 1 1064 1063 1065 1071
268 1 1076 1075 1077 1081
269 1 1076 1075 1077 1082
270 1 1076 1075 1077 1083
271 1 1088 1087 1089 1093
272 1 1088 1087 1089 1094
273 1 1088 1087 1089 1095
274 1 1100 1099 1101 1105
275 1 1100 1099 1101 1106
276 1 1100 1099 1101 1107
277 1 1112 1111 1113 1117
278 1 1112 1111 1113 1118
279 1 1112 1111 1113 1119
280 1 1124 1123 1125 1129
281 1 1124 1123 1125 1130
282 1 1124 1123 1125 1131
283 1 1136 1135 1137 1141
284 1 1136 1135 1137 1142
285 1 1136 1135 1137 1143
286 1 1148 1147 1149 1153
287 1 1148 1147 1149 1154
288 1 1148 1147 1149 1155
289 1 1160 1159 1161 1165
290 1 1160 1159 1161 1166
291 1 1160 1159 1161 1167
292 1 1172 1171 1173 1177
293 1 1172 1171 1173 1178
294 1 1172 1171 1173 1179
295 1 1184 1183 1185 1189
296 1 1184 1183 1185 1190
297 1 1184 1183 1185 1191
298 1 1196 1195 1197 1202
299 1 1196 1195 1197 1203
300 1 1196 1195 1197 1204
301 1 1209 1208 1210 1215
302 1 1209 1208 1210 1216
303 1 1209 1208 1210 1217
304 1 1222 1221 1223 1227
305 1 1222 1221 1223 1228
306 1 1222 1221 1223 1229
307 1 1234 1233 1235 1239
308 1 1234 1233 1235 1240
309 1 1234 1233 1235 1241
310 1 1246 1245 1247 1251
311 1 1246 1245 1247 1252
312 1 1246 1245 1247 1253
313 1 1258 1257 1259 1263
314 1 1258 1257 1259 1264
315 1 1258 1257 1259 1265
316 1 1270 1269 1271 1275
317 1 1270 1269 1271 1276
318 1 1270 1269 1271 1277
319 1 1282 1281 1283 1287
320 1 1282 1281 1283 1288
321 1 1282 1281 1283 1289
322 1 1294 1293 1295 1299
323 1 1294 1293 1295 1300
324 1 1294 1293 1295 1301
325 1 1306 1305 1307 1311
326 1 1306 1305 1307 1312
327 1 1306 1305 1307 1313
328 1 1318 1317 1319 1323
329 1 1318 1317 1319 1324
330 1 1318 1317 1319 1325
331 1 1330 1329 1331 1335
332 1 1330 1329 1331 1336
333 1 1330 1329 1331 1337
334 1 1342 1341 1343 1347
335 1 1342 1341 1343 1348
336 1 1342 1341 1343 1349
337 1 1354 1353 1355 1359
338 1 1354 1353 1355 1360
339 1 1354 1353 1355 1361
340 1 1366 1365 1367 1371
341 1 1366 1365 1367 1372
342 1 1366 1365 1367 1373
343 1 1378 1377 1379 1383
344 1 1378 1377 1379 1384
345 1 1378 1377 1379 1385
346 1 1390 1389 1391 1395
347 1 1390 1389 1391 1396
348 1 1390 1389 1391 1397
349 1 1402 1401 1403 1407
350 1 1402 1401 1403 1408
351 1 1402 1401 1403 1409
352 1 1414 1413 1415 1419
353 1 1414 1413 1415 1420
354 1 1414 1413 1415 1421
355 1 1426 1425 1427 1431
356 1 1426 1425 1427 1432
357 1 1426 1425 1427 1433
358 1 1438 1437 1439 1443
359 1 1438 1437 1439 1444
360 1 1438 1437 1439 1445
361 1 1450 1449 1451 1455
362 1 1450 1449 1451 1456
363 1 1450 1449 1451 1457
364 1 1462 1461 1463 1467
365 1 1462 1461 1463 1468
366 1 1462 1461 1463 1469
367 1 1474 1473 1475 1479
368 1 1474 1473 1475 1480
369 1 1474 1473 1475 1481
370 1 1486 1485 1487 1491
371 1 1486 1485 1487 1492
372 1 1486 1485 1487 1493
373 1 1498 1497 1499 1503
374 1 1498 1497 1499 1504
375 1 1498 1497 1499 1505
376 1 1510 1509 1511 1515
377 1 1510 1509 1511 1516
378 1 1510 1509 1511 1517
379 1 1522 1521 1523 1527
380 1 1522 1521 1523 1528
381 1 1522 1521 1523 1529
382 1 1534 1533 1535 1539
383 1 1534 1533 1535 1540
384 1 1534 1533 1535 1541
385 1 1546 1545 1547 1551
386 1 1546 1545 1547 1552
387 1 1546 1545 1547 1553
388 1 1558 1557 1559 1563
389 1 1558 1557 1559 1564
390 1 1558 1557 1559 1565
391 1 1570 1569 1571 1575
392 1 1570 1569 1571 1576
393 1 1570 1569 1571 1577
394 1 1582 1581 1583 1587
395 1 1582 1581 1583 1588
396 1 1582 1581 1583 1589
397 1 1594 1593 1595 1599
398 1 1594 1593 1595 1600
399 1 1594 1593 1595 1601
400 1 1606 1605 1607 1611
401 1 1606 1605 1607 1612
402 1 1606 1605 1607 1613
403 1 1618 1617 1619 1623
404 1 1618 1617 1619 1624
405 1 1618 1617 1619 1625
406 1 1630 1629 1631 1635
407 1 1630 1629 1631 1636
408 1 1630 1629 1631 1637
409 1 1642 1641 1643 1647
410 1 1642 1641 1643 1648
411 1 1642 1641 1643 1649
412 1 1654 1653 1655 1659
413 1 1654 1653 1655 1660
414 1 1654 1653 1655 1661
415 1 1666 1665 1667 1671
416 1 1666 1665 1667 1672
417 1 1666 1665 1667 1673
418 1 1678 1677 1679 1683
419 1 1678 1677 1679 1684
420 1 1678 1677 1679 1685
421 1 1690 1689 1691 1695
422 1 1690 1689 1691 1696
423 1 1690 1689 1691 1697
424 1 1702 1701 1703 1707
425 1 1702 1701 1703 1708
426 1 1702 1701 1703 1709
427 1 1714 1713 1715 1719
428 1 1714 1713 1715 1720
429 1 1714 1713 1715 1721
430 1 1726 1725 1727 1731
431 1 1726 1725 1727 1732
432 1 1726 1725 1727 1733
433 1 1738 1737 1739 1743
434 1 1738 1737 1739 1744
435 1 1738 1737 1739 1745
436 1 1750 1749 1751 1755
437 1 1750 1749 1751 1756
438 1 1750 1749 1751 1757
439 1 1762 1761 1763 1767
440 1 1762 1761 1763 1768
441 1 1762 1761 1763 1769
442 1 1774 1773 1775 1779
443 1 1774 1773 1775 1780
444 1 1774 1773 1775 1781
445 1 1786 1785 1787 1791
446 1 1786 1785 1787 1792
447 1 1786 1785 1787 1793
448 1 1798 1797 1799 1804
449 1 1798 1797 1799 1805
450 1 1798 1797 1799 1806
451 1 1811 1810 1812 1817
452 1 1811 1810 1812 1818
453 1 1811 1810 1812 1819
454 1 1824 1823 1825 1829
455 1 1824 1823 1825 1830
456 1 1824 1823 1825 1831
457 1 1836 1835 1837 1841
458 1 1836 1835 1837 1842
459 1 1836 1835 1837 1843
460 1 1848 1847 1849 1853
461 1 1848 1847 1849 1854
462 1 1848 1847 1849 1855
463 1 1860 1859 1861 1865
464 1 1860 1859 1861 1866
465 1 1860 1859 1861 1867
466 1 1872 1871 1873 1877
467 1 1872 1871 1873 1878
468 1 1872 1871 1873 1879
469 1 1884 1883 1885 1889
470 1 1884 1883 1885 1890
471 1 1884 1883 1885 1891
472 1 1896 1895 1897 1901
473 1 1896 1895 1897 1902
474 1 1896 1895 1897 1903
475 1 1908 1907 1909 1913
476 1 1908 1907 1909 1914
477 1 1908 1907 1909 1915
478 1 1920 1919 1921 1925
479 1 1920 1919 1921 1926
480 1 1920 1919 1921 1927
481 1 1932 1931 1933 1937
482 1 1932 1931 1933 1938
483 1 1932 1931 1933 1939
484 1 1944 1943 1945 1949
485 1 1944 1943 1945 1950
486 1 1944 1943 1945 1951
487 1 1956 1955 1957 1961
488 1 1956 1955 1957 1962
489 1 1956 1955 1957 1963
490 1 1968 1967 1969 1973
491 1 1968 1967 1969 1974
492 1 1968 1967 1969 1975
493 1 1980 1979 1981 1985
494 1 1980 1979 1981 1986
495 1 1980 1979 1981 1987
496 1 1992 1991 1993 1997
497 1 1992 1991 1993 1998
498 1 1992 1991 1993 1999
499 1 2004 2003 2005 2009
500 1 2004 2003 2005 2010
501 1 2004 2003 2005 2011
502 1 2016 2015 2017 2021
503 1 2016 2015 2017 2022
504 1 2016 2015 2017 2023
505 1 2028 2027 2029 2033
506 1 2028 2027 2029 2034
507 1 2028 2027 2029 2035
508 1 2040 2039 2041 2045
509 1 2040 2039 2041 2046
510 1 2040 2039 2041 2047
511 1 2052 2051 2053 2057
512 1 2052 2051 2053 2058
513 1 2052 2051 2053 2059
514 1 2064 2063 2065 2069
515 1 2064 2063 2065 2070
516 1 2064 2063 2065 2071
517 1 2076 2075 2077 2081
518 1 2076 2075 2077 2082
519 1 2076 2075 2077 2083
520 1 2088 2087 2089 2093
521 1 2088 2087 2089 2094
522 1 2088 2087 2089 2095
523 1 2100 2099 2101 2105
524 1 2100 2099 2101 2106
525 1 2100 2099 2101 2107
526 1 2112 2111 2113 2117
527 1 2112 2111 2113 2118
528 1 2112 2111 2113 2119
529 1 2124 2123 2125 2129
530 1 2124 2123 2125 2130
531 1 2124 2123 2125 2131
532 1 2136 2135 2137 2141
533 1 2136 2135 2137 2142
534 1 2136 2135 2137 2143
535 1 2148 2147 2149 2153
536 1 2148 2147 2149 2154
537 1 2148 2147 2149 2155
538 1 2160 2159 2161 2165
539 1 2160 2159 2161 2166
540 1 2160 2159 2161 2167
541 1 2172 2171 2173 2177
542 1 2172 2171 2173 2178
543 1 2172 2171 2173 2179
544 1 2184 2183 2185 2189
545 1 2184 2183 2185 2190
546 1 2184 2183 2185 2191
547 1 2196 2195 2197 2201
548 1 2196 2195 2197 2202
549 1 2196 2195 2197 2203
550 1 2208 2207 2209 2213
551 1 2208 2207 2209 2214
552 1 2208 2207 2209 2215
553 1 2220 2219 2221 2225
554 1 2220 2219 2221 2226
555 1 2220 2219 2221 2227
556 1 2232 2231 2233 2237
557 1 2232 2231 2233 2238
558 1 2232 2231 2233 2239
559 1 2244 2243 2245 2249
560 1 2244 2243 2245 2250
561 1 2244 2243 2245 2251
562 1 2256 2255 2257 2261
563 1 2256 2255 2257 2262
564 1 2256 2255 2257 2263
565 1 2268 2267 2269 2273
566 1 2268 2267 2269 2274
567 1 2268 2267 2269 2275
568 1 2280 2279 2281 2285
569 1 2280 2279 2281 2286
570 1 2280 2279 2281 2287
571 1 2292 2291 2293 2297
572 1 2292 2291 2293 2298
573 1 2292 2291 2293 2299
574 1 2304 2303 2305 2309
575 1 2304 2303 2305 2310
576 1 2304 2303 2305 2311
577 1 2316 2315 2317 2321
578 1 2316 2315 2317 2322
579 1 2316 2315 2317 2323
580 1 2328 2327 2329 2333
581 1 2328 2327 2329 2334
582 1 2328 2327 2329 2335
583 1 2340 2339 2341 2345
584 1 2340 2339 2341 2346
585 1 2340 2339 2341 2347
586 1 2352 2351 2353 2357
587 1 2352 2351 2353 2358
588 1 2352 2351 2353 2359
589 1 2364 2363 2365 2369
590 1 2364 2363 2365 2370
591 1 2364 2363 2365 2371
592 1 2376 2375 2377 2381
593 1 2376 2375 2377 2382
594 1 2376 2375 2377 2383
595 1 2388 2387 2389 2393
596 1 2388 2387 2389 2394
597 1 2388 2387 2389 2395
598 1 2400 2399 2401 2406
599 1 2400 2399 2401 2407
600 1 2400 2399 2401 2408
601 1 2413 2412 2414 2419
602 1 2413 2412 2414 2420
603 1 2413 2412 2414 2421
604 1 2426 2425 2427 2431
605 1 2426 2425 2427 2432
606 1 2426 2425 2427 2433
607 1 2438 2437 2439 2443
608 1 2438 2437 2439 2444
609 1 2438 2437 2439 2445
610 1 2450 2449 2451 2455
611 1 2450 2449 2451 2456
612 1 2450 2449 2451 2457
613 1 2462 2461 2463 2467
614 1 2462 2461 2463 2468
615 1 2462 2461 2463 2469
616 1 2474 2473 2475 2479
617 1 2474 2473 2475 2480
618 1 2474 2473 2475 2481
619 1 2486 2485 2487 2491
620 1 2486 2485 2487 2492
621 1 2486 2485 2487 2493
622 1 2498 2497 2499 2503
623 1 2498 2497 2499 2504
624 1 2498 2497 2499 2505
625 1 2510 2509 2511 2515
626 1 2510 2509 2511 2516
627 1 2510 2509 2511 2517
628 1 2522 2521 2523 2527
629 1 2522 2521 2523 2528
630 1 2522 2521 2523 2529
631 1 2534 2533 2535 2539
632 1 2534 2533 2535 2540
633 1 2534 2533 2535 2541
634 1 2546 2545 2547 2551
635 1 2546 2545 2547 2552
636 1 2546 2545 2547 2553
637 1 2558 2557 2559 2563
638 1 2558 2557 2559 2564
639 1 2558 2557 2559 2565
640 1 2570 2569 2571 2575
641 1 2570 2569 2571 2576
642 1 2570 2569 2571 2577
643 1 2582 2581 2583 2587
644 1 2582 2581 2583 2588
645 1 2582 2581 2583 2589
646 1 2594 2593 2595 2599
647 1 2594 2593 2595 2600
648 1 2594 2593 2595 2601
649 1 2606 2605 2607 2611
650 1 2606 2605 2607 2612
651 1 2606 2605 2607 2613
652 1 2618 2617 2619 2623
653 1 2618 2617 2619 2624
654 1 2618 2617 2619 2625
655 1 2630 2629 2631 2635
656 1 2630 2629 2631 2636
657 1 2630 2629 2631 2637
658 1 2642 2641 2643 2647
659 1 2642 2641 2643 2648
660 1 2642 2641 2643 2649
661 1 2654 2653 2655 2659
662 1 2654 2653 2655 2660
663 1 2654 2653 2655 2661
664 1 2666 2665 2667 2671
665 1 2666 2665 2667 2672
666 1 2666 2665 2667 2673
667 1 2678 2677 2679 2683
668 1 2678 2677 2679 2684
669 1 2678 2677 2679 2685
670 1 2690 2689 2691 2695
671 1 2690 2689 2691 2696
672 1 2690 2689 2691 2697
673 1 2702 2701 2703 2707
674 1 2702 2701 2703 2708
675 1 2702 2701 2703 2709
676 1 2714 2713 2715 2719
677 1 2714 2713 2715 2720
678 1 2714 2713 2715 2721
679 1 2726 2725 2727 2731
680 1 2726 2725 2727 2732
681 1 2726 2725 2727 2733
682 1 2738 2737 2739 2743
683 1 2738 2737 2739 2744
684 1 2738 2737 2739 2745
685 1 2750 2749 2751 2755
686 1 2750 2749 2751 2756
687 1 2750 2749 2751 2757
688 1 2762 2761 2763 2767
689 1 2762 2761 2763 2768
690 1 2762 2761 2763 2769
691 1 2774 2773 2775 2779
692 1 2774 2773 2775 2780
693 1 2774 2773 2775 2781
694 1 2786 2785 2787 2791
695 1 2786 2785 2787 2792
696 1 2786 2785 2787 2793
697 1 2798 2797 2799 2803
698 1 2798 2797 2799 2804
699 1 2798 2797 2799 2805
700 1 2810 2809 2811 2815
701 1 2810 2809 2811 2816
702 1 2810 2809 2811 2817
703 1 2822 2821 2823 2827
704 1 2822 2821 2823 2828
705 1 2822 2821 2823 2829
706 1 2834 2833 2835 2839
707 1 2834 2833 2835 2840
708 1 2834 2833 2835 2841
709 1 2846 2845 2847 2851
710 1 2846 2845 2847 2852
711 1 2846 2845 2847 2853
712 1 2858 2857 2859 2863
713 1 2858 2857 2859 2864
714 1 2858 2857 2859 2865
715 1 2870 2869 2871 2875
716 1 2870 2869 2871 2876
717 1 2870 2869 2871 2877
718 1 2882 2881 2883 2887
719 1 2882 2881 2883 2888
720 1 2882 2881 2883 2889
721 1 2894 2893 2895 2899
722 1 2894 2893 2895 2900
723 1 2894 2893 2895 2901
724 1 2906 2905 2907 2911
725 1 2906 2905 2907 2912
726 1 2906 2905 2907 2913
727 1 2918 2917 2919 2923
728 1 2918 2917 2919 2924
729 1 2918 2917 2919 2925
730 1 2930 2929 2931 2935
731 1 2930 2929 2931 2936
732 1 2930 2929 2931 2937
733 1 2942 2941 2943 2947
734 1 2942 2941 2943 2948
735 1 2942 2941 2943 2949
736 1 2954 2953 2955 2959
737 1 2954 2953 2955 2960
738 1 2954 2953 2955 2961
739 1 2966 2965 2967 2971
740 1 2966 2965 2967 2972
741 1 2966 2965 2967 2973
742 1 2978 2977 2979 2983
743 1 2978 2977 2979 2984
744 1 2978 2977 2979 2985
745 1 2990 2989 2991 2995
746 1 2990 2989 2991 2996
747 1 2990 2989 2991 2997
748 1 3002 3001 3003 3008
749 1 3002 3001 3003 3009
750 1 3002 3001 3003 3010
751 1 3015 3014 3016 3021
752 1 3015 3014 3016 3022
753 1 3015 3014 3016 3023
754 1 3028 3027 3029 3033
755 1 3028 3027 3029 3034
756 1 3028 3027 3029 3035
757 1 3040 3039 3041 3045
758 1 3040 3039 3041 3046
759 1 3040 3039 3041 3047
760 1 3052 3051 3053 3057
761 1 3052 3051 3053 3058
762 1 3052 3051 3053 3059
763 1 3064 3063 3065 3069
764 1 3064 3063 3065 3070
765 1 3064 3063 3065 3071
766 1 3076 3075 3077 3081
767 1 3076 3075 3077 3082
768 1 3076 3075 3077 3083
769 1 3088 3087 3089 3093
770 1 3088 3087 3089 3094
771 1 3088 3087 3089 3095
772 1 3100 3099 3101 3105
773 1 3100 3099 3101 3106
774 1 3100 3099 3101 3107
775 1 3112 3111 3113 3117
776 1 3112 3111 3113 3118
777 1 3112 3111 3113 3119
778 1 3124 3123 3125 3129
779 1 3124 3123 3125 3130
780 1 3124 3123 3125 3131
781 1 3136 3135 3137 3141
782 1 3136 3135 3137 3142
783 1 3136 3135 3137 3143
784 1 3148 3147 3149 3153
785 1 3148 3147 3149 3154
786 1 3148 3147 3149 3155
787 1 3160 3159 3161 3165
788 1 3160 3159 3161 3166
789 1 3160 3159 3161 3167
790 1 3172 3171 3173 3177
791 1 3172 3171 3173 3178
792 1 3172 3171 3173 3179
793 1 3184 3183 3185 3189
794 1 3184 3183 3185 3190
795 1 3184 3183 3185 3191
796 1 3196 3195 3197 3201
797 1 3196 3195 3197 3202
798 1 3196 3195 3197 3203
799 1 3208 3207 3209 3213
800 1 3208 3207 3209 3214
801 1 3208 3207 3209 3215
802 1 3220 3219 3221 3225
803 1 3220 3219 3221 3226
804 1 3220 3219 3221 3227
805 1 3232 3231 3233 3237
806 1 3232 3231 3233 3238
807 1 3232 3231 3233 3239
808 1 3244 3243 3245 3249
809 1 3244 3243 3245 3250
810 1 3244 3243 3245 3251
811 1 3256 3255 3257 3261
812 1 3256 3255 3257 3262
813 1 3256 3255 3257 3263
814 1 3268 3267 3269 3273
815 1 3268 3267 3269 3274
816 1 3268 3267 3269 3275
817 1 3280 3279 3281 3285
818 1 3280 3279 3281 3286
819 1 3280 3279 3281 3287
820 1 3292 3291 3293 3297
821 1 3292 3291 3293 3298
822 1 3292 3291 3293 3299
823 1 3304 3303 3305 3309
824 1 3304 3303 3305 3310
825 1 3304 3303 3305 3311
826 1 3316 3315 3317 3321
827 1 3316 3315 3317 3322
828 1 3316 3315 3317 3323
829 1 3328 3327 3329 3333
830 1 3328 3327 3329 3334
831 1 3328 3327 3329 3335
832 1 3340 3339 3341 3345
833 1 3340 3339 3341 3346
834 1 3340 3339 3341 3347
835 1 3352 3351 3353 3357
836 1 3352 3351 3353 3358
837 1 3352 3351 3353 3359
838 1 3364 3363 3365 3369
839 1 3364 3363 3365 3370
840 1 3364 3363 3365 3371
841 1 3376 3375 3377 3381
842 1 3376 3375 3377 3382
843 1 3376 3375 3377 3383
844 1 3388 3387 3389 3393
845 1 3388 3387 3389 3394
846 1 3388 3387 3389 3395
847 1 3400 3399 3401 3405
848 1 3400 3399 3401 3406
849 1 3400 3399 3401 3407
850 1 3412 3411 3413 3417
851 1 3412 3411 3413 3418
852 1 3412 3411 3413 3419
853 1 3424 3423 3425 3429
854 1 3424 3423 3425 3430
855 1 3424 3423 3425 3431
856 1 3436 3435 3437 3441
857 1 3436 3435 3437 3442
858 1 3436 3435 3437 3443
859 1 3448 3447 3449 3453
860 1 3448 3447 3449 3454
861 1 3448 3447 3449 3455
862 1 3460 3459 3461 3465
863 1 3460 3459 3461 3466
864 1 3460 3459 3461 3467
865 1 3472 3471 3473 3477
866 1 3472 3471 3473 3478
867 1 3472 3471 3473 3479
868 1 3484 3483 3485 3489
869 1 3484 3483 3485 3490
870 1 3484 3483 3485 3491
871 1 3496 3495 3497 3501
872 1 3496 3495 3497 3502
873 1 3496 3495 3497 3503
874 1 3508 3507 3509 3513
875 1 3508 3507 3509 3514
876 1 3508 3507 3509 3515
877 1 3520 3519 3521 3525
878 1 3520 3519 3521 3526
879 1 3520 3519 3521 3527
880 1 3532 3531 3533 3537
881 1 3532 3531 3533 3538
882 1 3532 3531 3533 3539
883 1 3544 3543 3545 3549
884 1 3544 3543 3545 3550
885 1 3544 3543 3545 3551
886 1 3556 3555 3557 3561
887 1 3556 3555 3557 3562
888 1 3556 3555 3557 3563
889 1 3568 3567 3569 3573
890 1 3568 3567 3569 3574
891 1 3568 3567 3569 3575
892 1 3580 3579 3581 3585
893 1 3580 3579 3581 3586
894 1 3580 3579 3581 3587
895 1 3592 3591 3593 3597
896 1 3592 3591 3593 3598
897 1 3592 3591 3593 3599
898 1 3604 3603 3605 3610
899 1 3604 3603 3605 3611
900 1 3604 3603 3605 3612
901 1 3617 3616 3618 3623
902 1 3617 3616 3618 3624
903 1 3617 3616 3618 3625
904 1 3630 3629 3631 3635
905 1 3630 3629 3631 3636
906 1 3630 3629 3631 3637
907 1 3642 3641 3643 3647
908 1 3642 3641 3643 3648
909 1 3642 3641 3643 3649
910 1 3654 3653 3655 3659
911 1 3654 3653 3655 3660
912 1 3654 3653 3655 3661
913 1 3666 3665 3667 3671
914 1 3666 3665 3667 3672
915 1 3666 3665 3667 3673
916 1 3678 3677 3679 3683
917 1 3678 3677 3679 3684
918 1 3678 3677 3679 3685
919 1 3690 3689 3691 3695
920 1 3690 3689 3691 3696
921 1 3690 3689 3691 3697
922 1 3702 3701 3703 3707
923 1 3702 3701 3703 3708
924 1 3702 3701 3703 3709
925 1 3714 3713 3715 3719
926 1 3714 3713 3715 3720
927 1 3714 3713 3715 3721
928 1 3726 3725 3727 3731
929 1 3726 3725 3727 3732
930 1 3726 3725 3727 3733
931 1 3738 3737 3739 3743
932 1 3738 3737 3739 3744
933 1 3738 3737 3739 3745
934 1 3750 3749 3751 3755
935 1 3750 3749 3751 3756
936 1 3750 3749 3751 3757
937 1 3762 3761 3763 3767
938 1 3762 3761 3763 3768
939 1 3762 3761 3763 3769
940 1 3774 3773 3775 3779
941 1 3774 3773 3775 3780
942 1 3774 3773 3775 3781
943 1 3786 3785 3787 3791
944 1 3786 3785 3787 3792
945 1 3786 3785 3787 3793
946 1 3798 3797 3799 3803
947 1 3798 3797 3799 3804
948 1 3798 3797 3799 3805
949 1 3810 3809 3811 3815
950 1 3810 3809 3811 3816
951 1 3810 3809 3811 3817
952 1 3822 3821 3823 3827
953 1 3822 3821 3823 3828
954 1 3822 3821 3823 3829
955 1 3834 3833 3835 3839
956 1 3834 3833 3835 3840
957 1 3834 3833 3835 3841
958 1 3846 3845 3847 3851
959 1 3846 3845 3847 3852
960 1 3846 3845 3847 3853
961 1 3858 3857 3859 3863
962 1 3858 3857 3859 3864
963 1 3858 3857 3859 3865
964 1 3870 3869 3871 3875
965 1 3870 3869 3871 3876
966 1 3870 3869 3871 3877
967 1 3882 3881 3883 3887
968 1 3882 3881 3883 3888
969 1 3882 3881 3883 3889
970 1 3894 3893 3895 3899
971 1 3894 3893 3895 3900
972 1 3894 3893 3895 3901
973 1 3906 3905 3907 3911
974 1 3906 3905 3907 3912
975 1 3906 3905 3907 3913
976 1 3918 3917 3919 3923
977 1 3918 3917 3919 3924
978 1 3918 3917 3919 3925
979 1 3930 3929 3931 3935
980 1 3930 3929 3931 3936
981 1 3930 3929 3931 3937
982 1 3942 3941 3943 3947
983 1 3942 3941 3943 3948
984 1 3942 3941 3943 3949
985 1 3954 3953 3955 3959
986 1 3954 3953 3955 3960
987 1 3954 3953 3955 3961
988 1 3966 3965 3967 3971
989 1 3966 3965 3967 3972
990 1 3966 3965 3967 3973
991 1 3978 3977 3979 3983
992 1 3978 3977 3979 3984
993 1 3978 3977 3979 3985
994 1 3990 3989 3991 3995
995 1 3990 3989 3991 3996
996 1 3990 3989 3991 3997
997 1 4002 4001 4003 4007
998 1 4002 4001 4003 4008
999 1 4002 4001 4003 4009
1000 1 4014 4013 4015 4019
1001 1 4014 4013 4015 4020
1002 1 4014 4013 4015 4021
1003 1 4026 4025 4027 4031
1004 1 4026 4025 4027 4032
1005 1 4026 4025 4027 4033
1006 1 4038 4037 4039 4043
1007 1 4038 4037 4039 4044
1008 1 4038 4037 4039 4045
1009 1 4050 4049 4051 4055
1010 1 4050 4049 4051 4056
1011 1 4050 4049 4051 4057
1012 1 4062 4061 4063 4067
1013 1 4062 4061 4063 4068
1014 1 4062 4061 4063 4069
1015 1 4074 4073 4075 4079
1016 1 4074 4073 4075 4080
1017 1 4074 4073 4075 4081
1018 1 4086 4085 4087 4091
1019 1 4086 4085 4087 4092
1020 1 4086 4085 4087 4093
1021 1 4098 4097 4099 4103
1022 1 4098 4097 4099 4104
1023 1 4098 4097 4099 4105
1024 1 4110 4109 4111 4115
1025 1 4110 4109 4111 4116
1026 1 4110 4109 4111 4117
1027 1 4122 4121 4123 4127
1028 1 4122 4121 4123 4128
1029 1 4122 4121 4123 4129
1030 1 4134 4133 4135 4139
1031 1 4134 4133 4135 4140
1032 1 4134 4133 4135 4141
1033 1 4146 4145 4147 4151
1034 1 4146 4145 4147 4152
1035 1 4146 4145 4147 4153
1036 1 4158 4157 4159 4163
1037 1 4158 4157 4159 4164
1038 1 4158 4157 4159 4165
1039 1 4170 4169 4171 4175
1040 1 4170 4169 4171 4176
1041 1 4170 4169 4171 4177
1042 1 4182 4181 4183 4187
1043 1 4182 4181 4183 4188
1044 1 4182 4181 4183 4189
1045 1 4194 4193 4195 4199
1046 1 4194 4193 4195 4200
1047 1 4194 4193 4195 4201
1048 1 4206 4205 4207 4212
1049 1 4206 4205 4207 4213
1050 1 4206 4205 4207 4214
1051 1 4219 4218 4220 4225
1052 1 4219 4218 4220 4226
1053 1 4219 4218 4220 4227
1054 1 4232 4231 4233 4237
1055 1 4232 4231 4233 4238
1056 1 4232 4231 4233 4239
1057 1 4244 4243 4245 4249
1058 1 4244 4243 4245 4250
1059 1 4244 4243 4245 4251
1060 1 4256 4255 4257 4261
1061 1 4256 4255 4257 4262
1062 1 4256 4255 4257 4263
1063 1 4268 4267 4269 4273
1064 1 4268 4267 4269 4274
1065 1 4268 4267 4269 4275
1066 1 4280 4279 4281 4285
1067 1 4280 4279 4281 4286
1068 1 4280 4279 4281 4287
1069 1 4292 4291 4293 4297
1070 1 4292 4291 4293 4298
1071 1 4292 4291 4293 4299
1072 1 4304 4303 4305 4309
1073 1 4304 4303 4305 4310
1074 1 4304 4303 4305 4311
1075 1 4316 4315 4317 4321
1076 1 4316 4315 4317 4322
1077 1 4316 4315 4317 4323
1078 1 4328 4327 4329 4333
1079 1 4328 4327 4329 4334
1080 1 4328 4327 4329 4335
1081 1 4340 4339 4341 4345
1082 1 4340 4339 4341 4346
1083 1 4340 4339 4341 4347
1084 1 4352 4351 4353 4357
1085 1 4352 4351 4353 4358
1086 1 4352 4351 4353 4359
1087 1 4364 4363 4365 4369
1088 1 4364 4363 4365 4370
1089 1 4364 4363 4365 4371
1090 1 4376 4375 4377 4381
1091 1 4376 4375 4377 4382
1092 1 4376 4375 4377 4383
1093 1 4388 4387 4389 4393
1094 1 4388 4387 4389 4394
1095 1 4388 4387 4389 4395
1096 1 4400 4399 4401 4405
1097 1 4400 4399 4401 4406
1098 1 4400 4399 4401 4407
1099 1 4412 4411 4413 4417
1100 1 4412 4411 4413 4418
1101 1 4412 4411 4413 4419
1102 1 4424 4423 4425 4429
1103 1 4424 4423 4425 4430
1104 1 4424 4423 4425 4431
1105 1 4436 4435 4437 4441
1106 1 4436 4435 4437 4442
1107 1 4436 4435 4437 4443
1108 1 4448 4447 4449 4453
1109 1 4448 4447 4449 4454
1110 1 4448 4447 4449 4455
1111 1 4460 4459 4461 4465
1112 1 4460 4459 4461 4466
1113 1 4460 4459 4461 4467
1114 1 4472 4471 4473 4477
1115 1 4472 4471 4473 4478
1116 1 4472 4471 4473 4479
1117 1 4484 4483 4485 4489
1118 1 4484 4483 4485 4490
1119 1 4484 4483 4485 4491
1120 1 4496 4495 4497 4501
1121 1 4496 4495 4497 4502
1122 1 4496 4495 4497 4503
1123 1 4508 4507 4509 4513
1124 1 4508 4507 4509 4514
1125 1 4508 4507 4509 4515
1126 1 4520 4519 4521 4525
1127 1 4520 4519 4521 4526
1128 1 4520 4519 4521 4527
1129 1 4532 4531 4533 4537
1130 1 4532 4531 4533 4538
1131 1 4532 4531 4533 4539
1132 1 4544 4543 4545 4549
1133 1 4544 4543 4545 4550
1134 1 4544 4543 4545 4551
1135 1 4556 4555 4557 4561
1136 1 4556 4555 4557 4562
1137 1 4556 4555 4557 4563
1138 1 4568 4567 4569 4573
1139 1 4568 4567 4569 4574
1140 1 4568 4567 4569 4575
1141 1 4580 4579 4581 4585
1142 1 4580 4579 4581 4586
1143 1 4580 4579 4581 4587
1144 1 4592 4591 4593 4597
1145 1 4592 4591 4593 4598
1146 1 4592 4591 4593 4599
1147 1 4604 4603 4605 4609
1148 1 4604 4603 4605 4610
1149 1 4604 4603 4605 4611
1150 1 4616 4615 4617 4621
1151 1 4616 4615 4617 4622
1152 1 4616 4615 4617 4623
1153 1 4628 4627 4629 4633
1154 1 4628 4627 4629 4634
1155 1 4628 4627 4629 4635
1156 1 4640 4639 4641 4645
1157 1 4640 4639 4641 4646
1158 1 4640 4639 4641 4647
1159 1 4652 4651 4653 4657
1160 1 4652 4651 4653 4658
1161 1 4652 4651 4653 4659
1162 1 4664 4663 4665 4669
1163 1 4664 4663 4665 4670
1164 1 4664 4663 4665 4671
1165 1 4676 4675 4677 4681
1166 1 4676 4675 4677 4682
1167 1 4676 4675 4677 4683
1168 1 4688 4687 4689 4693
1169 1 4688 4687 4689 4694
1170 1 4688 4687 4689 4695
1171 1 4700 4699 4701 4705
1172 1 4700 4699 4701 4706
1173 1 4700 4699 4701 4707
1174 1 4712 4711 4713 4717
1175 1 4712 4711 4713 4718
1176 1 4712 4711 4713 4719
1177 1 4724 4723 4725 4729
1178 1 4724 4723 4725 4730
1179 1 4724 4723 4725 4731
1180 1 4736 4735 4737 4741
1181 1 4736 4735 4737 4742
1182 1 4736 4735 4737 4743
1183 1 4748 4747 4749 4753
1184 1 4748 4747 4749 4754
1185 1 4748 4747 4749 4755
1186 1 4760 4759 4761 4765
1187 1 4760 4759 4761 4766
1188 1 4760 4759 4761 4767
1189 1 4772 4771 4773 4777
1190 1 4772 4771 4773 4778
1191 1 4772 4771 4773 4779
1192 1 4784 4783 4785 4789
1193 1 4784 4783 4785 4790
1194 1 4784 4783 4785 4791
1195 1 4796 4795 4797 4801
1196 1 4796 4795 4797 4802
1197 1 4796 4795 4797 4803
1198 1 4808 4807 4809 4814
1199 1 4808 4807 4809 4815
1200 1 4808 4807 4809 4816
1201 1 4821 4820 4822 4827
1202 1 4821 4820 4822 4828
1203 1 4821 4820 4822 4829
1204 1 4834 4833 4835 4839
1205 1 4834 4833 4835 4840
1206 1 4834 4833 4835 4841
1207 1 4846 4845 4847 4851
1208 1 4846 4845 4847 4852
1209 1 4846 4845 4847 4853
1210 1 4858 4857 4859 4863
1211 1 4858 4857 4859 4864
1212 1 4858 4857 4859 4865
1213 1 4870 4869 4871 4875
1214 1 4870 4869 4871 4876
1215 1 4870 4869 4871 4877
1216 1 4882 4881 4883 4887
1217 1 4882 4881 4883 4888
1218 1 4882 4881 4883 4889
1219 1 4894 4893 4895 4899
1220 1 4894 4893 4895 4900
1221 1 4894 4893 4895 4901
1222 1 4906 4905 4907 4911
1223 1 4906 4905 4907 4912
1224 1 4906 4905 4907 4913
1225 1 4918 4917 4919 4923
1226 1 4918 4917 4919 4924
1227 1 4918 4917 4919 4925
1228 1 4930 4929 4931 4935
1229 1 4930 4929 4931 4936
1230 1 4930 4929 4931 4937
1231 1 4942 4941 4943 4947
1232 1 4942 4941 4943 4948
1233 1 4942 4941 4943 4949
1234 1 4954 4953 4955 4959
1235 1 4954 4953 4955 4960
1236 1 4954 4953 4955 4961
1237 1 4966 4965 4967 4971
1238 1 4966 4965 4967 4972
1239 1 4966 4965 4967 4973
1240 1 4978 4977 4979 4983
1241 1 4978 4977 4979 4984
1242 1 4978 4977 4979 4985
1243 1 4990 4989 4991 4995
1244 1 4990 4989 4991 4996
1245 1 4990 4989 4991 4997
1246 1 5002 5001 5003 5007
1247 1 5002 5001 5003 5008
1248 1 5002 5001 5003 5009
1249 1 5014 5013 5015 5019
1250 1 5014 5013 5015 5020
1251 1 5014 5013 5015 5021
1252 1 5026 5025 5027 5031
1253 1 5026 5025 5027 5032
1254 1 5026 5025 5027 5033
1255 1 5038 5037 5039 5043
1256 1 5038 5037 5039 5044
1257 1 5038 5037 5039 5045
1258 1 5050 5049 5051 5055
1259 1 5050 5049 5051 5056
1260 1 5050 5049 5051 5057
1261 1 5062 5061 5063 5067
1262 1 5062 5061 5063 5068
1263 1 5062 5061 5063 5069
1264 1 5074 5073 5075 5079
1265 1 5074 5073 5075 5080
1266 1 5074 5073 5075 5081
1267 1 5086 5085 5087 5091
1268 1 5086 5085 5087 5092
1269 1 5086 5085 5087 5093
1270 1 5098 5097 5099 5103
1271 1 5098 5097 5099 5104
1272 1 5098 5097 5099 5105
1273 1 5110 5109 5111 5115
1274 1 5110 5109 5111 5116
1275 1 5110 5109 5111 5117
1276 1 5122 5121 5123 5127
1277 1 5122 5121 5123 5128
1278 1 5122 5121 5123 5129
1279 1 5134 5133 5135 5139
1280 1 5134 5133 5135 5140
1281 1 5134 5133 5135 5141
1282 1 5146 5145 5147 5151
1283 1 5146 5145 5147 5152
1284 1 5146 5145 5147 5153
1285 1 5158 5157 5159 5163
1286 1 5158 5157 5159 5164
1287 1 5158 5157 5159 5165
1288 1 5170 5169 5171 5175
1289 1 5170 5169 5171 5176
1290 1 5170 5169 5171 5177
1291 1 5182 5181 5183 5187
1292 1 5182 5181 5183 5188
1293 1 5182 5181 5183 5189
1294 1 5194 5193 5195 5199
1295 1 5194 5193 5195 5200
1296 1 5194 5193 5195 5201
1297 1 5206 5205 5207 5211
1298 1 5206 5205 5207 5212
1299 1 5206 5205 5207 5213
1300 1 5218 5217 5219 5223
1301 1 5218 5217 5219 5224
1302 1 5218 5217 5219 5225
1303 1 5230 5229 5231 5235
1304 1 5230 5229 5231 5236
1305 1 5230 5229 5231 5237
1306 1 5242 5241 5243 5247
1307 1 5242 5241 5243 5248
1308 1 5242 5241 5243 5249
1309 1 5254 5253 5255 5259
1310 1 5254 5253 5255 5260
1311 1 5254 5253 5255 5261
1312 1 5266 5265 5267 5271
1313 1 5266 5265 5267 5272
1314 1 5266 5265 5267 5273
1315 1 5278 5277 5279 5283
1316 1 5278 5277 5279 5284
1317 1 5278 5277 5279 5285
1318 1 5290 5289 5291 5295
1319 1 5290 5289 5291 5296
1320 1 5290 5289 5291 5297
1321 1 5302 5301 5303 5307
1322 1 5302 5301 5303 5308
1323 1 5302 5301 5303 5309
1324 1 5314 5313 5315 5319
1325 1 5314 5313 5315 5320
1326 1 5314 5313 5315 5321
1327 1 5326 5325 5327 5331
1328 1 5326 5325 5327 5332
1329 1 5326 5325 5327 5333
1330 1 5338 5337 5339 5343
1331 1 5338 5337 5339 5344
1332 1 5338 5337 5339 5345
1333 1 5350 5349 5351 5355
1334 1 5350 5349 5351 5356
1335 1 5350 5349 5351 5357
1336 1 5362 5361 5363 5367
1337 1 5362 5361 5363 5368
1338 1 5362 5361 5363 5369
1339 1 5374 5373 5375 5379
1340 1 5374 5373 5375 5380
1341 1 5374 5373 5375 5381
1342 1 5386 5385 5387 5391
1343 1 5386 5385 5387 5392
1344 1 5386 5385 5387 5393
1345 1 5398 5397 5399 5403
1346 1 5398 5397 5399 5404
1347 1 5398 5397 5399 5405
1348 1 5410 5409 5411 5416
1349 1 5410 5409 5411 5417
1350 1 5410 5409 5411 5418
1351 1 5423 5422 5424 5429
1352 1 5423 5422 5424 5430
1353 1 5423 5422 5424 5431
1354 1 5436 5435 5437 5441
1355 1 5436 5435 5437 5442
1356 1 5436 5435 5437 5443
1357 1 5448 5447 5449 5453
1358 1 5448 5447 5449 5454
1359 1 5448 5447 5449 5455
1360 1 5460 5459 5461 5465
1361 1 5460 5459 5461 5466
1362 1 5460 5459 5461 5467
1363 1 5472 5471 5473 5477
1364 1 5472 5471 5473 5478
1365 1 5472 5471 5473 5479
1366 1 5484 5483 5485 5489
1367 1 5484 5483 5485 5490
1368 1 5484 5483 5485 5491
1369 1 5496 5495 5497 5501
1370 1 5496 5495 5497 5502
1371 1 5496 5495 5497 5503
1372 1 5508 5507 5509 5513
1373 1 5508 5507 5509 5514
1374 1 5508 5507 5509 5515
1375 1 5520 5519 5521 5525
1376 1 5520 5519 5521 5526
1377 1 5520 5519 5521 5527
1378 1 5532 5531 5533 5537
1379 1 5532 5531 5533 5538
1380 1 5532 5531 5533 5539
1381 1 5544 5543 5545 5549
1382 1 5544 5543 5545 5550
1383 1 5544 5543 5545 5551
1384 1 5556 5555 5557 5561
1385 1 5556 5555 5557 5562
1386 1 5556 5555 5557 5563
1387 1 5568 5567 5569 5573
1388 1 5568 5567 5569 5574
1389 1 5568 5567 5569 5575
1390 1 5580 5579 5581 5585
1391 1 5580 5579 5581 5586
1392 1 5580 5579 5581 5587
1393 1 5592 5591 5593 5597
1394 1 5592 5591 5593 5598
1395 1 5592 5591 5593 5599
1396 1 5604 5603 5605 5609
1397 1 5604 5603 5605 5610
1398 1 5604 5603 5605 5611
1399 1 5616 5615 5617 5621
1400 1 5616 5615 5617 5622
1401 1 5616 5615 5617 5623
1402 1 5628 5627 5629 5633
1403 1 5628 5627 5629 5634
1404 1 5628 5627 5629 5635
1405 1 5640 5639 5641 5645
1406 1 5640 5639 5641 5646
1407 1 5640 5639 5641 5647
1408 1 5652 5651 5653 5657
1409 1 5652 5651 5653 5658
1410 1 5652 5651 5653 5659
1411 1 5664 5663 5665 5669
1412 1 5664 5663 5665 5670
1413 1 5664 5663 5665 5671
1414 1 5676 5675 5677 5681
1415 1 5676 5675 5677 5682
1416 1 5676 5675 5677 5683
1417 1 5688 5687 5689 5693
1418 1 5688 5687 5689 5694
1419 1 5688 5687 5689 5695
1420 1 5700 5699 5701 5705
1421 1 5700 5699 5701 5706
1422 1 5700 5699 5701 5707
1423 1 5712 5711 5713 5717
1424 1 5712 5711 5713 5718
1425 1 5712 5711 5713 5719
1426 1 5724 5723 5725 5729
1427 1 5724 5723 5725 5730
1428 1 5724 5723 5725 5731
1429 1 5736 5735 5737 5741
1430 1 5736 5735 5737 5742
1431 1 5736 5735 5737 5743
1432 1 5748 5747 5749 5753
1433 1 5748 5747 5749 5754
1434 1 5748 5747 5749 5755
1435 1 5760 5759 5761 5765
1436 1 5760 5759 5761 5766
1437 1 5760 5759 5761 5767
1438 1 5772 5771 5773 5777
1439 1 5772 5771 5773 5778
1440 1 5772 5771 5773 5779
1441 1 5784 5783 5785 5789
1442 1 5784 5783 5785 5790
1443 1 5784 5783 5785 5791
1444 1 5796 5795 5797 5801
1445 1 5796 5795 5797 5802
1446 1 5796 5795 5797 5803
1447 1 5808 5807 5809 5813
1448 1 5808 5807 5809 5814
1449 1 5808 5807 5809 5815
1450 1 5820 5819 5821 5825
1451 1 5820 5819 5821 5826
1452 1 5820 5819 5821 5827
1453 1 5832 5831 5833 5837
1454 1 5832 5831 5833 5838
1455 1 5832 5831 5833 5839
1456 1 5844 5843 5845 5849
1457 1 5844 5843 5845 5850
1458 1 5844 5843 5845 5851
1459 1 5856 5855 5857 5861
1460 1 5856 5855 5857 5862
1461 1 5856 5855 5857 5863
1462 1 5868 5867 5869 5873
1463 1 5868 5867 5869 5874
1464 1 5868 5867 5869 5875
1465 1 5880 5879 5881 5885
1466 1 5880 5879 5881 5886
1467 1 5880 5879 5881 5887
1468 1 5892 5891 5893 5897
1469 1 5892 5891 5893 5898
1470 1 5892 5891 5893 5899
1471 1 5904 5903 5905 5909
1472 1 5904 5903 5905 5910
1473 1 5904 5903 5905 5911
1474 1 5916 5915 5917 5921
1475 1 5916 5915 5917 5922
1476 1 5916 5915 5917 5923
1477 1 5928 5927 5929 5933
1478 1 5928 5927 5929 5934
1479 1 5928 5927 5929 5935
1480 1 5940 5939 5941 5945
1481 1 5940 5939 5941 5946
1482 1 5940 5939 5941 5947
1483 1 5952 5951 5953 5957
1484 1 5952 5951 5953 5958
1485 1 5952 5951 5953 5959
1486 1 5964 5963 5965 5969
1487 1 5964 5963 5965 5970
1488 1 5964 5963 5965 5971
1489 1 5976 5975 5977 5981
1490 1 5976 5975 5977 5982
1491 1 5976 5975 5977 5983
1492 1 5988 5987 5989 5993
1493 1 5988 5987 5989 5994
1494 1 5988 5987 5989 5995
1495 1 6000 5999 6001 6005
1496 1 6000 5999 6001 6006
1497 1 6000 5999 6001 6007
1498 1 6012 6011 6013 6018
1499 1 6012 6011 6013 6019
1500 1 6012 6011 6013 6020
1501 9 3 4 6 11
1502 9 3 4 6 12
1503 9 3 4 6 13
1504 9 16 17 19 23
1505 9 16 17 19 24
1506 9 16 17 19 25
1507 9 28 29 31 35
1508 9 28 29 31 36
1509 9 28 29 31 37
1510 9 40 41 43 47
1511 9 40 41 43 48
1512 9 40 41 43 49
1513 9 52 53 55 59
1514 9 52 53 55 60
1515 9 52 53 55 61
1516 9 64 65 67 71
1517 9 64 65 67 72
1518 9 64 65 67 73
1519 9 76 77 79 83
1520 9 76 77 79 84
1521 9 76 77 79 85
1522 9 88 89 91 95
1523 9 88 89 91 96
1524 9 88 89 91 97
1525 9 100 101 103 107
1526 9 100 101 103 108
1527 9 100 101 103 109
1528 9 112 113 115 119
1529 9 112 113 115 120
1530 9 112 113 115 121
1531 9 124 125 127 131
1532 9 124 125 127 132
1533 9 124 125 127 133
1534 9 136 137 139 143
1535 9 136 137 139 144
1536 9 136 137 139 145
1537 9 148 149 151 155
1538 9 148 149 151 156
1539 9 148 149 151 157
1540 9 160 161 163 167
1541 9 160 161 163 168
1542 9 160 161 163 169
1543 9 172 173 175 179
1544 9 172 173 175 180
1545 9 172 173 175 181
1546 9 184 185 187 191
1547 9 184 185 187 192
1548 9 184 185 187 193
1549 9 196 197 199 203
1550 9 196 197 199 204
1551 9 196 197 199 205
1552 9 208 209 211 215
1553 9 208 209 211 216
1554 9 208 209 211 217
1555 9 220 221 223 227
1556 9 220 221 223 228
1557 9 220 221 223 229
1558 9 232 233 235 239
1559 9 232 233 235 240
1560 9 232 233 235 241
1561 9 244 245 247 251
1562 9 244 245 247 252
1563 9 244 245 247 253
1564 9 256 257 259 263
1565 9 256 257 259 264
1566 9 256 257 259 265
1567 9 268 269 271 275
1568 9 268 269 271 276
1569 9 268 269 271 277
1570 9 280 281 283 287
1571 9 280 281 283 288
1572 9 280 281 283 289
1573 9 292 293 295 299
1574 9 292 293 295 300
1575 9 292 293 295 301
1576 9 304 305 307 311
1577 9 304 305 307 312
1578 9 304 305 307 313
1579 9 316 317 319 323
1580 9 316 317 319 324
1581 9 316 317 319 325
1582 9 328 329 331 335
1583 9 328 329 331 336
1584 9 328 329 331 337
1585 9 340 341 343 347
1586 9 340 341 343 348
1587 9 340 341 343 349
1588 9 352 353 355 359
1589 9 352 353 355 360
1590 9 352 353 355 361
1591 9 364 365 367 371
1592 9 364 365 367 372
1593 9 364 365 367 373
1594 9 376 377 379 383
1595 9 376 377 379 384
1596 9 376 377 379 385
1597 9 388 389 391 395
1598 9 388 389 391 396
1599 9 388 389 391 397
1600 9 400 401 403 407
1601 9 400 401 403 408
1602 9 400 401 403 409
1603 9 412 413 415 419
1604 9 412 413 415 420
1605 9 412 413 415 421
1606 9 424 425 427 431
1607 9 424 425 427 432
1608 9 424 425 427 433
1609 9 436 437 439 443
1610 9 436 437 439 444
1611 9 436 437 439 445
1612 9 448 449 451 455
1613 9 448 449 451 456
1614 9 448 449 451 457
1615 9 460 461 463 467
1616 9 460 461 463 468
1617 9 460 461 463 469
1618 9 472 473 475 479
1619 9 472 473 475 480
1620 9 472 473 475 481
1621 9 484 485 487 491
1622 9 484 485 487 492
1623 9 484 485 487 493
1624 9 496 497 499 503
1625 9 496 497 499 504
1626 9 496 497 499 505
1627 9 508 509 511 515
1628 9 508 509 511 516
1629 9 508 509 511 517
1630 9 520 521 523 527
1631 9 520 521 523 528
1632 9 520 521 523 529
1633 9 532 533 535 539
1634 9 532 533 535 540
1635 9 532 533 535 541
1636 9 544 545 547 551
1637 9 544 545 547 552
1638 9 544 545 547 553
1639 9 556 557 559 563
1640 9 556 557 559 564
1641 9 556 557 559 565
1642 9 568 569 571 575
1643 9 568 569 571 576
1644 9 568 569 571 577
1645 9 580 581 583 587
1646 9 580 581 583 588
1647 9 580 581 583 589
1648 9 592 593 595 600
1649 9 592 593 595 601
1650 9 592 593 595 602
1651 9 605 606 608 613
1652 9 605 606 608 614
1653 9 605 606 608 615
1654 9 618 619 621 625
1655 9 618 619 621 626
1656 9 618 619 621 627
1657 9 630 631 633 637
1658 9 630 631 633 638
1659 9 630 631 633 639
1660 9 642 643 645 649
1661 9 642 643 645 650
1662 9 642 643 645 651
1663 9 654 655 657 661
1664 9 654 655 657 662
1665 9 654 655 657 663
1666 9 666 667 669 673
1667 9 666 667 669 674
1668 9 666 667 669 675
1669 9 678 679 681 685
1670 9 678 679 681 686
1671 9 678 679 681 687
1672 9 690 691 693 697
1673 9 690 691 693 698
1674 9 690 691 693 699
1675 9 702 703 705 709
1676 9 702 703 705 710
1677 9 702 703 705 711
1678 9 714 715 717 721
1679 9 714 715 717 722
1680 9 714 715 717 723
1681 9 726 727 729 733
1682 9 726 727 729 734
1683 9 726 727 729 735
1684 9 738 739 741 745
1685 9 738 739 741 746
1686 9 738 739 741 747
1687 9 750 751 753 757
1688 9 750 751 753 758
1689 9 750 751 753 759
1690 9 762 763 765 769
1691 9 762 763 765 770
1692 9 762 763 765 771
1693 9 774 775 777 781
1694 9 774 775 777 782
1695 9 774 775 777 783
1696 9 786 787 789 793
1697 9 786 787 789 794
1698 9 786 787 789 795
1699 9 798 799 801 805
1700 9 798 799 801 806
1701 9 798 799 801 807
1702 9 810 811 813 817
1703 9 810 811 813 818
1704 9 810 811 813 819
1705 9 822 823 825 829
1706 9 822 823 825 830
1707 9 822 823 825 831
1708 9 834 835 837 841
1709 9 834 835 837 842
1710 9 834 835 837 843
1711 9 846 847 849 853
1712 9 846 847 849 854
1713 9 846 847 849 855
1714 9 858 859 861 865
1715 9 858 859 861 866
1716 9 858 859 861 867
1717 9 870 871 873 877
1718 9 870 871 873 878
1719 9 870 871 873 879
1720 9 882 883 885 889
1721 9 882 883 885 890
1722 9 882 883 885 891
1723 9 894 895 897 901
1724 9 894 895 897 902
1725 9 894 895 897 903
1726 9 906 907 909 913
1727 9 906 907 909 914
1728 9 906 907 909 915
1729 9 918 919 921 925
1730 9 918 919 921 926
1731 9 918 919 921 927
1732 9 930 931 933 937
1733 9 930 931 933 938
1734 9 930 931 933 939
1735 9 942 943 945 949
1736 9 942 943 945 950
1737 9 942 943 945 951
1738 9 954 955 957 961
1739 9 954 955 957 962
1740 9 954 955 957 963
1741 9 966 967 969 973
1742 9 966 967 969 974
1743 9 966 967 969 975
1744 9 978 979 981 985
1745 9 978 979 981 986
1746 9 978 979 981 987
1747 9 990 991 993 997
1748 9 990 991 993 998
1749 9 990 991 993 999
1750 9 1002 1003 1005 1009
1751 9 1002 1003 1005 1010
1752 9 1002 1003 1005 1011
1753 9 1014 1015 1017 1021
1754 9 1014 1015 1017 1022
1755 9 1014 1015 1017 1023
1756 9 1026 1027 1029 1033
1757 9 1026 1027 1029 1034
1758 9 1026 1027 1029 1035
1759 9 1038 1039 1041 1045
1760 9 1038 1039 1041 1046
1761 9 1038 1039 1041 1047
1762 9 1050 1051 1053 1057
1763 9 1050 1051 1053 1058
1764 9 1050 1051 1053 1059
1765 9 1062 1063 1065 1069
1766 9 1062 1063 1065 1070
1767 9 1062 1063 1065 1071
1768 9 1074 1075 1077 1081
1769 9 1074 1075 1077 1082
1770 9 1074 1075 1077 1083
1771 9 1086 1087 1089 1093
1772 9 1086 1087 1089 1094
1773 9 1086 1087 1089 1095
1774 9 1098 1099 1101 1105
1775 9 1098 1099 1101 1106
1776 9 1098 1099 1101 1107
1777 9 1110 1111 1113 1117
1778 9 1110 1111 1113 1118
1779 9 1110 1111 1113 1119
1780 9 1122 1123 1125 1129
1781 9 1122 1123 1125 1130
1782 9 1122 1123 1125 1131
1783 9 1134 1135 1137 1141
1784 9 1134 1135 1137 1142
1785 9 1134 1135 1137 1143
1786 9 1146 1147 1149 1153
1787 9 1146 1147 1149 1154
1788 9 1146 1147 1149 1155
1789 9 1158 1159 1161 1165
1790 9 1158 1159 1161 1166
1791 9 1158 1159 1161 1167
1792 9 1170 1171 1173 1177
1793 9 1170 1171 1173 1178
1794 9 1170 1171 1173 1179
1795 9 1182 1183 1185 1189
1796 9 1182 1183 1185 1190
1797 9 1182 1183 1185 1191
1798 9 1194 1195 1197 1202
1799 9 1194 1195 1197 1203
1800 9 1194 1195 1197 1204
1801 9 1207 1208 1210 1215
1802 9 1207 1208 1210 1216
1803 9 1207 1208 1210 1217
1804 9 1220 1221 1223 1227
1805 9 1220 1221 1223 1228
1806 9 1220 1221 1223 1229
1807 9 1232 1233 1235 1239
1808 9 1232 1233 1235 1240
1809 9 1232 1233 1235 1241
1810 9 1244 1245 1247 1251
1811 9 1244 1245 1247 1252
1812 9 1244 1245 1247 1253
1813 9 1256 1257 1259 1263
1814 9 1256 1257 1259 1264
1815 9 1256 1257 1259 1265
1816 9 1268 1269 1271 1275
1817 9 1268 1269 1271 1276
1818 9 1268 1269 1271 1277
1819 9 1280 1281 1283 1287
1820 9 1280 1281 1283 1288
1821 9 1280 1281 1283 1289
1822 9 1292 1293 1295 1299
1823 9 1292 1293 1295 1300
1824 9 1292 1293 1295 1301
1825 9 1304 1305 1307 1311
1826 9 1304 1305 1307 1312
1827 9 1304 1305 1307 1313
1828 9 1316 1317 1319 1323
1829 9 1316 1317 1319 1324
1830 9 1316 1317 1319 1325
1831 9 1328 1329 1331 1335
1832 9 1328 1329 1331 1336
1833 9 1328 1329 1331 1337
1834 9 1340 1341 1343 1347
1835 9 1340 1341 1343 1348
1836 9 1340 1341 1343 1349
1837 9 1352 1353 1355 1359
1838 9 1352 1353 1355 1360
1839 9 1352 1353 1355 1361
1840 9 1364 1365 1367 1371
1841 9 1364 1365 1367 1372
1842 9 1364 1365 1367 1373
1843 9 1376 1377 1379 1383
1844 9 1376 1377 1379 1384
1845 9 1376 1377 1379 1385
1846 9 1388 1389 1391 1395
1847 9 1388 1389 1391 1396
1848 9 1388 1389 1391 1397
1849 9 1400 1401 1403 1407
1850 9 1400 1401 1403 1408
1851 9 1400 1401 1403 1409
1852 9 1412 1413 1415 1419
1853 9 1412 1413 1415 1420
1854 9 1412 1413 1415 1421
1855 9 1424 1425 1427 1431
1856 9 1424 1425 1427 1432
1857 9 1424 1425 1427 1433
1858 9 1436 1437 1439 1443
1859 9 1436 1437 1439 1444
1860 9 1436 1437 1439 1445
1861 9 1448 1449 1451 1455
1862 9 1448 1449 1451 1456
1863 9 1448 1449 1451 1457
1864 9 1460 1461 1463 1467
1865 9 1460 1461 1463 1468
1866 9 1460 1461 1463 1469
1867 9 1472 1473 1475 1479
1868 9 1472 1473 1475 1480
1869 9 1472 1473 1475 1481
1870 9 1484 1485 1487 1491
1871 9 1484 1485 1487 1492
1872 9 1484 1485 1487 1493
1873 9 1496 1497 1499 1503
1874 9 1496 1497 1499 1504
1875 9 1496 1497 1499 1505
1876 9 1508 1509 1511 1515
1877 9 1508 1509 1511 1516
1878 9 1508 1509 1511 1517
1879 9 1520 1521 1523 1527
1880 9 1520 1521 1523 1528
1881 9 1520 1521 1523 1529
1882 9 1532 1533 1535 1539
1883 9 1532 1533 1535 1540
1884 9 1532 1533 1535 1541
1885 9 1544 1545 1547 1551
1886 9 1544 1545 1547 1552
1887 9 1544 1545 1547 1553
1888 9 1556 1557 1559 1563
1889 9 1556 1557 1559 1564
1890 9 1556 1557 1559 1565
1891 9 1568 1569 1571 1575
1892 9 1568 1569 1571 1576
1893 9 1568 1569 1571 1577
1894 9 1580 1581 1583 1587
1895 9 1580 1581 1583 1588
1896 9 1580 1581 1583 1589
1897 9 1592 1593 1595 1599
1898 9 1592 1593 1595 1600
1899 9 1592 1593 1595 1601
1900 9 1604 1605 1607 1611
1901 9 1604 1605 1607 1612
1902 9 1604 1605 1607 1613
1903 9 1616 1617 1619 1623
1904 9 1616 1617 1619 1624
1905 9 1616 1617 1619 1625
1906 9 1628 1629 1631 1635
1907 9 1628 1629 1631 1636
1908 9 1628 1629 1631 1637
1909 9 1640 1641 1643 1647
1910 9 1640 1641 1643 1648
1911 9 1640 1641 1643 1649
1912 9 1652 1653 1655 1659
1913 9 1652 1653 1655 1660
1914 9 1652 1653 1655 1661
1915 9 1664 1665 1667 1671
1916 9 1664 1665 1667 1672
1917 9 1664 1665 1667 1673
1918 9 1676 1677 1679 1683
1919 9 1676 1677 1679 1684
1920 9 1676 1677 1679 1685
1921 9 1688 1689 1691 1695
1922 9 1688 1689 1691 1696
1923 9 1688 1689 1691 1697
1924 9 1700 1701 1703 1707
1925 9 1700 1701 1703 1708
1926 9 1700 1701 1703 1709
1927 9 1712 1713 1715 1719
1928 9 1712 1713 1715 1720
1929 9 1712 1713 1715 1721
1930 9 1724 1725 1727 1731
1931 9 1724 1725 1727 1732
1932 9 1724 1725 1727 1733
1933 9 1736 1737 1739 1743
1934 9 1736 1737 1739 1744
1935 9 1736 1737 1739 1745
1936 9 1748 1749 1751 1755
1937 9 1748 1749 1751 1756
1938 9 1748 1749 1751 1757
1939 9 1760 1761 1763 1767
1940 9 1760 1761 1763 1768
1941 9 1760 1761 1763 1769
1942 9 1772 1773 1775 1779
1943 9 1772 1773 1775 1780
1944 9 1772 1773 1775 1781
1945 9 1784 1785 1787 1791
1946 9 1784 1785 1787 1792
1947 9 1784 1785 1787 1793
1948 9 1796 1797 1799 1804
1949 9 1796 1797 1799 1805
1950 9 1796 1797 1799 1806
1951 9 1809 1810 1812 1817
1952 9 1809 1810 1812 1818
1953 9 1809 1810 1812 1819
1954 9 1822 1823 1825 1829
1955 9 1822 1823 1825 1830
1956 9 1822 1823 1825 1831
1957 9 1834 1835 1837 1841
1958 9 1834 1835 1837 1842
1959 9 1834 1835 1837 1843
1960 9 1846 1847 1849 1853
1961 9 1846 1847 1849 1854
1962 9 1846 1847 1849 1855
1963 9 1858 1859 1861 1865
1964 9 1858 1859 1861 1866
1965 9 1858 1859 1861 1867
1966 9 1870 1871 1873 1877
1967 9 1870 1871 1873 1878
1968 9 1870 1871 1873 1879
1969 9 1882 1883 1885 1889
1970 9 1882 1883 1885 1890
1971 9 1882 1883 1885 1891
1972 9 1894 1895 1897 1901
1973 9 1894 1895 1897 1902
1974 9 1894 1895 1897 1903
1975 9 1906 1907 1909 1913
1976 9 1906 1907 1909 1914
1977 9 1906 1907 1909 1915
1978 9 1918 1919 1921 1925
1979 9 1918 1919 1921 1926
1980 9 1918 1919 1921 1927
1981 9 1930 1931 1933 1937
1982 9 1930 1931 1933 1938
1983 9 1930 1931 1933 1939
1984 9 1942 1943 1945 1949
1985 9 1942 1943 1945 1950
1986 9 1942 1943 1945 1951
1987 9 1954 1955 1957 1961
1988 9 1954 1955 1957 1962
1989 9 1954 1955 1957 1963
1990 9 1966 1967 1969 1973
1991 9 1966 1967 1969 1974
1992 9 1966 1967 1969 1975
1993 9 1978 1979 1981 1985
1994 9 1978 1979 1981 1986
1995 9 1978 1979 1981 1987
1996 9 1990 1991 1993 1997
1997 9 1990 1991 1993 1998
1998 9 1990 1991 1993 1999
1999 9 2002 2003 2005 2009
2000 9 2002 2003 2005 2010
2001 9 2002 2003 2005 2011
2002 9 2014 2015 2017 2021
2003 9 2014 2015 2017 2022
2004 9 2014 2015 2017 2023
2005 9 2026 2027 2029 2033
2006 9 2026 2027 2029 2034
2007 9 2026 2027 2029 2035
2008 9 2038 2039 2041 2045
2009 9 2038 2039 2041 2046
2010 9 2038 2039 2041 2047
2011 9 2050 2051 2053 2057
2012 9 2050 2051 2053 2058
2013 9 2050 2051 2053 2059
2014 9 2062 2063 2065 2069
2015 9 2062 2063 2065 2070
2016 9 2062 2063 2065 2071
2017 9 2074 2075 2077 2081
2018 9 2074 2075 2077 2082
2019 9 2074 2075 2077 2083
2020 9 2086 2087 2089 2093
2021 9 2086 2087 2089 2094
2022 9 2086 2087 2089 2095
2023 9 2098 2099 2101 2105
2024 9 2098 2099 2101 2106
2025 9 2098 2099 2101 2107
2026 9 2110 2111 2113 2117
2027 9 2110 2111 2113 2118
2028 9 2110 2111 2113 2119
2029 9 2122 2123 2125 2129
2030 9 2122 2123 2125 2130
2031 9 2122 2123 2125 2131
2032 9 2134 2135 2137 2141
2033 9 2134 2135 2137 2142
2034 9 2134 2135 2137 2143
2035 9 2146 2147 2149 2153
2036 9 2146 2147 2149 2154
2037 9 2146 2147 2149 2155
2038 9 2158 2159 2161 2165
2039 9 2158 2159 2161 2166
2040 9 2158 2159 2161 2167
2041 9 2170 2171 2173 2177
2042 9 2170 2171 2173 2178
2043 9 2170 2171 2173 2179
2044 9 2182 2183 2185 2189
2045 9 2182 2183 2185 2190
2046 9 2182 2183 2185 2191
2047 9 2194 2195 2197 2201
2048 9 2194 2195 2197 2202
2049 9 2194 2195 2197 2203
2050 9 2206 2207 2209 2213
2051 9 2206 2207 2209 2214
2052 9 2206 2207 2209 2215
2053 9 2218 2219 2221 2225
2054 9 2218 2219 2221 2226
2055 9 2218 2219 2221 2227
2056 9 2230 2231 2233 2237
2057 9 2230 2231 2233 2238
2058 9 2230 2231 2233 2239
2059 9 2242 2243 2245 2249
2060 9 2242 2243 2245 2250
2061 9 2242 2243 2245 2251
2062 9 2254 2255 2257 2261
2063 9 2254 2255 2257 2262
2064 9 2254 2255 2257 2263
2065 9 2266 2267 2269 2273
2066 9 2266 2267 2269 2274
2067 9 2266 2267 2269 2275
2068 9 2278 2279 2281 2285
2069 9 2278 2279 2281 2286
2070 9 2278 2279 2281 2287
2071 9 2290 2291 2293 2297
2072 9 2290 2291 2293 2298
2073 9 2290 2291 2293 2299
2074 9 2302 2303 2305 2309
2075 9 2302 2303 2305 2310
2076 9 2302 2303 2305 2311
2077 9 2314 2315 2317 2321
2078 9 2314 2315 2317 2322
2079 9 2314 2315 2317 2323
2080 9 2326 2327 2329 2333
2081 9 2326 2327 2329 2334
2082 9 2326 2327 2329 2335
2083 9 2338 2339 2341 2345
2084 9 2338 2339 2341 2346
2085 9 2338 2339 2341 2347
2086 9 2350 2351 2353 2357
2087 9 2350 2351 2353 2358
2088 9 2350 2351 2353 2359
2089 9 2362 2363 2365 2369
2090 9 2362 2363 2365 2370
2091 9 2362 2363 2365 2371
2092 9 2374 2375 2377 2381
2093 9 2374 2375 2377 2382
2094 9 2374 2375 2377 2383
2095 9 2386 2387 2389 2393
2096 9 2386 2387 2389 2394
2097 9 2386 2387 2389 2395
2098 9 2398 2399 2401 2406
2099 9 2398 2399 2401 2407
2100 9 2398 2399 2401 2408
2101 9 2411 2412 2414 2419
2102 9 2411 2412 2414 2420
2103 9 2411 2412 2414 2421
2104 9 2424 2425 2427 2431
2105 9 2424 2425 2427 2432
2106 9 2424 2425 2427 2433
2107 9 2436 2437 2439 2443
2108 9 2436 2437 2439 2444
2109 9 2436 2437 2439 2445
2110 9 2448 2449 2451 2455
2111 9 2448 2449 2451 2456
2112 9 2448 2449 2451 2457
2113 9 2460 2461 2463 2467
2114 9 2460 2461 2463 2468
2115 9 2460 2461 2463 2469
2116 9 2472 2473 2475 2479
2117 9 2472 2473 2475 2480
2118 9 2472 2473 2475 2481
2119 9 2484 2485 2487 2491
2120 9 2484 2485 2487 2492
2121 9 2484 2485 2487 2493
2122 9 2496 2497 2499 2503
2123 9 2496 2497 2499 2504
2124 9 2496 2497 2499 2505
2125 9 2508 2509 2511 2515
2126 9 2508 2509 2511 2516
2127 9 2508 2509 2511 2517
2128 9 2520 2521 2523 2527
2129 9 2520 2521 2523 2528
2130 9 2520 2521 2523 2529
2131 9 2532 2533 2535 2539
2132 9 2532 2533 2535 2540
2133 9 2532 2533 2535 2541
2134 9 2544 2545 2547 2551
2135 9 2544 2545 2547 2552
2136 9 2544 2545 2547 2553
2137 9 2556 2557 2559 2563
2138 9 2556 2557 2559 2564
2139 9 2556 2557 2559 2565
2140 9 2568 2569 2571 2575
2141 9 2568 2569 2571 2576
2142 9 2568 2569 2571 2577
2143 9 2580 2581 2583 2587
2144 9 2580 2581 2583 2588
2145 9 2580 2581 2583 2589
2146 9 2592 2593 2595 2599
2147 9 2592 2593 2595 2600
2148 9 2592 2593 2595 2601
2149 9 2604 2605 2607 2611
2150 9 2604 2605 2607 2612
2151 9 2604 2605 2607 2613
2152 9 2616 2617 2619 2623
2153 9 2616 2617 2619 2624
2154 9 2616 2617 2619 2625
2155 9 2628 2629 2631 2635
2156 9 2628 2629 2631 2636
2157 9 2628 2629 2631 2637
2158 9 2640 2641 2643 2647
2159 9 2640 2641 2643 2648
2160 9 2640 2641 2643 2649
2161 9 2652 2653 2655 2659
2162 9 2652 2653 2655 2660
2163 9 2652 2653 2655 2661
2164 9 2664 2665 2667 2671
2165 9 2664 2665 2667 2672
2166 9 2664 2665 2667 2673
2167 9 2676 2677 2679 2683
2168 9 2676 2677 2679 2684
2169 9 2676 2677 2679 2685
2170 9 2688 2689 2691 2695
2171 9 2688 2689 2691 2696
2172 9 2688 2689 2691 2697
2173 9 2700 2701 2703 2707
2174 9 2700 2701 2703 2708
2175 9 2700 2701 2703 2709
2176 9 2712 2713 2715 2719
2177 9 2712 2713 2715 2720
2178 9 2712 2713 2715 2721
2179 9 2724 2725 2727 2731
2180 9 2724 2725 2727 2732
2181 9 2724 2725 2727 2733
2182 9 2736 2737 2739 2743
2183 9 2736 2737 2739 2744
2184 9 2736 2737 2739 2745
2185 9 2748 2749 2751 2755
2186 9 2748 2749 2751 2756
2187 9 2748 2749 2751 2757
2188 9 2760 2761 2763 2767
2189 9 2760 2761 2763 2768
2190 9 2760 2761 2763 2769
2191 9 2772 2773 2775 2779
2192 9 2772 2773 2775 2780
2193 9 2772 2773 2775 2781
2194 9 2784 2785 2787 2791
2195 9 2784 2785 2787 2792
2196 9 2784 2785 2787 2793
2197 9 2796 2797 2799 2803
2198 9 2796 2797 2799 2804
2199 9 2796 2797 2799 2805
2200 9 2808 2809 2811 2815
2201 9 2808 2809 2811 2816
2202 9 2808 2809 2811 2817
2203 9 2820 2821 2823 2827
2204 9 2820 2821 2823 2828
2205 9 2820 2821 2823 2829
2206 9 2832 2833 2835 2839
2207 9 2832 2833 2835 2840
2208 9 2832 2833 2835 2841
2209 9 2844 2845 2847 2851
2210 9 2844 2845 2847 2852
2211 9 2844 2845 2847 2853
2212 9 2856 2857 2859 2863
2213 9 2856 2857 2859 2864
2214 9 2856 2857 2859 2865
2215 9 2868 2869 2871 2875
2216 9 2868 2869 2871 2876
2217 9 2868 2869 2871 2877
2218 9 2880 2881 2883 2887
2219 9 2880 2881 2883 2888
2220 9 2880 2881 2883 2889
2221 9 2892 2893 2895 2899
2222 9 2892 2893 2895 2900
2223 9 2892 2893 2895 2901
2224 9 2904 2905 2907 2911
2225 9 2904 2905 2907 2912
2226 9 2904 2905 2907 2913
2227 9 2916 2917 2919 2923
2228 9 2916 2917 2919 2924
2229 9 2916 2917 2919 2925
2230 9 2928 2929 2931 2935
2231 9 2928 2929 2931 2936
2232 9 2928 2929 2931 2937
2233 9 2940 2941 2943 2947
2234 9 2940 2941 2943 2948
2235 9 2940 2941 2943 2949
2236 9 2952 2953 2955 2959
2237 9 2952 2953 2955 2960
2238 9 2952 2953 2955 2961
2239 9 2964 2965 2967 2971
2240 9 2964 2965 2967 2972
2241 9 2964 2965 2967 2973
2242 9 2976 2977 2979 2983
2243 9 2976 2977 2979 2984
2244 9 2976 2977 2979 2985
2245 9 2988 2989 2991 2995
2246 9 2988 2989 2991 2996
2247 9 2988 2989 2991 2997
2248 9 3000 3001 3003 3008
2249 9 3000 3001 3003 3009
2250 9 3000 3001 3003 3010
2251 9 3013 3014 3016 3021
2252 9 3013 3014 3016 3022
2253 9 3013 3014 3016 3023
2254 9 3026 3027 3029 3033
2255 9 3026 3027 3029 3034
2256 9 3026 3027 3029 3035
2257 9 3038 3039 3041 3045
2258 9 3038 3039 3041 3046
2259 9 3038 3039 3041 3047
2260 9 3050 3051 3053 3057
2261 9 3050 3051 3053 3058
2262 9 3050 3051 3053 3059
2263 9 3062 3063 3065 3069
2264 9 3062 3063 3065 3070
2265 9 3062 3063 3065 3071
2266 9 3074 3075 3077 3081
2267 9 3074 3075 3077 3082
2268 9 3074 3075 3077 3083
2269 9 3086 3087 3089 3093
2270 9 3086 3087 3089 3094
2271 9 3086 3087 3089 3095
2272 9 3098 3099 3101 3105
2273 9 3098 3099 3101 3106
2274 9 3098 3099 3101 3107
2275 9 3110 3111 3113 3117
2276 9 3110 3111 3113 3118
2277 9 3110 3111 3113 3119
2278 9 3122 3123 3125 3129
2279 9 3122 3123 3125 3130
2280 9 3122 3123 3125 3131
2281 9 3134 3135 3137 3141
2282 9 3134 3135 3137 3142
2283 9 3134 3135 3137 3143
2284 9 3146 3147 3149 3153
2285 9 3146 3147 3149 3154
2286 9 3146 3147 3149 3155
2287 9 3158 3159 3161 3165
2288 9 3158 3159 3161 3166
2289 9 3158 3159 3161 3167
2290 9 3170 3171 3173 3177
2291 9 3170 3171 3173 3178
2292 9 3170 3171 3173 3179
2293 9 3182 3183 3185 3189
2294 9 3182 3183 3185 3190
2295 9 3182 3183 3185 3191
2296 9 3194 3195 3197 3201
2297 9 3194 3195 3197 3202
2298 9 3194 3195 3197 3203
2299 9 3206 3207 3209 3213
2300 9 3206 3207 3209 3214
2301 9 3206 3207 3209 3215
2302 9 3218 3219 3221 3225
2303 9 3218 3219 3221 3226
2304 9 3218 3219 3221 3227
2305 9 3230 3231 3233 3237
2306 9 3230 3231 3233 3238
2307 9 3230 3231 3233 3239
2308 9 3242 3243 3245 3249
2309 9 3242 3243 3245 3250
2310 9 3242 3243 3245 3251
2311 9 3254 3255 3257 3261
2312 9 3254 3255 3257 3262
2313 9 3254 3255 3257 3263
2314 9 3266 3267 3269 3273
2315 9 3266 3267 3269 3274
2316 9 3266 3267 3269 3275
2317 9 3278 3279 3281 3285
2318 9 3278 3279 3281 3286
2319 9 3278 3279 3281 3287
2320 9 3290 3291 3293 3297
2321 9 3290 3291 3293 3298
2322 9 3290 3291 3293 3299
2323 9 3302 3303 3305 3309
2324 9 3302 3303 3305 3310
2325 9 3302 3303 3305 3311
2326 9 3314 3315 3317 3321
2327 9 3314 3315 3317 3322
2328 9 3314 3315 3317 3323
2329 9 3326 3327 3329 3333
2330 9 3326 3327 3329 3334
2331 9 3326 3327 3329 3335
2332 9 3338 3339 3341 3345
2333 9 3338 3339 3341 3346
2334 9 3338 3339 3341 3347
2335 9 3350 3351 3353 3357
2336 9 3350 3351 3353 3358
2337 9 3350 3351 3353 3359
2338 9 3362 3363 3365 3369
2339 9 3362 3363 3365 3370
2340 9 3362 3363 3365 3371
2341 9 3374 3375 3377 3381
2342 9 3374 3375 3377 3382
2343 9 3374 3375 3377 3383
2344 9 3386 3387 3389 3393
2345 9 3386 3387 3389 3394
2346 9 3386 3387 3389 3395
2347 9 3398 3399 3401 3405
2348 9 3398 3399 3401 3406
2349 9 3398 3399 3401 3407
2350 9 3410 3411 3413 3417
2351 9 3410 3411 3413 3418
2352 9 3410 3411 3413 3419
2353 9 3422 3423 3425 3429
2354 9 3422 3423 3425 3430
2355 9 3422 3423 3425 3431
2356 9 3434 3435 3437 3441
2357 9 3434 3435 3437 3442
2358 9 3434 3435 3437 3443
2359 9 3446 3447 3449 3453
2360 9 3446 3447 3449 3454
2361 9 3446 3447 3449 3455
2362 9 3458 3459 3461 3465
2363 9 3458 3459 3461 3466
2364 9 3458 3459 3461 3467
2365 9 3470 3471 3473 3477
2366 9 3470 3471 3473 3478
2367 9 3470 3471 3473 3479
2368 9 3482 3483 3485 3489
2369 9 3482 3483 3485 3490
2370 9 3482 3483 3485 3491
2371 9 3494 3495 3497 3501
2372 9 3494 3495 3497 3502
2373 9 3494 3495 3497 3503
2374 9 3506 3507 3509 3513
2375 9 3506 3507 3509 3514
2376 9 3506 3507 3509 3515
2377 9 3518 3519 3521 3525
2378 9 3518 3519 3521 3526
2379 9 3518 3519 3521 3527
2380 9 3530 3531 3533 3537
2381 9 3530 3531 3533 3538
2382 9 3530 3531 3533 3539
2383 9 3542 3543 3545 3549
2384 9 3542 3543 3545 3550
2385 9 3542 3543 3545 3551
2386 9 3554 3555 3557 3561
2387 9 3554 3555 3557 3562
2388 9 3554 3555 3557 3563
2389 9 3566 3567 3569 3573
2390 9 3566 3567 3569 3574
2391 9 3566 3567 3569 3575
2392 9 3578 3579 3581 3585
2393 9 3578 3579 3581 3586
2394 9 3578 3579 3581 3587
2395 9 3590 3591 3593 3597
2396 9 3590 3591 3593 3598
2397 9 3590 3591 3593 3599
2398 9 3602 3603 3605 3610
2399 9 3602 3603 3605 3611
2400 9 3602 3603 3605 3612
2401 9 3615 3616 3618 3623
2402 9 3615 3616 3618 3624
2403 9 3615 3616 3618 3625
2404 9 3628 3629 3631 3635
2405 9 3628 3629 3631 3636
2406 9 3628 3629 3631 3637
2407 9 3640 3641 3643 3647
2408 9 3640 3641 3643 3648
2409 9 3640 3641 3643 3649
2410 9 3652 3653 3655 3659
2411 9 3652 3653 3655 3660
2412 9 3652 3653 3655 3661
2413 9 3664 3665 3667 3671
2414 9 3664 3665 3667 3672
2415 9 3664 3665 3667 3673
2416 9 3676 3677 3679 3683
2417 9 3676 3677 3679 3684
2418 9 3676 3677 3679 3685
2419 9 3688 3689 3691 3695
2420 9 3688 3689 3691 3696
2421 9 3688 3689 3691 3697
2422 9 3700 3701 3703 3707
2423 9 3700 3701 3703 3708
2424 9 3700 3701 3703 3709
2425 9 3712 3713 3715 3719
2426 9 3712 3713 3715 3720
2427 9 3712 3713 3715 3721
2428 9 3724 3725 3727 3731
2429 9 3724 3725 3727 3732
2430 9 3724 3725 3727 3733
2431 9 3736 3737 3739 3743
2432 9 3736 3737 3739 3744
2433 9 3736 3737 3739 3745
2434 9 3748 3749 3751 3755
2435 9 3748 3749 3751 3756
2436 9 3748 3749 3751 3757
2437 9 3760 3761 3763 3767
2438 9 3760 3761 3763 3768
2439 9 3760 3761 3763 3769
2440 9 3772 3773 3775 3779
2441 9 3772 3773 3775 3780
2442 9 3772 3773 3775 3781
2443 9 3784 3785 3787 3791
2444 9 3784 3785 3787 3792
2445 9 3784 3785 3787 3793
2446 9 3796 3797 3799 3803
2447 9 3796 3797 3799 3804
2448 9 3796 3797 3799 3805
2449 9 3808 3809 3811 3815
2450 9 3808 3809 3811 3816
2451 9 3808 3809 3811 3817
2452 9 3820 3821 3823 3827
2453 9 3820 3821 3823 3828
2454 9 3820 3821 3823 3829
2455 9 3832 3833 3835 3839
2456 9 3832 3833 3835 3840
2457 9 3832 3833 3835 3841
2458 9 3844 3845 3847 3851
2459 9 3844 3845 3847 3852
2460 9 3844 3845 3847 3853
2461 9 3856 3857 3859 3863
2462 9 3856 3857 3859 3864
2463 9 3856 3857 3859 3865
2464 9 3868 3869 3871 3875
2465 9 3868 3869 3871 3876
2466 9 3868 3869 3871 3877
2467 9 3880 3881 3883 3887
2468 9 3880 3881 3883 3888
2469 9 3880 3881 3883 3889
2470 9 3892 3893 3895 3899
2471 9 3892 3893 3895 3900
2472 9 3892 3893 3895 3901
2473 9 3904 3905 3907 3911
2474 9 3904 3905 3907 3912
2475 9 3904 3905 3907 3913
2476 9 3916 3917 3919 3923
2477 9 3916 3917 3919 3924
2478 9 3916 3917 3919 3925
2479 9 3928 3929 3931 3935
2480 9 3928 3929 3931 3936
2481 9 3928 3929 3931 3937
2482 9 3940 3941 3943 3947
2483 9 3940 3941 3943 3948
2484 9 3940 3941 3943 3949
2485 9 3952 3953 3955 3959
2486 9 3952 3953 3955 3960
2487 9 3952 3953 3955 3961
2488 9 3964 3965 3967 3971
2489 9 3964 3965 3967 3972
2490 9 3964 3965 3967 3973
2491 9 3976 3977 3979 3983
2492 9 3976 3977 3979 3984
2493 9 3976 3977 3979 3985
2494 9 3988 3989 3991 3995
2495 9 3988 3989 3991 3996
2496 9 3988 3989 3991 3997
2497 9 4000 4001 4003 4007
2498 9 4000 4001 4003 4008
2499 9 4000 4001 4003 4009
2500 9 4012 4013 4015 4019
2501 9 4012 4013 4015 4020
2502 9 4012 4013 4015 4021
2503 9 4024 4025 4027 4031
2504 9 4024 4025 4027 4032
2505 9 4024 4025 4027 4033
2506 9 4036 4037 4039 4043
2507 9 4036 4037 4039 4044
2508 9 4036 4037 4039 4045
2509 9 4048 4049 4051 4055
2510 9 4048 4049 4051 4056
2511 9 4048 4049 4051 4057
2512 9 4060 4061 4063 4067
2513 9 4060 4061 4063 4068
2514 9 4060 4061 4063 4069
2515 9 4072 4073 4075 4079
2516 9 4072 4073 4075 4080
2517 9 4072 4073 4075 4081
2518 9 4084 4085 4087 4091
2519 9 4084 4085 4087 4092
2520 9 4084 4085 4087 4093
2521 9 4096 4097 4099 4103
2522 9 4096 4097 4099 4104
2523 9 4096 4097 4099 4105
2524 9 4108 4109 4111 4115
2525 9 4108 4109 4111 4116
2526 9 4108 4109 4111 4117
2527 9 4120 4121 4123 4127
2528 9 4120 4121 4123 4128
2529 9 4120 4121 4123 4129
2530 9 4132 4133 4135 4139
2531 9 4132 4133 4135 4140
2532 9 4132 4133 4135 4141
2533 9 4144 4145 4147 4151
2534 9 4144 4145 4147 4152
2535 9 4144 4145 4147 4153
2536 9 4156 4157 4159 4163
2537 9 4156 4157 4159 4164
2538 9 4156 4157 4159 4165
2539 9 4168 4169 4171 4175
2540 9 4168 4169 4171 4176
2541 9 4168 4169 4171 4177
2542 9 4180 4181 4183 4187
2543 9 4180 4181 4183 4188
2544 9 4180 4181 4183 4189
2545 9 4192 4193 4195 4199
2546 9 4192 4193 4195 4200
2547 9 4192 4193 4195 4201
2548 9 4204 4205 4207 4212
2549 9 4204 4205 4207 4213
2550 9 4204 4205 4207 4214
2551 9 4217 4218 4220 4225
2552 9 4217 4218 4220 4226
2553 9 4217 4218 4220 4227
2554 9 4230 4231 4233 4237
2555 9 4230 4231 4233 4238
2556 9 4230 4231 4233 4239
2557 9 4242 4243 4245 4249
2558 9 4242 4243 4245 4250
2559 9 4242 4243 4245 4251
2560 9 4254 4255 4257 4261
2561 9 4254 4255 4257 4262
2562 9 4254 4255 4257 4263
2563 9 4266 4267 4269 4273
2564 9 4266 4267 4269 4274
2565 9 4266 4267 4269 4275
2566 9 4278 4279 4281 4285
2567 9 4278 4279 4281 4286
2568 9 4278 4279 4281 4287
2569 9 4290 4291 4293 4297
2570 9 4290 4291 4293 4298
2571 9 4290 4291 4293 4299
2572 9 4302 4303 4305 4309
2573 9 4302 4303 4305 4310
2574 9 4302 4303 4305 4311
2575 9 4314 4315 4317 4321
2576 9 4314 4315 4317 4322
2577 9 4314 4315 4317 4323
2578 9 4326 4327 4329 4333
2579 9 4326 4327 4329 4334
2580 9 4326 4327 4329 4335
2581 9 4338 4339 4341 4345
2582 9 4338 4339 4341 4346
2583 9 4338 4339 4341 4347
2584 9 4350 4351 4353 4357
2585 9 4350 4351 4353 4358
2586 9 4350 4351 4353 4359
2587 9 4362 4363 4365 4369
2588 9 4362 4363 4365 4370
2589 9 4362 4363 4365 4371
2590 9 4374 4375 4377 4381
2591 9 4374 4375 4377 4382
2592 9 4374 4375 4377 4383
2593 9 4386 4387 4389 4393
2594 9 4386 4387 4389 4394
2595 9 4386 4387 4389 4395
2596 9 4398 4399 4401 4405
2597 9 4398 4399 4401 4406
2598 9 4398 4399 4401 4407
2599 9 4410 4411 4413 4417
2600 9 4410 4411 4413 4418
2601 9 4410 4411 4413 4419
2602 9 4422 4423 4425 4429
2603 9 4422 4423 4425 4430
2604 9 4422 4423 4425 4431
2605 9 4434 4435 4437 4441
2606 9 4434 4435 4437 4442
2607 9 4434 4435 4437 4443
2608 9 4446 4447 4449 4453
2609 9 4446 4447 4449 4454
2610 9 4446 4447 4449 4455
2611 9 4458 4459 4461 4465
2612 9 4458 4459 4461 4466
2613 9 4458 4459 4461 4467
2614 9 4470 4471 4473 4477
2615 9 4470 4471 4473 4478
2616 9 4470 4471 4473 4479
2617 9 4482 4483 4485 4489
2618 9 4482 4483 4485 4490
2619 9 4482 4483 4485 4491
2620 9 4494 4495 4497 4501
2621 9 4494 4495 4497 4502
2622 9 4494 4495 4497 4503
2623 9 4506 4507 4509 4513
2624 9 4506 4507 4509 4514
2625 9 4506 4507 4509 4515
2626 9 4518 4519 4521 4525
2627 9 4518 4519 4521 4526
2628 9 4518 4519 4521 4527
2629 9 4530 4531 4533 4537
2630 9 4530 4531 4533 4538
2631 9 4530 4531 4533 4539
2632 9 4542 4543 4545 4549
2633 9 4542 4543 4545 4550
2634 9 4542 4543 4545 4551
2635 9 4554 4555 4557 4561
2636 9 4554 4555 4557 4562
2637 9 4554 4555 4557 4563
2638 9 4566 4567 4569 4573
2639 9 4566 4567 4569 4574
2640 9 4566 4567 4569 4575
2641 9 4578 4579 4581 4585
2642 9 4578 4579 4581 4586
2643 9 4578 4579 4581 4587
2644 9 4590 4591 4593 4597
2645 9 4590 4591 4593 4598
2646 9 4590 4591 4593 4599
2647 9 4602 4603 4605 4609
2648 9 4602 4603 4605 4610
2649 9 4602 4603 4605 4611
2650 9 4614 4615 4617 4621
2651 9 4614 4615 4617 4622
2652 9 4614 4615 4617 4623
2653 9 4626 4627 4629 4633
2654 9 4626 4627 4629 4634
2655 9 4626 4627 4629 4635
2656 9 4638 4639 4641 4645
2657 9 4638 4639 4641 4646
2658 9 4638 4639 4641 4647
2659 9 4650 4651 4653 4657
2660 9 4650 4651 4653 4658
2661 9 4650 4651 4653 4659
2662 9 4662 4663 4665 4669
2663 9 4662 4663 4665 4670
2664 9 4662 4663 4665 4671
2665 9 4674 4675 4677 4681
2666 9 4674 4675 4677 4682
2667 9 4674 4675 4677 4683
2668 9 4686 4687 4689 4693
2669 9 4686 4687 4689 4694
2670 9 4686 4687 4689 4695
2671 9 4698 4699 4701 4705
2672 9 4698 4699 4701 4706
2673 9 4698 4699 4701 4707
2674 9 4710 4711 4713 4717
2675 9 4710 4711 4713 4718
2676 9 4710 4711 4713 4719
2677 9 4722 4723 4725 4729
2678 9 4722 4723 4725 4730
2679 9 4722 4723 4725 4731
2680 9 4734 4735 4737 4741
2681 9 4734 4735 4737 4742
2682 9 4734 4735 4737 4743
2683 9 4746 4747 4749 4753
2684 9 4746 4747 4749 4754
2685 9 4746 4747 4749 4755
2686 9 4758 4759 4761 4765
2687 9 4758 4759 4761 4766
2688 9 4758 4759 4761 4767
2689 9 4770 4771 4773 4777
2690 9 4770 4771 4773 4778
2691 9 4770 4771 4773 4779
2692 9 4782 4783 4785 4789
2693 9 4782 4783 4785 4790
2694 9 4782 4783 4785 4791
2695 9 4794 4795 4797 4801
2696 9 4794 4795 4797 4802
2697 9 4794 4795 4797 4803
2698 9 4806 4807 4809 4814
2699 9 4806 4807 4809 4815
2700 9 4806 4807 4809 4816
2701 9 4819 4820 4822 4827
2702 9 4819 4820 4822 4828
2703 9 4819 4820 4822 4829
2704 9 4832 4833 4835 4839
2705 9 4832 4833 4835 4840
2706 9 4832 4833 4835 4841
2707 9 4844 4845 4847 4851
2708 9 4844 4845 4847 4852
2709 9 4844 4845 4847 4853
2710 9 4856 4857 4859 4863
2711 9 4856 4857 4859 4864
2712 9 4856 4857 4859 4865
2713 9 4868 4869 4871 4875
2714 9 4868 4869 4871 4876
2715 9 4868 4869 4871 4877
2716 9 4880 4881 4883 4887
2717 9 4880 4881 4883 4888
2718 9 4880 4881 4883 4889
2719 9 4892 4893 4895 4899
2720 9 4892 4893 4895 4900
2721 9 4892 4893 4895 4901
2722 9 4904 4905 4907 4911
2723 9 4904 4905 4907 4912
2724 9 4904 4905 4907 4913
2725 9 4916 4917 4919 4923
2726 9 4916 4917 4919 4924
2727 9 4916 4917 4919 4925
2728 9 4928 4929 4931 4935
2729 9 4928 4929 4931 4936
2730 9 4928 4929 4931 4937
2731 9 4940 4941 4943 4947
2732 9 4940 4941 4943 4948
2733 9 4940 4941 4943 4949
2734 9 4952 4953 4955 4959
2735 9 4952 4953 4955 4960
2736 9 4952 4953 4955 4961
2737 9 4964 4965 4967 4971
2738 9 4964 4965 4967 4972
2739 9 4964 4965 4967 4973
2740 9 4976 4977 4979 4983
2741 9 4976 4977 4979 4984
2742 9 4976 4977 4979 4985
2743 9 4988 4989 4991 4995
2744 9 4988 4989 4991 4996
2745 9 4988 4989 4991 4997
2746 9 5000 5001 5003 5007
2747 9 5000 5001 5003 5008
2748 9 5000 5001 5003 5009
2749 9 5012 5013 5015 5019
2750 9 5012 5013 5015 5020
2751 9 5012 5013 5015 5021
2752 9 5024 5025 5027 5031
2753 9 5024 5025 5027 5032
2754 9 5024 5025 5027 5033
2755 9 5036 5037 5039 5043
2756 9 5036 5037 5039 5044
2757 9 5036 5037 5039 5045
2758 9 5048 5049 5051 5055
2759 9 5048 5049 5051 5056
2760 9 5048 5049 5051 5057
2761 9 5060 5061 5063 5067
2762 9 5060 5061 5063 5068
2763 9 5060 5061 5063 5069
2764 9 5072 5073 5075 5079
2765 9 5072 5073 5075 5080
2766 9 5072 5073 5075 5081
2767 9 5084 5085 5087 5091
2768 9 5084 5085 5087 5092
2769 9 5084 5085 5087 5093
2770 9 5096 5097 5099 5103
2771 9 5096 5097 5099 5104
2772 9 5096 5097 5099 5105
2773 9 5108 5109 5111 5115
2774 9 5108 5109 5111 5116
2775 9 5108 5109 5111 5117
2776 9 5120 5121 5123 5127
2777 9 5120 5121 5123 5128
2778 9 5120 5121 5123 5129
2779 9 5132 5133 5135 5139
2780 9 5132 5133 5135 5140
2781 9 5132 5133 5135 5141
2782 9 5144 5145 5147 5151
2783 9 5144 5145 5147 5152
2784 9 5144 5145 5147 5153
2785 9 5156 5157 5159 5163
2786 9 5156 5157 5159 5164
2787 9 5156 5157 5159 5165
2788 9 5168 5169 5171 5175
2789 9 5168 5169 5171 5176
2790 9 5168 5169 5171 5177
2791 9 5180 5181 5183 5187
2792 9 5180 5181 5183 5188
2793 9 5180 5181 5183 5189
2794 9 5192 5193 5195 5199
2795 9 5192 5193 5195 5200
2796 9 5192 5193 5195 5201
2797 9 5204 5205 5207 5211
2798 9 5204 5205 5207 5212
2799 9 5204 5205 5207 5213
2800 9 5216 5217 5219 5223
2801 9 5216 5217 5219 5224
2802 9 5216 5217 5219 5225
2803 9 5228 5229 5231 5235
2804 9 5228 5229 5231 5236
2805 9 5228 5229 5231 5237
2806 9 5240 5241 5243 5247
2807 9 5240 5241 5243 5248
2808 9 5240 5241 5243 5249
2809 9 5252 5253 5255 5259
2810 9 5252 5253 5255 5260
2811 9 5252 5253 5255 5261
2812 9 5264 5265 5267 5271
2813 9 5264 5265 5267 5272
2814 9 5264 5265 5267 5273
2815 9 5276 5277 5279 5283
2816 9 5276 5277 5279 5284
2817 9 5276 5277 5279 5285
2818 9 5288 5289 5291 5295
2819 9 5288 5289 5291 5296
2820 9 5288 5289 5291 5297
2821 9 5300 5301 5303 5307
2822 9 5300 5301 5303 5308
2823 9 5300 5301 5303 5309
2824 9 5312 5313 5315 5319
2825 9 5312 5313 5315 5320
2826 9 5312 5313 5315 5321
2827 9 5324 5325 5327 5331
2828 9 5324 5325 5327 5332
2829 9 5324 5325 5327 5333
2830 9 5336 5337 5339 5343
2831 9 5336 5337 5339 5344
2832 9 5336 5337 5339 5345
2833 9 5348 5349 5351 5355
2834 9 5348 5349 5351 5356
2835 9 5348 5349 5351 5357
2836 9 5360 5361 5363 5367
2837 9 5360 5361 5363 5368
2838 9 5360 5361 5363 5369
2839 9 5372 5373 5375 5379
2840 9 5372 5373 5375 5380
2841 9 5372 5373 5375 5381
2842 9 5384 5385 5387 5391
2843 9 5384 5385 5387 5392
2844 9 5384 5385 5387 5393
2845 9 5396 5397 5399 5403
2846 9 5396 5397 5399 5404
2847 9 5396 5397 5399 5405
2848 9 5408 5409 5411 5416
2849 9 5408 5409 5411 5417
2850 9 5408 5409 5411 5418
2851 9 5421 5422 5424 5429
2852 9 5421 5422 5424 5430
2853 9 5421 5422 5424 5431
2854 9 5434 5435 5437 5441
2855 9 5434 5435 5437 5442
2856 9 5434 5435 5437 5443
2857 9 5446 5447 5449 5453
2858 9 5446 5447 5449 5454
2859 9 5446 5447 5449 5455
2860 9 5458 5459 5461 5465
2861 9 5458 5459 5461 5466
2862 9 5458 5459 5461 5467
2863 9 5470 5471 5473 5477
2864 9 5470 5471 5473 5478
2865 9 5470 5471 5473 5479
2866 9 5482 5483 5485 5489
2867 9 5482 5483 5485 5490
2868 9 5482 5483 5485 5491
2869 9 5494 5495 5497 5501
2870 9 5494 5495 5497 5502
2871 9 5494 5495 5497 5503
2872 9 5506 5507 5509 5513
2873 9 5506 5507 5509 5514
2874 9 5506 5507 5509 5515
2875 9 5518 5519 5521 5525
2876 9 5518 5519 5521 5526
2877 9 5518 5519 5521 5527
2878 9 5530 5531 5533 5537
2879 9 5530 5531 5533 5538
2880 9 5530 5531 5533 5539
2881 9 5542 5543 5545 5549
2882 9 5542 5543 5545 5550
2883 9 5542 5543 5545 5551
2884 9 5554 5555 5557 5561
2885 9 5554 5555 5557 5562
2886 9 5554 5555 5557 5563
2887 9 5566 5567 5569 5573
2888 9 5566 5567 5569 5574
2889 9 5566 5567 5569 5575
2890 9 5578 5579 5581 5585
2891 9 5578 5579 5581 5586
2892 9 5578 5579 5581 5587
2893 9 5590 5591 5593 5597
2894 9 5590 5591 5593 5598
2895 9 5590 5591 5593 5599
2896 9 5602 5603 5605 5609
2897 9 5602 5603 5605 5610
2898 9 5602 5603 5605 5611
2899 9 5614 5615 5617 5621
2900 9 5614 5615 5617 5622
2901 9 5614 5615 5617 5623
2902 9 5626 5627 5629 5633
2903 9 5626 5627 5629 5634
2904 9 5626 5627 5629 5635
2905 9 5638 5639 5641 5645
2906 9 5638 5639 5641 5646
2907 9 5638 5639 5641 5647
2908 9 5650 5651 5653 5657
2909 9 5650 5651 5653 5658
2910 9 5650 5651 5653 5659
2911 9 5662 5663 5665 5669
2912 9 5662 5663 5665 5670
2913 9 5662 5663 5665 5671
2914 9 5674 5675 5677 5681
2915 9 5674 5675 5677 5682
2916 9 5674 5675 5677 5683
2917 9 5686 5687 5689 5693
2918 9 5686 5687 5689 5694
2919 9 5686 5687 5689 5695
2920 9 5698 5699 5701 5705
2921 9 5698 5699 5701 5706
2922 9 5698 5699 5701 5707
2923 9 5710 5711 5713 5717
2924 9 5710 5711 5713 5718
2925 9 5710 5711 5713 5719
2926 9 5722 5723 5725 5729
2927 9 5722 5723 5725 5730
2928 9 5722 5723 5725 5731
2929 9 5734 5735 5737 5741
2930 9 5734 5735 5737 5742
2931 9 5734 5735 5737 5743
2932 9 5746 5747 5749 5753
2933 9 5746 5747 5749 5754
2934 9 5746 5747 5749 5755
2935 9 5758 5759 5761 5765
2936 9 5758 5759 5761 5766
2937 9 5758 5759 5761 5767
2938 9 5770 5771 5773 5777
2939 9 5770 5771 5773 5778
2940 9 5770 5771 5773 5779
2941 9 5782 5783 5785 5789
2942 9 5782 5783 5785 5790
2943 9 5782 5783 5785 5791
2944 9 5794 5795 5797 5801
2945 9 5794 5795 5797 5802
2946 9 5794 5795 5797 5803
2947 9 5806 5807 5809 5813
2948 9 5806 5807 5809 5814
2949 9 5806 5807 5809 5815
2950 9 5818 5819 5821 5825
2951 9 5818 5819 5821 5826
2952 9 5818 5819 5821 5827
2953 9 5830 5831 5833 5837
2954 9 5830 5831 5833 5838
2955 9 5830 5831 5833 5839
2956 9 5842 5843 5845 5849
2957 9 5842 5843 5845 5850
2958 9 5842 5843 5845 5851
2959 9 5854 5855 5857 5861
2960 9 5854 5855 5857 5862
2961 9 5854 5855 5857 5863
2962 9 5866 5867 5869 5873
2963 9 5866 5867 5869 5874
2964 9 5866 5867 5869 5875
2965 9 5878 5879 5881 5885
2966 9 5878 5879 5881 5886
2967 9 5878 5879 5881 5887
2968 9 5890 5891 5893 5897
2969 9 5890 5891 5893 5898
2970 9 5890 5891 5893 5899
2971 9 5902 5903 5905 5909
2972 9 5902 5903 5905 5910
2973 9 5902 5903 5905 5911
2974 9 5914 5915 5917 5921
2975 9 5914 5915 5917 5922
2976 9 5914 5915 5917 5923
2977 9 5926 5927 5929 5933
2978 9 5926 5927 5929 5934
2979 9 5926 5927 5929 5935
2980 9 5938 5939 5941 5945
2981 9 5938 5939 5941 5946
2982 9 5938 5939 5941 5947
2983 9 5950 5951 5953 5957
2984 9 5950 5951 5953 5958
2985 9 5950 5951 5953 5959
2986 9 5962 5963 5965 5969
2987 9 5962 5963 5965 5970
2988 9 5962 5963 5965 5971
2989 9 5974 5975 5977 5981
2990 9 5974 5975 5977 5982
2991 9 5974 5975 5977 5983
2992 9 5986 5987 5989 5993
2993 9 5986 5987 5989 5994
2994 9 5986 5987 5989 5995
2995 9 5998 5999 6001 6005
2996 9 5998 5999 6001 6006
2997 9 5998 5999 6001 6007
2998 9 6010 6011 6013 6018
2999 9 6010 6011 6013 6019
3000 9 6010 6011 6013 6020
3001 19 591 592 593 594
3002 19 1193 1194 1195 1196
3003 19 1795 1796 1797 1798
3004 19 2397 2398 2399 2400
3005 19 2999 3000 3001 3002
3006 19 3601 3602 3603 3604
3007 19 4203 4204 4205 4206
3008 19 4805 4806 4807 4808
3009 19 5407 5408 5409 5410
3010 19 6009 6010 6011 6012
3011 20 2 3 4 5
3012 20 15 16 17 18
3013 20 27 28 29 30
3014 20 39 40 41 42
3015 20 51 52 53 54
3016 20 63 64 65 66
3017 20 75 76 77 78
3018 20 87 88 89 90
3019 20 99 100 101 102
3020 20 111 112 113 114
3021 20 123 124 125 126
3022 20 135 136 137 138
3023 20 147 148 149 150
3024 20 159 160 161 162
3025 20 171 172 173 174
3026 20 183 184 185 186
3027 20 195 196 197 198
3028 20 207 208 209 210
3029 20 219 220 221 222
3030 20 231 232 233 234
3031 20 243 244 245 246
3032 20 255 256 257 258
3033 20 267 268 269 270
3034 20 279 280 281 282
3035 20 291 292 293 294
3036 20 303 304 305 306
3037 20 315 316 317 318
3038 20 327 328 329 330
3039 20 339 340 341 342
3040 20 351 352 353 354
3041 20 363 364 365 366
3042 20 375 376 377 378
3043 20 387 388 389 390
3044 20 399 400 401 402
3045 20 411 412 413 414
3046 20 423 424 425 426
3047 20 435 436 437 438
3048 20 447 448 449 450
3049 20 459 460 461 462
3050 20 471 472 473 474
3051 20 483 484 485 486
3052 20 495 496 497 498
3053 20 507 508 509 510
3054 20 519 520 521 522
3055 20 531 532 533 534
3056 20 543 544 545 546
3057 20 555 556 557 558
3058 20 567 568 569 570
3059 20 579 580 581 582
3060 20 604 605 606 607
3061 20 617 618 619 620
3062 20 629 630 631 632
3063 20 641 642 643 644
3064 20 653 654 655 656
3065 20 665 666 667 668
3066 20 677 678 679 680
3067 20 689 690 691 692
3068 20 701 702 703 704
3069 20 713 714 715 716
3070 20 725 726 727 728
3071 20 737 738 739 740
3072 20 749 750 751 752
3073 20 761 762 763 764
3074 20 773 774 775 776
3075 20 785 786 787 788
3076 20 797 798 799 800
3077 20 809 810 811 812
3078 20 821 822 823 824
3079 20 833 834 835 836
3080 20 845 846 847 848
3081 20 857 858 859 860
3082 20 869 870 871 872
3083 20 881 882 883 884
3084 20 893 894 895 896
3085 20 905 906 907 908
3086 20 917 918 919 920
3087 20 929 930 931 932
3088 20 941 942 943 944
3089 20 953 954 955 956
3090 20 965 966 967 968
3091 20 977 978 979 980
3092 20 989 990 991 992
3093 20 1001 1002 1003 1004
3094 20 1013 1014 1015 1016
3095 20 1025 1026 1027 1028
3096 20 1037 1038 1039 1040
3097 20 1049 1050 1051 1052
3098 20 1061 1062 1063 1064
3099 20 1073 1074 1075 1076
3100 20 1085 1086 1087 1088
3101 20 1097 1098 1099 1100
3102 20 1109 1110 1111 1112
3103 20 1121 1122 1123 1124
3104 20 1133 1134 1135 1136
3105 20 1145 1146 1147 1148
3106 20 1157 1158 1159 1160
3107 20 1169 1170 1171 1172
3108 20 1181 1182 1183 1184
3109 20 1206 1207 1208 1209
3110 20 1219 1220 1221 1222
3111 20 1231 1232 1233 1234
3112 20 1243 1244 1245 1246
3113 20 1255 1256 1257 1258
3114 20 1267 1268 1269 1270
3115 20 1279 1280 1281 1282
3116 20 1291 1292 1293 1294
3117 20 1303 1304 1305 1306
3118 20 1315 1316 1317 1318
3119 20 1327 1328 1329 1330
3120 20 1339 1340 1341 1342
3121 20 1351 1352 1353 1354
3122 20 1363 1364 1365 1366
3123 20 1375 1376 1377 1378
3124 20 1387 1388 1389 1390
3125 20 1399 1400 1401 1402
3126 20 1411 1412 1413 1414
3127 20 1423 1424 1425 1426
3128 20 1435 1436 1437 1438
3129 20 1447 1448 1449 1450
3130 20 1459 1460 1461 1462
3131 20 1471 1472 1473 1474
3132 20 1483 1484 1485 1486
3133 20 1495 1496 1497 1498
3134 20 1507 1508 1509 1510
3135 20 1519 1520 1521 1522
3136 20 1531 1532 1533 1534
3137 20 1543 1544 1545 1546
3138 20 1555 1556 1557 1558
3139 20 1567 1568 1569 1570
3140 20 1579 1580 1581 1582
3141 20 1591 1592 1593 1594
3142 20 1603 1604 1605 1606
3143 20 1615 1616 1617 1618
3144 20 1627 1628 1629 1630
3145 20 1639 1640 1641 1642
3146 20 1651 1652 1653 1654
3147 20 1663 1664 1665 1666
3148 20 1675 1676 1677 1678
3149 20 1687 1688 1689 1690
3150 20 1699 1700 1701 1702
3151 20 1711 1712 1713 1714
3152 20 1723 1724 1725 1726
3153 20 1735 1736 1737 1738
3154 20 1747 1748 1749 1750
3155 20 1759 1760 1761 1762
3156 20 1771 1772 1773 1774
3157 20 1783 1784 1785 1786
3158 20 1808 1809 1810 1811
3159 20 1821 1822 1823 1824
3160 20 1833 1834 1835 1836
3161 20 1845 1846 1847 1848
3162 20 1857 1858 1859 1860
3163 20 1869 1870 1871 1872
3164 20 1881 1882 1883 1884
3165 20 1893 1894 1895 1896
3166 20 1905 1906 1907 1908
3167 20 1917 1918 1919 1920
3168 20 1929 1930 1931 1932
3169 20 1941 1942 1943 1944
3170 20 1953 1954 1955 1956
3171 20 1965 1966 1967 1968
3172 20 1977 1978 1979 1980
3173 20 1989 1990 1991 1992
3174 20 2001 2002 2003 2004
3175 20 2013 2014 2015 2016
3176 20 2025 2026 2027 2028
3177 20 2037 2038 2039 2040
3178 20 2049 2050 2051 2052
3179 20 2061 2062 2063 2064
3180 20 2073 2074 2075 2076
3181 20 2085 2086 2087 2088
3182 20 2097 2098 2099 2100
3183 20 2109 2110 2111 2112
3184 20 2121 2122 2123 2124
3185 20 2133 2134 2135 2136
3186 20 2145 2146 2147 2148
3187 20 2157 2158 2159 2160
3188 20 2169 2170 2171 2172
3189 20 2181 2182 2183 2184
3190 20 2193 2194 2195 2196
3191 20 2205 2206 2207 2208
3192 20 2217 2218 2219 2220
3193 20 2229 2230 2231 2232
3194 20 2241 2242 2243 2244
3195 20 2253 2254 2255 2256
3196 20 2265 2266 2267 2268
3197 20 2277 2278 2279 2280
3198 20 2289 2290 2291 2292
3199 20 2301 2302 2303 2304
3200 20 2313 2314 2315 2316
3201 20 2325 2326 2327 2328
3202 20 2337 2338 2339 2340
3203 20 2349 2350 2351 2352
3204 20 2361 2362 2363 2364
3205 20 2373 2374 2375 2376
3206 20 2385 2386 2387 2388
3207 20 2410 2411 2412 2413
3208 20 2423 2424 2425 2426
3209 20 2435 2436 2437 2438
3210 20 2447 2448 2449 2450
3211 20 2459 2460 2461 2462
3212 20 2471 2472 2473 2474
3213 20 2483 2484 2485 2486
3214 20 2495 2496 2497 2498
3215 20 2507 2508 2509 2510
3216 20 2519 2520 2521 2522
3217 20 2531 2532 2533 2534
3218 20 2543 2544 2545 2546
3219 20 2555 2556 2557 2558
3220 20 2567 2568 2569 2570
3221 20 2579 2580 2581 2582
3222 20 2591 2592 2593 2594
3223 20 2603 2604 2605 2606
3224 20 2615 2616 2617 2618
3225 20 2627 2628 2629 2630
3226 20 2639 2640 2641 2642
3227 20 2651 2652 2653 2654
3228 20 2663 2664 2665 2666
3229 20 2675 2676 2677 2678
3230 20 2687 2688 2689 2690
3231 20 2699 2700 2701 2702
3232 20 2711 2712 2713 2714
3233 20 2723 2724 2725 2726
3234 20 2735 2736 2737 2738
3235 20 2747 2748 2749 2750
3236 20 2759 2760 2761 2762
3237 20 2771 2772 2773 2774
3238 20 2783 2784 2785 2786
3239 20 2795 2796 2797 2798
3240 20 2807 2808 2809 2810
3241 20 2819 2820 2821 2822
3242 20 2831 2832 2833 2834
3243 20 2843 2844 2845 2846
3244 20 2855 2856 2857 2858
3245 20 2867 2868 2869 2870
3246 20 2879 2880 2881 2882
3247 20 2891 2892 2893 2894
3248 20 2903 2904 2905 2906
3249 20 2915 2916 2917 2918
3250 20 2927 2928 2929 2930
3251 20 2939 2940 2941 2942
3252 20 2951 2952 2953 2954
3253 20 2963 2964 2965 2966
3254 20 2975 2976 2977 2978
3255 20 2987 2988 2989 2990
3256 20 3012 3013 3014 3015
3257 20 3025 3026 3027 3028
3258 20 3037 3038 3039 3040
3259 20 3049 3050 3051 3052
3260 20 3061 3062 3063 3064
3261 20 3073 3074 3075 3076
3262 20 3085 3086 3087 3088
3263 20 3097 3098 3099 3100
3264 20 3109 3110 3111 3112
3265 20 3121 3122 3123 3124
3266 20 3133 3134 3135 3136
3267 20 3145 3146 3147 3148
3268 20 3157 3158 3159 3160
3269 20 3169 3170 3171 3172
3270 20 3181 3182 3183 3184
3271 20 3193 3194 3195 3196
3272 20 3205 3206 3207 3208
3273 20 3217 3218 3219 3220
3274 20 3229 3230 3231 3232
3275 20 3241 3242 3243 3244
3276 20 3253 3254 3255 3256
3277 20 3265 3266 3267 3268
3278 20 3277 3278 3279 3280
3279 20 3289 3290 3291 3292
3280 20 3301 3302 3303 3304
3281 20 3313 3314 3315 3316
3282 20 3325 3326 3327 3328
3283 20 3337 3338 3339 3340
3284 20 3349 3350 3351 3352
3285 20 3361 3362 3363 3364
3286 20 3373 3374 3375 3376
3287 20 3385 3386 3387 3388
3288 20 3397 3398 3399 3400
3289 20 3409 3410 3411 3412
3290 20 3421 3422 3423 3424
3291 20 3433 3434 3435 3436
3292 20 3445 3446 3447 3448
3293 20 3457 3458 3459 3460
3294 20 3469 3470 3471 3472
3295 20 3481 3482 3483 3484
3296 20 3493 3494 3495 3496
3297 20 3505 3506 3507 3508
3298 20 3517 3518 3519 3520
3299 20 3529 3530 3531 3532
3300 20 3541 3542 3543 3544
3301 20 3553 3554 3555 3556
3302 20 3565 3566 3567 3568
3303 20 3577 3578 3579 3580
3304 20 3589 3590 3591 3592
3305 20 3614 3615 3616 3617
3306 20 3627 3628 3629 3630
3307 20 3639 3640 3641 3642
3308 20 3651 3652 3653 3654
3309 20 3663 3664 3665 3666
3310 20 3675 3676 3677 3678
3311 20 3687 3688 3689 3690
3312 20 3699 3700 3701 3702
3313 20 3711 3712 3713 3714
3314 20 3723 3724 3725 3726
3315 20 3735 3736 3737 3738
3316 20 3747 3748 3749 3750
3317 20 3759 3760 3761 3762
3318 20 3771 3772 3773 3774
3319 20 3783 3784 3785 3786
3320 20 3795 3796 3797 3798
3321 20 3807 3808 3809 3810
3322 20 3819 3820 3821 3822
3323 20 3831 3832 3833 3834
3324 20 3843 3844 3845 3846
3325 20 3855 3856 3857 3858
3326 20 3867 3868 3869 3870
3327 20 3879 3880 3881 3882
3328 20 3891 3892 3893 3894
3329 20 3903 3904 3905 3906
3330 20 3915 3916 3917 3918
3331 20 3927 3928 3929 3930
3332 20 3939 3940 3941 3942
3333 20 3951 3952 3953 3954
3334 20 3963 3964 3965 3966
3335 20 3975 3976 3977 3978
3336 20 3987 3988 3989 3990
3337 20 3999 4000 4001 4002
3338 20 4011 4012 4013 4014
3339 20 4023 4024 4025 4026
3340 20 4035 4036 4037 4038
3341 20 4047 4048 4049 4050
3342 20 4059 4060 4061 4062
3343 20 4071 4072 4073 4074
3344 20 4083 4084 4085 4086
3345 20 4095 4096 4097 4098
3346 20 4107 4108 4109 4110
3347 20 4119 4120 4121 4122
3348 20 4131 4132 4133 4134
3349 20 4143 4144 4145 4146
3350 20 4155 4156 4157 4158
3351 20 4167 4168 4169 4170
3352 20 4179 4180 4181 4182
3353 20 4191 4192 4193 4194
3354 20 4216 4217 4218 4219
3355 20 4229 4230 4231 4232
3356 20 4241 4242 4243 4244
3357 20 4253 4254 4255 4256
3358 20 4265 4266 4267 4268
3359 20 4277 4278 4279 4280
3360 20 4289 4290 4291 4292
3361 20 4301 4302 4303 4304
3362 20 4313 4314 4315 4316
3363 20 4325 4326 4327 4328
3364 20 4337 4338 4339 4340
3365 20 4349 4350 4351 4352
3366 20 4361 4362 4363 4364
3367 20 4373 4374 4375 4376
3368 20 4385 4386 4387 4388
3369 20 4397 4398 4399 4400
3370 20 4409 4410 4411 4412
3371 20 4421 4422 4423 4424
3372 20 4433 4434 4435 4436
3373 20 4445 4446 4447 4448
3374 20 4457 4458 4459 4460
3375 20 4469 4470 4471 4472
3376 20 4481 4482 4483 4484
3377 20 4493 4494 4495 4496
3378 20 4505 4506 4507 4508
3379 20 4517 4518 4519 4520
3380 20 4529 4530 4531 4532
3381 20 4541 4542 4543 4544
3382 20 4553 4554 4555 4556
3383 20 4565 4566 4567 4568
3384 20 4577 4578 4579 4580
3385 20 4589 4590 4591 4592
3386 20 4601 4602 4603 4604
3387 20 4613 4614 4615 4616
3388 20 4625 4626 4627 4628
3389 20 4637 4638 4639 4640
3390 20 4649 4650 4651 4652
3391 20 4661 4662 4663 4664
3392 20 4673 4674 4675 4676
3393 20 4685 4686 4687 4688
3394 20 4697 4698 4699 4700
3395 20 4709 4710 4711 4712
3396 20 4721 4722 4723 4724
3397 20 4733 4734 4735 4736
3398 20 4745 4746 4747 4748
3399 20 4757 4758 4759 4760
3400 20 4769 4770 4771 4772
3401 20 4781 4782 4783 4784
3402 20 4793 4794 4795 4796
3403 20 4818 4819 4820 4821
3404 20 4831 4832 4833 4834
3405 20 4843 4844 4845 4846
3406 20 4855 4856 4857 4858
3407 20 4867 4868 4869 4870
3408 20 4879 4880 4881 4882
3409 20 4891 4892 4893 4894
3410 20 4903 4904 4905 4906
3411 20 4915 4916 4917 4918
3412 20 4927 4928 4929 4930
3413 20 4939 4940 4941 4942
3414 20 4951 4952 4953 4954
3415 20 4963 4964 4965 4966
3416 20 4975 4976 4977 4978
3417 20 4987 4988 4989 4990
3418 20 4999 5000 5001 5002
3419 20 5011 5012 5013 5014
3420 20 5023 5024 5025 5026
3421 20 5035 5036 5037 5038
3422 20 5047 5048 5049 5050
3423 20 5059 5060 5061 5062
3424 20 5071 5072 5073 5074
3425 20 5083 5084 5085 5086
3426 20 5095 5096 5097 5098
3427 20 5107 5108 5109 5110
3428 20 5119 5120 5121 5122
3429 20 5131 5132 5133 5134
3430 20 5143 5144 5145 5146
3431 20 5155 5156 5157 5158
3432 20 5167 5168 5169 5170
3433 20 5179 5180 5181 5182
3434 20 5191 5192 5193 5194
3435 20 5203 5204 5205 5206
3436 20 5215 5216 5217 5218
3437 20 5227 5228 5229 5230
3438 20 5239 5240 5241 5242
3439 20 5251 5252 5253 5254
3440 20 5263 5264 5265 5266
3441 20 5275 5276 5277 5278
3442 20 5287 5288 5289 5290
3443 20 5299 5300 5301 5302
3444 20 5311 5312 5313 5314
3445 20 5323 5324 5325 5326
3446 20 5335 5336 5337 5338
3447 20 5347 5348 5349 5350
3448 20 5359 5360 5361 5362
3449 20 5371 5372 5373 5374
3450 20 5383 5384 5385 5386
3451 20 5395 5396 5397 5398
3452 20 5420 5421 5422 5423
3453 20 5433 5434 5435 5436
3454 20 5445 5446 5447 5448
3455 20 5457 5458 5459 5460
3456 20 5469 5470 5471 5472
3457 20 5481 5482 5483 5484
3458 20 5493 5494 5495 5496
3459 20 5505 5506 5507 5508
3460 20 5517 5518 5519 5520
3461 20 5529 5530 5531 5532
3462 20 5541 5542 5543 5544
3463 20 5553 5554 5555 5556
3464 20 5565 5566 5567 5568
3465 20 5577 5578 5579 5580
3466 20 5589 5590 5591 5592
3467 20 5601 5602 5603 5604
3468 20 5613 5614 5615 5616
3469 20 5625 5626 5627 5628
3470 20 5637 5638 5639 5640
3471 20 5649 5650 5651 5652
3472 20 5661 5662 5663 5664
3473 20 5673 5674 5675 5676
3474 20 5685 5686 5687 5688
3475 20 5697 5698 5699 5700
3476 20 5709 5710 5711 5712
3477 20 5721 5722 5723 5724
3478 20 5733 5734 5735 5736
3479 20 5745 5746 5747 5748
3480 20 5757 5758 5759 5760
3481 20 5769 5770 5771 5772
3482 20 5781 5782 5783 5784
3483 20 5793 5794 5795 5796
3484 20 5805 5806 5807 5808
3485 20 5817 5818 5819 5820
3486 20 5829 5830 5831 5832
3487 20 5841 5842 5843 5844
3488 20 5853 5854 5855 5856
3489 20 5865 5866 5867 5868
3490 20 5877 5878 5879 5880
3491 20 5889 5890 5891 5892
3492 20 5901 5902 5903 5904
3493 20 5913 5914 5915 5916
3494 20 5925 5926 5927 5928
3495 20 5937 5938 5939 5940
3496 20 5949 5950 5951 5952
3497 20 5961 5962 5963 5964
3498 20 5973 5974 5975 5976
3499 20 5985 5986 5987 5988
3500 20 5997 5998 5999 6000
3501 23 591 592 593 595
3502 23 1193 1194 1195 1197
3503 23 1795 1796 1797 1799
3504 23 2397 2398 2399 2401
3505 23 2999 3000 3001 3003
3506 23 3601 3602 3603 3605
3507 23 4203 4204 4205 4207
3508 23 4805 4806 4807 4809
3509 23 5407 5408 5409 5411
3510 23 6009 6010 6011 6013
3511 24 2 3 4 6
3512 24 15 16 17 19
3513 24 27 28 29 31
3514 24 39 40 41 43
3515 24 51 52 53 55
3516 24 63 64 65 67
3517 24 75 76 77 79
3518 24 87 88 89 91
3519 24 99 100 101 103
3520 24 111 112 113 115
3521 24 123 124 125 127
3522 24 135 136 137 139
3523 24 147 148 149 151
3524 24 159 160 161 163
3525 24 171 172 173 175
3526 24 183 184 185 187
3527 24 195 196 197 199
3528 24 207 208 209 211
3529 24 219 220 221 223
3530 24 231 232 233 235
3531 24 243 244 245 247
3532 24 255 256 257 259
3533 24 267 268 269 271
3534 24 279 280 281 283
3535 24 291 292 293 295
3536 24 303 304 305 307
3537 24 315 316 317 319
3538 24 327 328 329 331
3539 24 339 340 341 343
3540 24 351 352 353 355
3541 24 363 364 365 367
3542 24 375 376 377 379
3543 24 387 388 389 391
3544 24 399 400 401 403
3545 24 411 412 413 415
3546 24 423 424 425 427
3547 24 435 436 437 439
3548 24 447 448 449 451
3549 24 459 460 461 463
3550 24 471 472 473 475
3551 24 483 484 485 487
3552 24 495 496 497 499
3553 24 507 508 509 511
3554 24 519 520 521 523
3555 24 531 532 533 535
3556 24 543 544 545 547
3557 24 555 556 557 559
3558 24 567 568 569 571
3559 24 579 580 581 583
3560 24 604 605 606 608
3561 24 617 618 619 621
3562 24 629 630 631 633
3563 24 641 642 643 645
3564 24 653 654 655 657
3565 24 665 666 667 669
3566 24 677 678 679 681
3567 24 689 690 691 693
3568 24 701 702 703 705
3569 24 713 714 715 717
3570 24 725 726 727 729
3571 24 737 738 739 741
3572 24 749 750 751 753
3573 24 761 762 763 765
3574 24 773 774 775 777
3575 24 785 786 787 789
3576 24 797 798 799 801
3577 24 809 810 811 813
3578 24 821 822 823 825
3579 24 833 834 835 837
3580 24 845 846 847 849
3581 24 857 858 859 861
3582 24 869 870 871 873
3583 24 881 882 883 885
3584 24 893 894 895 897
3585 24 905 906 907 909
3586 24 917 918 919 921
3587 24 929 930 931 933
3588 24 941 942 943 945
3589 24 953 954 955 957
3590 24 965 966 967 969
3591 24 977 978 979 981
3592 24 989 990 991 993
3593 24 1001 1002 1003 1005
3594 24 1013 1014 1015 1017
3595 24 1025 1026 1027 1029
3596 24 1037 1038 1039 1041
3597 24 1049 1050 1051 1053
3598 24 1061 1062 1063 1065
3599 24 1073 1074 1075 1077
3600 24 1085 1086 1087 1089
3601 24 1097 1098 1099 1101
3602 24 1109 1110 1111 1113
3603 24 1121 1122 1123 1125
3604 24 1133 1134 1135 1137
3605 24 1145 1146 1147 1149
3606 24 1157 1158 1159 1161
3607 24 1169 1170 1171 1173
3608 24 1181 1182 1183 1185
3609 24 1206 1207 1208 1210
3610 24 1219 1220 1221 1223
3611 24 1231 1232 1233 1235
3612 24 1243 1244 1245 1247
3613 24 1255 1256 1257 1259
3614 24 1267 1268 1269 1271
3615 24 1279 1280 1281 1283
3616 24 1291 1292 1293 1295
3617 24 1303 1304 1305 1307
3618 24 1315 1316 1317 1319
3619 24 1327 1328 1329 1331
3620 24 1339 1340 1341 1343
3621 24 1351 1352 1353 1355
3622 24 1363 1364 1365 1367
3623 24 1375 1376 1377 1379
3624 24 1387 1388 1389 1391
3625 24 1399 1400 1401 1403
3626 24 1411 1412 1413 1415
3627 24 1423 1424 1425 1427
3628 24 1435 1436 1437 1439
3629 24 1447 1448 1449 1451
3630 24 1459 1460 1461 1463
3631 24 1471 1472 1473 1475
3632 24 1483 1484 1485 1487
3633 24 1495 1496 1497 1499
3634 24 1507 1508 1509 1511
3635 24 1519 1520 1521 1523
3636 24 1531 1532 1533 1535
3637 24 1543 1544 1545 1547
3638 24 1555 1556 1557 1559
3639 24 1567 1568 1569 1571
3640 24 1579 1580 1581 1583
3641 24 1591 1592 1593 1595
3642 24 1603 1604 1605 1607
3643 24 1615 1616 1617 1619
3644 24 1627 1628 1629 1631
3645 24 1639 1640 1641 1643
3646 24 1651 1652 1653 1655
3647 24 1663 1664 1665 1667
3648 24 1675 1676 1677 1679
3649 24 1687 1688 1689 1691
3650 24 1699 1700 1701 1703
3651 24 1711 1712 1713 1715
3652 24 1723 1724 1725 1727
3653 24 1735 1736 1737 1739
3654 24 1747 1748 1749 1751
3655 24 1759 1760 1761 1763
3656 24 1771 1772 1773 1775
3657 24 1783 1784 1785 1787
3658 24 1808 1809 1810 1812
3659 24 1821 1822 1823 1825
3660 24 1833 1834 1835 1837
3661 24 1845 1846 1847 1849
3662 24 1857 1858 1859 1861
3663 24 1869 1870 1871 1873
3664 24 1881 1882 1883 1885
3665 24 1893 1894 1895 1897
3666 24 1905 1906 1907 1909
3667 24 1917 1918 1919 1921
3668 24 1929 1930 1931 1933
3669 24 1941 1942 1943 1945
3670 24 1953 1954 1955 1957
3671 24 1965 1966 1967 1969
3672 24 1977 1978 1979 1981
3673 24 1989 1990 1991 1993
3674 24 2001 2002 2003 2005
3675 24 2013 2014 2015 2017
3676 24 2025 2026 2027 2029
3677 24 2037 2038 2039 2041
3678 24 2049 2050 2051 2053
3679 24 2061 2062 2063 2065
3680 24 2073 2074 2075 2077
3681 24 2085 2086 2087 2089
3682 24 2097 2098 2099 2101
3683 24 2109 2110 2111 2113
3684 24 2121 2122 2123 2125
3685 24 2133 2134 2135 2137
3686 24 2145 2146 2147 2149
3687 24 2157 2158 2159 2161
3688 24 2169 2170 2171 2173
3689 24 2181 2182 2183 2185
3690 24 2193 2194 2195 2197
3691 24 2205 2206 2207 2209
3692 24 2217 2218 2219 2221
3693 24 2229 2230 2231 2233
3694 24 2241 2242 2243 2245
3695 24 2253 2254 2255 2257
3696 24 2265 2266 2267 2269
3697 24 2277 2278 2279 2281
3698 24 2289 2290 2291 2293
3699 24 2301 2302 2303 2305
3700 24 2313 2314 2315 2317
3701 24 2325 2326 2327 2329
3702 24 2337 2338 2339 2341
3703 24 2349 2350 2351 2353
3704 24 2361 2362 2363 2365
3705 24 2373 2374 2375 2377
3706 24 2385 2386 2387 2389
3707 24 2410 2411 2412 2414
3708 24 2423 2424 2425 2427
3709 24 2435 2436 2437 2439
3710 24 2447 2448 2449 2451
3711 24 2459 2460 2461 2463
3712 24 2471 2472 2473 2475
3713 24 2483 2484 2485 2487
3714 24 2495 2496 2497 2499
3715 24 2507 2508 2509 2511
3716 24 2519 2520 2521 2523
3717 24 2531 2532 2533 2535
3718 24 2543 2544 2545 2547
3719 24 2555 2556 2557 2559
3720 24 2567 2568 2569 2571
3721 24 2579 2580 2581 2583
3722 24 2591 2592 2593 2595
3723 24 2603 2604 2605 2607
3724 24 2615 2616 2617 2619
3725 24 2627 2628 2629 2631
3726 24 2639 2640 2641 2643
3727 24 2651 2652 2653 2655
3728 24 2663 2664 2665 2667
3729 24 2675 2676 2677 2679
3730 24 2687 2688 2689 2691
3731 24 2699 2700 2701 2703
3732 24 2711 2712 2713 2715
3733 24 2723 2724 2725 2727
3734 24 2735 2736 2737 2739
3735 24 2747 2748 2749 2751
3736 24 2759 2760 2761 2763
3737 24 2771 2772 2773 2775
3738 24 2783 2784 2785 2787
3739 24 2795 2796 2797 2799
3740 24 2807 2808 2809 2811
3741 24 2819 2820 2821 2823
3742 24 2831 2832 2833 2835
3743 24 2843 2844 2845 2847
3744 24 2855 2856 2857 2859
3745 24 2867 2868 2869 2871
3746 24 2879 2880 2881 2883
3747 24 2891 2892 2893 2895
3748 24 2903 2904 2905 2907
3749 24 2915 2916 2917 2919
3750 24 2927 2928 2929 2931
3751 24 2939 2940 2941 2943
3752 24 2951 2952 2953 2955
3753 24 2963 2964 2965 2967
3754 24 2975 2976 2977 2979
3755 24 2987 2988 2989 2991
3756 24 3012 3013 3014 3016
3757 24 3025 3026 3027 3029
3758 24 3037 3038 3039 3041
3759 24 3049 3050 3051 3053
3760 24 3061 3062 3063 3065
3761 24 3073 3074 3075 3077
3762 24 3085 3086 3087 3089
3763 24 3097 3098 3099 3101
3764 24 3109 3110 3111 3113
3765 24 3121 3122 3123 3125
3766 24 3133 3134 3135 3137
3767 24 3145 3146 3147 3149
3768 24 3157 3158 3159 3161
3769 24 3169 3170 3171 3173
3770 24 3181 3182 3183 3185
3771 24 3193 3194 3195 3197
3772 24 3205 3206 3207 3209
3773 24 3217 3218 3219 3221
3774 24 3229 3230 3231 3233
3775 24 3241 3242 3243 3245
3776 24 3253 3254 3255 3257
3777 24 3265 3266 3267 3269
3778 24 3277 3278 3279 3281
3779 24 3289 3290 3291 3293
3780 24 3301 3302 3303 3305
3781 24 3313 3314 3315 3317
3782 24 3325 3326 3327 3329
3783 24 3337 3338 3339 3341
3784 24 3349 3350 3351 3353
3785 24 3361 3362 3363 3365
3786 24 3373 3374 3375 3377
3787 24 3385 3386 3387 3389
3788 24 3397 3398 3399 3401
3789 24 3409 3410 3411 3413
3790 24 3421 3422 3423 3425
3791 24 3433 3434 3435 3437
3792 24 3445 3446 3447 3449
3793 24 3457 3458 3459 3461
3794 24 3469 3470 3471 3473
3795 24 3481 3482 3483 3485
3796 24 3493 3494 3495 3497
3797 24 3505 3506 3507 3509
3798 24 3517 3518 3519 3521
3799 24 3529 3530 3531 3533
3800 24 3541 3542 3543 3545
3801 24 3553 3554 3555 3557
3802 24 3565 3566 3567 3569
3803 24 3577 3578 3579 3581
3804 24 3589 3590 3591 3593
3805 24 3614 3615 3616 3618
3806 24 3627 3628 3629 3631
3807 24 3639 3640 3641 3643
3808 24 3651 3652 3653 3655
3809 24 3663 3664 3665 3667
3810 24 3675 3676 3677 3679
3811 24 3687 3688 3689 3691
3812 24 3699 3700 3701 3703
3813 24 3711 3712 3713 3715
3814 24 3723 3724 3725 3727
3815 24 3735 3736 3737 3739
3816 24 3747 3748 3749 3751
3817 24 3759 3760 3761 3763
3818 24 3771 3772 3773 3775
3819 24 3783 3784 3785 3787
3820 24 3795 3796 3797 3799
3821 24 3807 3808 3809 3811
3822 24 3819 3820 3821 3823
3823 24 3831 3832 3833 3835
3824 24 3843 3844 3845 3847
3825 24 3855 3856 3857 3859
3826 24 3867 3868 3869 3871
3827 24 3879 3880 3881 3883
3828 24 3891 3892 3893 3895
3829 24 3903 3904 3905 3907
3830 24 3915 3916 3917 3919
3831 24 3927 3928 3929 3931
3832 24 3939 3940 3941 3943
3833 24 3951 3952 3953 3955
3834 24 3963 3964 3965 3967
3835 24 3975 3976 3977 3979
3836 24 3987 3988 3989 3991
3837 24 3999 4000 4001 4003
3838 24 4011 4012 4013 4015
3839 24 4023 4024 4025 4027
3840 24 4035 4036 4037 4039
3841 24 4047 4048 4049 4051
3842 24 4059 4060 4061 4063
3843 24 4071 4072 4073 4075
3844 24 4083 4084 4085 4087
3845 24 4095 4096 4097 4099
3846 24 4107 4108 4109 4111
3847 24 4119 4120 4121 4123
3848 24 4131 4132 4133 4135
3849 24 4143 4144 4145 4147
3850 24 4155 4156 4157 4159
3851 24 4167 4168 4169 4171
3852 24 4179 4180 4181 4183
3853 24 4191 4192 4193 4195
3854 24 4216 4217 4218 4220
3855 24 4229 4230 4231 4233
3856 24 4241 4242 4243 4245
3857 24 4253 4254 4255 4257
3858 24 4265 4266 4267 4269
3859 24 4277 4278 4279 4281
3860 24 4289 4290 4291 4293
3861 24 4301 4302 4303 4305
3862 24 4313 4314 4315 4317
3863 24 4325 4326 4327 4329
3864 24 4337 4338 4339 4341
3865 24 4349 4350 4351 4353
3866 24 4361 4362 4363 4365
3867 24 4373 4374 4375 4377
3868 24 4385 4386 4387 4389
3869 24 4397 4398 4399 4401
3870 24 4409 4410 4411 4413
3871 24 4421 4422 4423 4425
3872 24 4433 4434 4435 4437
3873 24 4445 4446 4447 4449
3874 24 4457 4458 4459 4461
3875 24 4469 4470 4471 4473
3876 24 4481 4482 4483 4485
3877 24 4493 4494 4495 4497
3878 24 4505 4506 4507 4509
3879 24 4517 4518 4519 4521
3880 24 4529 4530 4531 4533
3881 24 4541 4542 4543 4545
3882 24 4553 4554 4555 4557
3883 24 4565 4566 4567 4569
3884 24 4577 4578 4579 4581
3885 24 4589 4590 4591 4593
3886 24 4601 4602 4603 4605
3887 24 4613 4614 4615 4617
3888 24 4625 4626 4627 4629
3889 24 4637 4638 4639 4641
3890 24 4649 4650 4651 4653
3891 24 4661 4662 4663 4665
3892 24 4673 4674 4675 4677
3893 24 4685 4686 4687 4689
3894 24 4697 4698 4699 4701
3895 24 4709 4710 4711 4713
3896 24 4721 4722 4723 4725
3897 24 4733 4734 4735 4737
3898 24 4745 4746 4747 4749
3899 24 4757 4758 4759 4761
3900 24 4769 4770 4771 4773
3901 24 4781 4782 4783 4785
3902 24 4793 4794 4795 4797
3903 24 4818 4819 4820 4822
3904 24 4831 4832 4833 4835
3905 24 4843 4844 4845 4847
3906 24 4855 4856 4857 4859
3907 24 4867 4868 4869 4871
3908 24 4879 4880 4881 4883
3909 24 4891 4892 4893 4895
3910 24 4903 4904 4905 4907
3911 24 4915 4916 4917 4919
3912 24 4927 4928 4929 4931
3913 24 4939 4940 4941 4943
3914 24 4951 4952 4953 4955
3915 24 4963 4964 4965 4967
3916 24 4975 4976 4977 4979
3917 24 4987 4988 4989 4991
3918 24 4999 5000 5001 5003
3919 24 5011 5012 5013 5015
3920 24 5023 5024 5025 5027
3921 24 5035 5036 5037 5039
3922 24 5047 5048 5049 5051
3923 24 5059 5060 5061 5063
3924 24 5071 5072 5073 5075
3925 24 5083 5084 5085 5087
3926 24 5095 5096 5097 5099
3927 24 5107 5108 5109 5111
3928 24 5119 5120 5121 5123
3929 24 5131 5132 5133 5135
3930 24 5143 5144 5145 5147
3931 24 5155 5156 5157 5159
3932 24 5167 5168 5169 5171
3933 24 5179 5180 5181 5183
3934 24 5191 5192 5193 5195
3935 24 5203 5204 5205 5207
3936 24 5215 5216 5217 5219
3937 24 5227 5228 5229 5231
3938 24 5239 5240 5241 5243
3939 24 5251 5252 5253 5255
3940 24 5263 5264 5265 5267
3941 24 5275 5276 5277 5279
3942 24 5287 5288 5289 5291
3943 24 5299 5300 5301 5303
3944 24 5311 5312 5313 5315
3945 24 5323 5324 5325 5327
3946 24 5335 5336 5337 5339
3947 24 5347 5348 5349 5351
3948 24 5359 5360 5361 5363
3949 24 5371 5372 5373 5375
3950 24 5383 5384 5385 5387
3951 24 5395 5396 5397 5399
3952 24 5420 5421 5422 5424
3953 24 5433 5434 5435 5437
3954 24 5445 5446 5447 5449
3955 24 5457 5458 5459 5461
3956 24 5469 5470 5471 5473
3957 24 5481 5482 5483 5485
3958 24 5493 5494 5495 5497
3959 24 5505 5506 5507 5509
3960 24 5517 5518 5519 5521
3961 24 5529 5530 5531 5533
3962 24 5541 5542 5543 5545
3963 24 5553 5554 5555 5557
3964 24 5565 5566 5567 5569
3965 24 5577 5578 5579 5581
3966 24 5589 5590 5591 5593
3967 24 5601 5602 5603 5605
3968 24 5613 5614 5615 5617
3969 24 5625 5626 5627 5629
3970 24 5637 5638 5639 5641
3971 24 5649 5650 5651 5653
3972 24 5661 5662 5663 5665
3973 24 5673 5674 5675 5677
3974 24 5685 5686 5687 5689
3975 24 5697 5698 5699 5701
3976 24 5709 5710 5711 5713
3977 24 5721 5722 5723 5725
3978 24 5733 5734 5735 5737
3979 24 5745 5746 5747 5749
3980 24 5757 5758 5759 5761
3981 24 5769 5770 5771 5773
3982 24 5781 5782 5783 5785
3983 24 5793 5794 5795 5797
3984 24 5805 5806 5807 5809
3985 24 5817 5818 5819 5821
3986 24 5829 5830 5831 5833
3987 24 5841 5842 5843 5845
3988 24 5853 5854 5855 5857
3989 24 5865 5866 5867 5869
3990 24 5877 5878 5879 5881
3991 24 5889 5890 5891 5893
3992 24 5901 5902 5903 5905
3993 24 5913 5914 5915 5917
3994 24 5925 5926 5927 5929
3995 24 5937 5938 5939 5941
3996 24 5949 5950 5951 5953
3997 24 5961 5962 5963 5965
3998 24 5973 5974 5975 5977
3999 24 5985 5986 5987 5989
4000 24 5997 5998 5999 6001
4001 55 592 591 590 596
4002 55 592 591 590 597
4003 55 1194 1193 1192 1198
4004 55 1194 1193 1192 1199
4005 55 1796 1795 1794 1800
4006 55 1796 1795 1794 1801
4007 55 2398 2397 2396 2402
4008 55 2398 2397 2396 2403
4009 55 3000 2999 2998 3004
4010 55 3000 2999 2998 3005
4011 55 3602 3601 3600 3606
4012 55 3602 3601 3600 3607
4013 55 4204 4203 4202 4208
4014 55 4204 4203 4202 4209
4015 55 4806 4805 4804 4810
4016 55 4806 4805 4804 4811
4017 55 5408 5407 5406 5412
4018 55 5408 5407 5406 5413
4019 55 6010 6009 6008 6014
4020 55 6010 6009 6008 6015
4021 61 3 2 1 7
4022 61 3 2 1 8
4023 61 3 2 1 9
4024 61 605 604 603 609
4025 61 605 604 603 610
4026 61 605 604 603 611
4027 61 1207 1206 1205 1211
4028 61 1207 1206 1205 1212
4029 61 1207 1206 1205 1213
4030 61 1809 1808 1807 1813
4031 61 1809 1808 1807 1814
4032 61 1809 1808 1807 1815
4033 61 2411 2410 2409 2415
4034 61 2411 2410 2409 2416
4035 61 2411 2410 2409 2417
4036 61 3013 3012 3011 3017
4037 61 3013 3012 3011 3018
4038 61 3013 3012 3011 3019
4039 61 3615 3614 3613 3619
4040 61 3615 3614 3613 3620
4041 61 3615 3614 3613 3621
4042 61 4217 4216 4215 4221
4043 61 4217 4216 4215 4222
4044 61 4217 4216 4215 4223
4045 61 4819 4818 4817 4823
4046 61 4819 4818 4817 4824
4047 61 4819 4818 4817 4825
4048 61 5421 5420 5419 5425
4049 61 5421 5420 5419 5426
4050 61 5421 5420 5419 5427
4051 63 3 2 14 20
4052 63 3 2 14 21
4053 63 16 15 14 20
4054 63 16 15 14 21
4055 63 16 15 26 32
4056 63 16 15 26 33
4057 63 28 27 26 32
4058 63 28 27 26 33
4059 63 28 27 38 44
4060 63 28 27 38 45
4061 63 40 39 38 44
4062 63 40 39 38 45
4063 63 40 39 50 56
4064 63 40 39 50 57
4065 63 52 51 50 56
4066 63 52 51 50 57
4067 63 52 51 62 68
4068 63 52 51 62 69
4069 63 64 63 62 68
4070 63 64 63 62 69
4071 63 64 63 74 80
4072 63 64 63 74 81
4073 63 76 75 74 80
4074 63 76 75 74 81
4075 63 76 75 86 92
4076 63 76 75 86 93
4077 63 88 87 86 92
4078 63 88 87 86 93
4079 63 88 87 98 104
4080 63 88 87 98 105
4081 63 100 99 98 104
4082 63 100 99 98 105
4083 63 100 99 110 116
4084 63 100 99 110 117
4085 63 112 111 110 116
4086 63 112 111 110 117
4087 63 112 111 122 128
4088 63 112 111 122 129
4089 63 124 123 122 128
4090 63 124 123 122 129
4091 63 124 123 134 140
4092 63 124 123 134 141
4093 63 136 135 134 140
4094 63 136 135 134 141
4095 63 136 135 146 152
4096 63 136 135 146 153
4097 63 148 147 146 152
4098 63 148 147 146 153
4099 63 148 147 158 164
4100 63 148 147 158 165
4101 63 160 159 158 164
4102 63 160 159 158 165
4103 63 160 159 170 176
4104 63 160 159 170 177
4105 63 172 171 170 176
4106 63 172 171 170 177
4107 63 172 171 182 188
4108 63 172 171 182 189
4109 63 184 183 182 188
4110 63 184 183 182 189
4111 63 184 183 194 200
4112 63 184 183 194 201
4113 63 196 195 194 200
4114 63 196 195 194 201
4115 63 196 195 206 212
4116 63 196 195 206 213
4117 63 208 207 206 212
4118 63 208 207 206 213
4119 63 208 207 218 224
4120 63 208 207 218 225
4121 63 220 219 218 224
4122 63 220 219 218 225
4123 63 220 219 230 236
4124 63 220 219 230 237
4125 63 232 231 230 236
4126 63 232 231 230 237
4127 63 232 231 242 248
4128 63 232 231 242 249
4129 63 244 243 242 248
4130 63 244 243 242 249
4131 63 244 243 254 260
4132 63 244 243 254 261
4133 63 256 255 254 260
4134 63 256 255 254 261
4135 63 256 255 266 272
4136 63 256 255 266 273
4137 63 268 267 266 272
4138 63 268 267 266 273
4139 63 268 267 278 284
4140 63 268 267 278 285
4141 63 280 279 278 284
4142 63 280 279 278 285
4143 63 280 279 290 296
4144 63 280 279 290 297
4145 63 292 291 290 296
4146 63 292 291 290 297
4147 63 292 291 302 308
4148 63 292 291 302 309
4149 63 304 303 302 308
4150 63 304 303 302 309
4151 63 304 303 314 320
4152 63 304 303 314 321
4153 63 316 315 314 320
4154 63 316 315 314 321
4155 63 316 315 326 332
4156 63 316 315 326 333
4157 63 328 327 326 332
4158 63 328 327 326 333
4159 63 328 327 338 344
4160 63 328 327 338 345
4161 63 340 339 338 344
4162 63 340 339 338 345
4163 63 340 339 350 356
4164 63 340 339 350 357
4165 63 352 351 350 356
4166 63 352 351 350 357
4167 63 352 351 362 368
4168 63 352 351 362 369
4169 63 364 363 362 368
4170 63 364 363 362 369
4171 63 364 363 374 380
4172 63 364 363 374 381
4173 63 376 375 374 380
4174 63 376 375 374 381
4175 63 376 375 386 392
4176 63 376 375 386 393
4177 63 388 387 386 392
4178 63 388 387 386 393
4179 63 388 387 398 404
4180 63 388 387 398 405
4181 63 400 399 398 404
4182 63 400 399 398 405
4183 63 400 399 410 416
4184 63 400 399 410 417
4185 63 412 411 410 416
4186 63 412 411 410 417
4187 63 412 411 422 428
4188 63 412 411 422 429
4189 63 424 423 422 428
4190 63 424 423 422 429
4191 63 424 423 434 440
4192 63 424 423 434 441
4193 63 436 435 434 440
4194 63 436 435 434 441
4195 63 436 435 446 452
4196 63 436 435 446 453
4197 63 448 447 446 452
4198 63 448 447 446 453
4199 63 448 447 458 464
4200 63 448 447 458 465
4201 63 460 459 458 464
4202 63 460 459 458 465
4203 63 460 459 470 476
4204 63 460 459 470 477
4205 63 472 471 470 476
4206 63 472 471 470 477
4207 63 472 471 482 488
4208 63 472 471 482 489
4209 63 484 483 482 488
4210 63 484 483 482 489
4211 63 484 483 494 500
4212 63 484 483 494 501
4213 63 496 495 494 500
4214 63 496 495 494 501
4215 63 496 495 506 512
4216 63 496 495 506 513
4217 63 508 507 506 512
4218 63 508 507 506 513
4219 63 508 507 518 524
4220 63 508 507 518 525
4221 63 520 519 518 524
4222 63 520 519 518 525
4223 63 520 519 530 536
4224 63 520 519 530 537
4225 63 532 531 530 536
4226 63 532 531 530 537
4227 63 532 531 542 548
4228 63 532 531 542 549
4229 63 544 543 542 548
4230 63 544 543 542 549
4231 63 544 543 554 560
4232 63 544 543 554 561
4233 63 556 555 554 560
4234 63 556 555 554 561
4235 63 556 555 566 572
4236 63 556 555 566 573
4237 63 568 567 566 572
4238 63 568 567 566 573
4239 63 568 567 578 584
4240 63 568 567 578 585
4241 63 580 579 578 584
4242 63 580 579 578 585
4243 63 580 579 590 596
4244 63 580 579 590 597
4245 63 605 604 616 622
4246 63 605 604 616 623
4247 63 618 617 616 622
4248 63 618 617 616 623
4249 63 618 617 628 634
4250 63 618 617 628 635
4251 63 630 629 628 634
4252 63 630 629 628 635
4253 63 630 629 640 646
4254 63 630 629 640 647
4255 63 642 641 640 646
4256 63 642 641 640 647
4257 63 642 641 652 658
4258 63 642 641 652 659
4259 63 654 653 652 658
4260 63 654 653 652 659
4261 63 654 653 664 670
4262 63 654 653 664 671
4263 63 666 665 664 670
4264 63 666 665 664 671
4265 63 666 665 676 682
4266 63 666 665 676 683
4267 63 678 677 676 682
4268 63 678 677 676 683
4269 63 678 677 688 694
4270 63 678 677 688 695
4271 63 690 689 688 694
4272 63 690 689 688 695
4273 63 690 689 700 706
4274 63 690 689 700 707
4275 63 702 701 700 706
4276 63 702 701 700 707
4277 63 702 701 712 718
4278 63 702 701 712 719
4279 63 714 713 712 718
4280 63 714 713 712 719
4281 63 714 713 724 730
4282 63 714 713 724 731
4283 63 726 725 724 730
4284 63 726 725 724 731
4285 63 726 725 736 742
4286 63 726 725 736 743
4287 63 738 737 736 742
4288 63 738 737 736 743
4289 63 738 737 748 754
4290 63 738 737 748 755
4291 63 750 749 748 754
4292 63 750 749 748 755
4293 63 750 749 760 766
4294 63 750 749 760 767
4295 63 762 761 760 766
4296 63 762 761 760 767
4297 63 762 761 772 778
4298 63 762 761 772 779
4299 63 774 773 772 778
4300 63 774 773 772 779
4301 63 774 773 784 790
4302 63 774 773 784 791
4303 63 786 785 784 790
4304 63 786 785 784 791
4305 63 786 785 796 802
4306 63 786 785 796 803
4307 63 798 797 796 802
4308 63 798 797 796 803
4309 63 798 797 808 814
4310 63 798 797 808 815
4311 63 810 809 808 814
4312 63 810 809 808 815
4313 63 810 809 820 826
4314 63 810 809 820 827
4315 63 822 821 820 826
4316 63 822 821 820 827
4317 63 822 821 832 838
4318 63 822 821 832 839
4319 63 834 833 832 838
4320 63 834 833 832 839
4321 63 834 833 844 850
4322 63 834 833 844 851
4323 63 846 845 844 850
4324 63 846 845 844 851
4325 63 846 845 856 862
4326 63 846 845 856 863
4327 63 858 857 856 862
4328 63 858 857 856 863
4329 63 858 857 868 874
4330 63 858 857 868 875
4331 63 870 869 868 874
4332 63 870 869 868 875
4333 63 870 869 880 886
4334 63 870 869 880 887
4335 63 882 881 880 886
4336 63 882 881 880 887
4337 63 882 881 892 898
4338 63 882 881 892 899
4339 63 894 893 892 898
4340 63 894 893 892 899
4341 63 894 893 904 910
4342 63 894 893 904 911
4343 63 906 905 904 910
4344 63 906 905 904 911
4345 63 906 905 916 922
4346 63 906 905 916 923
4347 63 918 917 916 922
4348 63 918 917 916 923
4349 63 918 917 928 934
4350 63 918 917 928 935
4351 63 930 929 928 934
4352 63 930 929 928 935
4353 63 930 929 940 946
4354 63 930 929 940 947
4355 63 942 941 940 946
4356 63 942 941 940 947
4357 63 942 941 952 958
4358 63 942 941 952 959
4359 63 954 953 952 958
4360 63 954 953 952 959
4361 63 954 953 964 970
4362 63 954 953 964 971
4363 63 966 965 964 970
4364 63 966 965 964 971
4365 63 966 965 976 982
4366 63 966 965 976 983
4367 63 978 977 976 982
4368 63 978 977 976 983
4369 63 978 977 988 994
4370 63 978 977 988 995
4371 63 990 989 988 994
4372 63 990 989 988 995
4373 63 990 989 1000 1006
4374 63 990 989 1000 1007
4375 63 1002 1001 1000 1006
4376 63 1002 1001 1000 1007
4377 63 1002 1001 1012 1018
4378 63 1002 1001 1012 1019
4379 63 1014 1013 1012 1018
4380 63 1014 1013 1012 1019
4381 63 1014 1013 1024 1030
4382 63 1014 1013 1024 1031
4383 63 1026 1025 1024 1030
4384 63 1026 1025 1024 1031
4385 63 1026 1025 1036 1042
4386 63 1026 1025 1036 1043
4387 63 1038 1037 1036 1042
4388 63 1038 1037 1036 1043
4389 63 1038 1037 1048 1054
4390 63 1038 1037 1048 1055
4391 63 1050 1049 1048 1054
4392 63 1050 1049 1048 1055
4393 63 1050 1049 1060 1066
4394 63 1050 1049 1060 1067
4395 63 1062 1061 1060 1066
4396 63 1062 1061 1060 1067
4397 63 1062 1061 1072 1078
4398 63 1062 1061 1072 1079
4399 63 1074 1073 1072 1078
4400 63 1074 1073 1072 1079
4401 63 1074 1073 1084 1090
4402 63 1074 1073 1084 1091
4403 63 1086 1085 1084 1090
4404 63 1086 1085 1084 1091
4405 63 1086 1085 1096 1102
4406 63 1086 1085 1096 1103
4407 63 1098 1097 1096 1102
4408 63 1098 1097 1096 1103
4409 63 1098 1097 1108 1114
4410 63 1098 1097 1108 1115
4411 63 1110 1109 1108 1114
4412 63 1110 1109 1108 1115
4413 63 1110 1109 1120 1126
4414 63 1110 1109 1120 1127
4415 63 1122 1121 1120 1126
4416 63 1122 1121 1120 1127
4417 63 1122 1121 1132 1138
4418 63 1122 1121 1132 1139
4419 63 1134 1133 1132 1138
4420 63 1134 1133 1132 1139
4421 63 1134 1133 1144 1150
4422 63 1134 1133 1144 1151
4423 63 1146 1145 1144 1150
4424 63 1146 1145 1144 1151
4425 63 1146 1145 1156 1162
4426 63 1146 1145 1156 1163
4427 63 1158 1157 1156 1162
4428 63 1158 1157 1156 1163
4429 63 1158 1157 1168 1174
4430 63 1158 1157 1168 1175
4431 63 1170 1169 1168 1174
4432 63 1170 1169 1168 1175
4433 63 1170 1169 1180 1186
4434 63 1170 1169 1180 1187
4435 63 1182 1181 1180 1186
4436 63 1182 1181 1180 1187
4437 63 1182 1181 1192 1198
4438 63 1182 1181 1192 1199
4439 63 1207 1206 1218 1224
4440 63 1207 1206 1218 1225
4441 63 1220 1219 1218 1224
4442 63 1220 1219 1218 1225
4443 63 1220 1219 1230 1236
4444 63 1220 1219 1230 1237
4445 63 1232 1231 1230 1236
4446 63 1232 1231 1230 1237
4447 63 1232 1231 1242 1248
4448 63 1232 1231 1242 1249
4449 63 1244 1243 1242 1248
4450 63 1244 1243 1242 1249
4451 63 1244 1243 1254 1260
4452 63 1244 1243 1254 1261
4453 63 1256 1255 1254 1260
4454 63 1256 1255 1254 1261
4455 63 1256 1255 1266 1272
4456 63 1256 1255 1266 1273
4457 63 1268 1267 1266 1272
4458 63 1268 1267 1266 1273
4459 63 1268 1267 1278 1284
4460 63 1268 1267 1278 1285
4461 63 1280 1279 1278 1284
4462 63 1280 1279 1278 1285
4463 63 1280 1279 1290 1296
4464 63 1280 1279 1290 1297
4465 63 1292 1291 1290 1296
4466 63 1292 1291 1290 1297
4467 63 1292 1291 1302 1308
4468 63 1292 1291 1302 1309
4469 63 1304 1303 1302 1308
4470 63 1304 1303 1302 1309
4471 63 1304 1303 1314 1320
4472 63 1304 1303 1314 1321
4473 63 1316 1315 1314 1320
4474 63 1316 1315 1314 1321
4475 63 1316 1315 1326 1332
4476 63 1316 1315 1326 1333
4477 63 1328 1327 1326 1332
4478 63 1328 1327 1326 1333
4479 63 1328 1327 1338 1344
4480 63 1328 1327 1338 1345
4481 63 1340 1339 1338 1344
4482 63 1340 1339 1338 1345
4483 63 1340 1339 1350 1356
4484 63 1340 1339 1350 1357
4485 63 1352 1351 1350 1356
4486 63 1352 1351 1350 1357
4487 63 1352 1351 1362 1368
4488 63 1352 1351 1362 1369
4489 63 1364 1363 1362 1368
4490 63 1364 1363 1362 1369
4491 63 1364 1363 1374 1380
4492 63 1364 1363 1374 1381
4493 63 1376 1375 1374 1380
4494 63 1376 1375 1374 1381
4495 63 1376 1375 1386 1392
4496 63 1376 1375 1386 1393
4497 63 1388 1387 1386 1392
4498 63 1388 1387 1386 1393
4499 63 1388 1387 1398 1404
4500 63 1388 1387 1398 1405
4501 63 1400 1399 1398 1404
4502 63 1400 1399 1398 1405
4503 63 1400 1399 1410 1416
4504 63 1400 1399 1410 1417
4505 63 1412 1411 1410 1416
4506 63 1412 1411 1410 1417
4507 63 1412 1411 1422 1428
4508 63 1412 1411 1422 1429
4509 63 1424 1423 1422 1428
4510 63 1424 1423 1422 1429
4511 63 1424 1423 1434 1440
4512 63 1424 1423 1434 1441
4513 63 1436 1435 1434 1440
4514 63 1436 1435 1434 1441
4515 63 1436 1435 1446 1452
4516 63 1436 1435 1446 1453
4517 63 1448 1447 1446 1452
4518 63 1448 1447 1446 1453
4519 63 1448 1447 1458 1464
4520 63 1448 1447 1458 1465
4521 63 1460 1459 1458 1464
4522 63 1460 1459 1458 1465
4523 63 1460 1459 1470 1476
4524 63 1460 1459 1470 1477
4525 63 1472 1471 1470 1476
4526 63 1472 1471 1470 1477
4527 63 1472 1471 1482 1488
4528 63 1472 1471 1482 1489
4529 63 1484 1483 1482 1488
4530 63 1484 1483 1482 1489
4531 63 1484 1483 1494 1500
4532 63 1484 1483 1494 1501
4533 63 1496 1495 1494 1500
4534 63 1496 1495 1494 1501
4535 63 1496 1495 1506 1512
4536 63 1496 1495 1506 1513
4537 63 1508 1507 1506 1512
4538 63 1508 1507 1506 1513
4539 63 1508 1507 1518 1524
4540 63 1508 1507 1518 1525
4541 63 1520 1519 1518 1524
4542 63 1520 1519 1518 1525
4543 63 1520 1519 1530 1536
4544 63 1520 1519 1530 1537
4545 63 1532 1531 1530 1536
4546 63 1532 1531 1530 1537
4547 63 1532 1531 1542 1548
4548 63 1532 1531 1542 1549
4549 63 1544 1543 1542 1548
4550 63 1544 1543 1542 1549
4551 63 1544 1543 1554 1560
4552 63 1544 1543 1554 1561
4553 63 1556 1555 1554 1560
4554 63 1556 1555 1554 1561
4555 63 1556 1555 1566 1572
4556 63 1556 1555 1566 1573
4557 63 1568 1567 1566 1572
4558 63 1568 1567 1566 1573
4559 63 1568 1567 1578 1584
4560 63 1568 1567 1578 1585
4561 63 1580 1579 1578 1584
4562 63 1580 1579 1578 1585
4563 63 1580 1579 1590 1596
4564 63 1580 1579 1590 1597
4565 63 1592 1591 1590 1596
4566 63 1592 1591 1590 1597
4567 63 1592 1591 1602 1608
4568 63 1592 1591 1602 1609
4569 63 1604 1603 1602 1608
4570 63 1604 1603 1602 1609
4571 63 1604 1603 1614 1620
4572 63 1604 1603 1614 1621
4573 63 1616 1615 1614 1620
4574 63 1616 1615 1614 1621
4575 63 1616 1615 1626 1632
4576 63 1616 1615 1626 1633
4577 63 1628 1627 1626 1632
4578 63 1628 1627 1626 1633
4579 63 1628 1627 1638 1644
4580 63 1628 1627 1638 1645
4581 63 1640 1639 1638 1644
4582 63 1640 1639 1638 1645
4583 63 1640 1639 1650 1656
4584 63 1640 1639 1650 1657
4585 63 1652 1651 1650 1656
4586 63 1652 1651 1650 1657
4587 63 1652 1651 1662 1668
4588 63 1652 1651 1662 1669
4589 63 1664 1663 1662 1668
4590 63 1664 1663 1662 1669
4591 63 1664 1663 1674 1680
4592 63 1664 1663 1674 1681
4593 63 1676 1675 1674 1680
4594 63 1676 1675 1674 1681
4595 63 1676 1675 1686 1692
4596 63 1676 1675 1686 1693
4597 63 1688 1687 1686 1692
4598 63 1688 1687 1686 1693
4599 63 1688 1687 1698 1704
4600 63 1688 1687 1698 1705
4601 63 1700 1699 1698 1704
4602 63 1700 1699 1698 1705
4603 63 1700 1699 1710 1716
4604 63 1700 1699 1710 1717
4605 63 1712 1711 1710 1716
4606 63 1712 1711 1710 1717
4607 63 1712 1711 1722 1728
4608 63 1712 1711 1722 1729
4609 63 1724 1723 1722 1728
4610 63 1724 1723 1722 1729
4611 63 1724 1723 1734 1740
4612 63 1724 1723 1734 1741
4613 63 1736 1735 1734 1740
4614 63 1736 1735 1734 1741
4615 63 1736 1735 1746 1752
4616 63 1736 1735 1746 1753
4617 63 1748 1747 1746 1752
4618 63 1748 1747 1746 1753
4619 63 1748 1747 1758 1764
4620 63 1748 1747 1758 1765
4621 63 1760 1759 1758 1764
4622 63 1760 1759 1758 1765
4623 63 1760 1759 1770 1776
4624 63 1760 1759 1770 1777
4625 63 1772 1771 1770 1776
4626 63 1772 1771 1770 1777
4627 63 1772 1771 1782 1788
4628 63 1772 1771 1782 1789
4629 63 1784 1783 1782 1788
4630 63 1784 1783 1782 1789
4631 63 1784 1783 1794 1800
4632 63 1784 1783 1794 1801
4633 63 1809 1808 1820 1826
4634 63 1809 1808 1820 1827
4635 63 1822 1821 1820 1826
4636 63 1822 1821 1820 1827
4637 63 1822 1821 1832 1838
4638 63 1822 1821 1832 1839
4639 63 1834 1833 1832 1838
4640 63 1834 1833 1832 1839
4641 63 1834 1833 1844 1850
4642 63 1834 1833 1844 1851
4643 63 1846 1845 1844 1850
4644 63 1846 1845 1844 1851
4645 63 1846 1845 1856 1862
4646 63 1846 1845 1856 1863
4647 63 1858 1857 1856 1862
4648 63 1858 1857 1856 1863
4649 63 1858 1857 1868 1874
4650 63 1858 1857 1868 1875
4651 63 1870 1869 1868 1874
4652 63 1870 1869 1868 1875
4653 63 1870 1869 1880 1886
4654 63 1870 1869 1880 1887
4655 63 1882 1881 1880 1886
4656 63 1882 1881 1880 1887
4657 63 1882 1881 1892 1898
4658 63 1882 1881 1892 1899
4659 63 1894 1893 1892 1898
4660 63 1894 1893 1892 1899
4661 63 1894 1893 1904 1910
4662 63 1894 1893 1904 1911
4663 63 1906 1905 1904 1910
4664 63 1906 1905 1904 1911
4665 63 1906 1905 1916 1922
4666 63 1906 1905 1916 1923
4667 63 1918 1917 1916 1922
4668 63 1918 1917 1916 1923
4669 63 1918 1917 1928 1934
4670 63 1918 1917 1928 1935
4671 63 1930 1929 1928 1934
4672 63 1930 1929 1928 1935
4673 63 1930 1929 1940 1946
4674 63 1930 1929 1940 1947
4675 63 1942 1941 1940 1946
4676 63 1942 1941 1940 1947
4677 63 1942 1941 1952 1958
4678 63 1942 1941 1952 1959
4679 63 1954 1953 1952 1958
4680 63 1954 1953 1952 1959
4681 63 1954 1953 1964 1970
4682 63 1954 1953 1964 1971
4683 63 1966 1965 1964 1970
4684 63 1966 1965 1964 1971
4685 63 1966 1965 1976 1982
4686 63 1966 1965 1976 1983
4687 63 1978 1977 1976 1982
4688 63 1978 1977 1976 1983
4689 63 1978 1977 1988 1994
4690 63 1978 1977 1988 1995
4691 63 1990 1989 1988 1994
4692 63 1990 1989 1988 1995
4693 63 1990 1989 2000 2006
4694 63 1990 1989 2000 2007
4695 63 2002 2001 2000 2006
4696 63 2002 2001 2000 2007
4697 63 2002 2001 2012 2018
4698 63 2002 2001 2012 2019
4699 63 2014 2013 2012 2018
4700 63 2014 2013 2012 2019
4701 63 2014 2013 2024 2030
4702 63 2014 2013 2024 2031
4703 63 2026 2025 2024 2030
4704 63 2026 2025 2024 2031
4705 63 2026 2025 2036 2042
4706 63 2026 2025 2036 2043
4707 63 2038 2037 2036 2042
4708 63 2038 2037 2036 2043
4709 63 2038 2037 2048 2054
4710 63 2038 2037 2048 2055
4711 63 2050 2049 2048 2054
4712 63 2050 2049 2048 2055
4713 63 2050 2049 2060 2066
4714 63 2050 2049 2060 2067
4715 63 2062 2061 2060 2066
4716 63 2062 2061 2060 2067
4717 63 2062 2061 2072 2078
4718 63 2062 2061 2072 2079
4719 63 2074 2073 2072 2078
4720 63 2074 2073 2072 2079
4721 63 2074 2073 2084 2090
4722 63 2074 2073 2084 2091
4723 63 2086 2085 2084 2090
4724 63 2086 2085 2084 2091
4725 63 2086 2085 2096 2102
4726 63 2086 2085 2096 2103
4727 63 2098 2097 2096 2102
4728 63 2098 2097 2096 2103
4729 63 2098 2097 2108 2114
4730 63 2098 2097 2108 2115
4731 63 2110 2109 2108 2114
4732 63 2110 2109 2108 2115
4733 63 2110 2109 2120 2126
4734 63 2110 2109 2120 2127
4735 63 2122 2121 2120 2126
4736 63 2122 2121 2120 2127
4737 63 2122 2121 2132 2138
4738 63 2122 2121 2132 2139
4739 63 2134 2133 2132 2138
4740 63 2134 2133 2132 2139
4741 63 2134 2133 2144 2150
4742 63 2134 2133 2144 2151
4743 63 2146 2145 2144 2150
4744 63 2146 2145 2144 2151
4745 63 2146 2145 2156 2162
4746 63 2146 2145 2156 2163
4747 63 2158 2157 2156 2162
4748 63 2158 2157 2156 2163
4749 63 2158 2157 2168 2174
4750 63 2158 2157 2168 2175
4751 63 2170 2169 2168 2174
4752 63 2170 2169 2168 2175
4753 63 2170 2169 2180 2186
4754 63 2170 2169 2180 2187
4755 63 2182 2181 2180 2186
4756 63 2182 2181 2180 2187
4757 63 2182 2181 2192 2198
4758 63 2182 2181 2192 2199
4759 63 2194 2193 2192 2198
4760 63 2194 2193 2192 2199
4761 63 2194 2193 2204 2210
4762 63 2194 2193 2204 2211
4763 63 2206 2205 2204 2210
4764 63 2206 2205 2204 2211
4765 63 2206 2205 2216 2222
4766 63 2206 2205 2216 2223
4767 63 2218 2217 2216 2222
4768 63 2218 2217 2216 2223
4769 63 2218 2217 2228 2234
4770 63 2218 2217 2228 2235
4771 63 2230 2229 2228 2234
4772 63 2230 2229 2228 2235
4773 63 2230 2229 2240 2246
4774 63 2230 2229 2240 2247
4775 63 2242 2241 2240 2246
4776 63 2242 2241 2240 2247
4777 63 2242 2241 2252 2258
4778 63 2242 2241 2252 2259
4779 63 2254 2253 2252 2258
4780 63 2254 2253 2252 2259
4781 63 2254 2253 2264 2270
4782 63 2254 2253 2264 2271
4783 63 2266 2265 2264 2270
4784 63 2266 2265 2264 2271
4785 63 2266 2265 2276 2282
4786 63 2266 2265 2276 2283
4787 63 2278 2277 2276 2282
4788 63 2278 2277 2276 2283
4789 63 2278 2277 2288 2294
4790 63 2278 2277 2288 2295
4791 63 2290 2289 2288 2294
4792 63 2290 2289 2288 2295
4793 63 2290 2289 2300 2306
4794 63 2290 2289 2300 2307
4795 63 2302 2301 2300 2306
4796 63 2302 2301 2300 2307
4797 63 2302 2301 2312 2318
4798 63 2302 2301 2312 2319
4799 63 2314 2313 2312 2318
4800 63 2314 2313 2312 2319
4801 63 2314 2313 2324 2330
4802 63 2314 2313 2324 2331
4803 63 2326 2325 2324 2330
4804 63 2326 2325 2324 2331
4805 63 2326 2325 2336 2342
4806 63 2326 2325 2336 2343
4807 63 2338 2337 2336 2342
4808 63 2338 2337 2336 2343
4809 63 2338 2337 2348 2354
4810 63 2338 2337 2348 2355
4811 63 2350 2349 2348 2354
4812 63 2350 2349 2348 2355
4813 63 2350 2349 2360 2366
4814 63 2350 2349 2360 2367
4815 63 2362 2361 2360 2366
4816 63 2362 2361 2360 2367
4817 63 2362 2361 2372 2378
4818 63 2362 2361 2372 2379
4819 63 2374 2373 2372 2378
4820 63 2374 2373 2372 2379
4821 63 2374 2373 2384 2390
4822 63 2374 2373 2384 2391
4823 63 2386 2385 2384 2390
4824 63 2386 2385 2384 2391
4825 63 2386 2385 2396 2402
4826 63 2386 2385 2396 2403
4827 63 2411 2410 2422 2428
4828 63 2411 2410 2422 2429
4829 63 2424 2423 2422 2428
4830 63 2424 2423 2422 2429
4831 63 2424 2423 2434 2440
4832 63 2424 2423 2434 2441
4833 63 2436 2435 2434 2440
4834 63 2436 2435 2434 2441
4835 63 2436 2435 2446 2452
4836 63 2436 2435 2446 2453
4837 63 2448 2447 2446 2452
4838 63 2448 2447 2446 2453
4839 63 2448 2447 2458 2464
4840 63 2448 2447 2458 2465
4841 63 2460 2459 2458 2464
4842 63 2460 2459 2458 2465
4843 63 2460 2459 2470 2476
4844 63 2460 2459 2470 2477
4845 63 2472 2471 2470 2476
4846 63 2472 2471 2470 2477
4847 63 2472 2471 2482 2488
4848 63 2472 2471 2482 2489
4849 63 2484 2483 2482 2488
4850 63 2484 2483 2482 2489
4851 63 2484 2483 2494 2500
4852 63 2484 2483 2494 2501
4853 63 2496 2495 2494 2500
4854 63 2496 2495 2494 2501
4855 63 2496 2495 2506 2512
4856 63 2496 2495 2506 2513
4857 63 2508 2507 2506 2512
4858 63 2508 2507 2506 2513
4859 63 2508 2507 2518 2524
4860 63 2508 2507 2518 2525
4861 63 2520 2519 2518 2524
4862 63 2520 2519 2518 2525
4863 63 2520 2519 2530 2536
4864 63 2520 2519 2530 2537
4865 63 2532 2531 2530 2536
4866 63 2532 2531 2530 2537
4867 63 2532 2531 2542 2548
4868 63 2532 2531 2542 2549
4869 63 2544 2543 2542 2548
4870 63 2544 2543 2542 2549
4871 63 2544 2543 2554 2560
4872 63 2544 2543 2554 2561
4873 63 2556 2555 2554 2560
4874 63 2556 2555 2554 2561
4875 63 2556 2555 2566 2572
4876 63 2556 2555 2566 2573
4877 63 2568 2567 2566 2572
4878 63 2568 2567 2566 2573
4879 63 2568 2567 2578 2584
4880 63 2568 2567 2578 2585
4881 63 2580 2579 2578 2584
4882 63 2580 2579 2578 2585
4883 63 2580 2579 2590 2596
4884 63 2580 2579 2590 2597
4885 63 2592 2591 2590 2596
4886 63 2592 2591 2590 2597
4887 63 2592 2591 2602 2608
4888 63 2592 2591 2602 2609
4889 63 2604 2603 2602 2608
4890 63 2604 2603 2602 2609
4891 63 2604 2603 2614 2620
4892 63 2604 2603 2614 2621
4893 63 2616 2615 2614 2620
4894 63 2616 2615 2614 2621
4895 63 2616 2615 2626 2632
4896 63 2616 2615 2626 2633
4897 63 2628 2627 2626 2632
4898 63 2628 2627 2626 2633
4899 63 2628 2627 2638 2644
4900 63 2628 2627 2638 2645
4901 63 2640 2639 2638 2644
4902 63 2640 2639 2638 2645
4903 63 2640 2639 2650 2656
4904 63 2640 2639 2650 2657
4905 63 2652 2651 2650 2656
4906 63 2652 2651 2650 2657
4907 63 2652 2651 2662 2668
4908 63 2652 2651 2662 2669
4909 63 2664 2663 2662 2668
4910 63 2664 2663 2662 2669
4911 63 2664 2663 2674 2680
4912 63 2664 2663 2674 2681
4913 63 2676 2675 2674 2680
4914 63 2676 2675 2674 2681
4915 63 2676 2675 2686 2692
4916 63 2676 2675 2686 2693
4917 63 2688 2687 2686 2692
4918 63 2688 2687 2686 2693
4919 63 2688 2687 2698 2704
4920 63 2688 2687 2698 2705
4921 63 2700 2699 2698 2704
4922 63 2700 2699 2698 2705
4923 63 2700 2699 2710 2716
4924 63 2700 2699 2710 2717
4925 63 2712 2711 2710 2716
4926 63 2712 2711 2710 2717
4927 63 2712 2711 2722 2728
4928 63 2712 2711 2722 2729
4929 63 2724 2723 2722 2728
4930 63 2724 2723 2722 2729
4931 63 2724 2723 2734 2740
4932 63 2724 2723 2734 2741
4933 63 2736 2735 2734 2740
4934 63 2736 2735 2734 2741
4935 63 2736 2735 2746 2752
4936 63 2736 2735 2746 2753
4937 63 2748 2747 2746 2752
4938 63 2748 2747 2746 2753
4939 63 2748 2747 2758 2764
4940 63 2748 2747 2758 2765
4941 63 2760 2759 2758 2764
4942 63 2760 2759 2758 2765
4943 63 2760 2759 2770 2776
4944 63 2760 2759 2770 2777
4945 63 2772 2771 2770 2776
4946 63 2772 2771 2770 2777
4947 63 2772 2771 2782 2788
4948 63 2772 2771 2782 2789
4949 63 2784 2783 2782 2788
4950 63 2784 2783 2782 2789
4951 63 2784 2783 2794 2800
4952 63 2784 2783 2794 2801
4953 63 2796 2795 2794 2800
4954 63 2796 2795 2794 2801
4955 63 2796 2795 2806 2812
4956 63 2796 2795 2806 2813
4957 63 2808 2807 2806 2812
4958 63 2808 2807 2806 2813
4959 63 2808 2807 2818 2824
4960 63 2808 2807 2818 2825
4961 63 2820 2819 2818 2824
4962 63 2820 2819 2818 2825
4963 63 2820 2819 2830 2836
4964 63 2820 2819 2830 2837
4965 63 2832 2831 2830 2836
4966 63 2832 2831 2830 2837
4967 63 2832 2831 2842 2848
4968 63 2832 2831 2842 2849
4969 63 2844 2843 2842 2848
4970 63 2844 2843 2842 2849
4971 63 2844 2843 2854 2860
4972 63 2844 2843 2854 2861
4973 63 2856 2855 2854 2860
4974 63 2856 2855 2854 2861
4975 63 2856 2855 2866 2872
4976 63 2856 2855 2866 2873
4977 63 2868 2867 2866 2872
4978 63 2868 2867 2866 2873
4979 63 2868 2867 2878 2884
4980 63 2868 2867 2878 2885
4981 63 2880 2879 2878 2884
4982 63 2880 2879 2878 2885
4983 63 2880 2879 2890 2896
4984 63 2880 2879 2890 2897
4985 63 2892 2891 2890 2896
4986 63 2892 2891 2890 2897
4987 63 2892 2891 2902 2908
4988 63 2892 2891 2902 2909
4989 63 2904 2903 2902 2908
4990 63 2904 2903 2902 2909
4991 63 2904 2903 2914 2920
4992 63 2904 2903 2914 2921
4993 63 2916 2915 2914 2920
4994 63 2916 2915 2914 2921
4995 63 2916 2915 2926 2932
4996 63 2916 2915 2926 2933
4997 63 2928 2927 2926 2932
4998 63 2928 2927 2926 2933
4999 63 2928 2927 2938 2944
5000 63 2928 2927 2938 2945
5001 63 2940 2939 2938 2944
5002 63 2940 2939 2938 2945
5003 63 2940 2939 2950 2956
5004 63 2940 2939 2950 2957
5005 63 2952 2951 2950 2956
5006 63 2952 2951 2950 2957
5007 63 2952 2951 2962 2968
5008 63 2952 2951 2962 2969
5009 63 2964 2963 2962 2968
5010 63 2964 2963 2962 2969
5011 63 2964 2963 2974 2980
5012 63 2964 2963 2974 2981
5013 63 2976 2975 2974 2980
5014 63 2976 2975 2974 2981
5015 63 2976 2975 2986 2992
5016 63 2976 2975 2986 2993
5017 63 2988 2987 2986 2992
5018 63 2988 2987 2986 2993
5019 63 2988 2987 2998 3004
5020 63 2988 2987 2998 3005
5021 63 3013 3012 3024 3030
5022 63 3013 3012 3024 3031
5023 63 3026 3025 3024 3030
5024 63 3026 3025 3024 3031
5025 63 3026 3025 3036 3042
5026 63 3026 3025 3036 3043
5027 63 3038 3037 3036 3042
5028 63 3038 3037 3036 3043
5029 63 3038 3037 3048 3054
5030 63 3038 3037 3048 3055
5031 63 3050 3049 3048 3054
5032 63 3050 3049 3048 3055
5033 63 3050 3049 3060 3066
5034 63 3050 3049 3060 3067
5035 63 3062 3061 3060 3066
5036 63 3062 3061 3060 3067
5037 63 3062 3061 3072 3078
5038 63 3062 3061 3072 3079
5039 63 3074 3073 3072 3078
5040 63 3074 3073 3072 3079
5041 63 3074 3073 3084 3090
5042 63 3074 3073 3084 3091
5043 63 3086 3085 3084 3090
5044 63 3086 3085 3084 3091
5045 63 3086 3085 3096 3102
5046 63 3086 3085 3096 3103
5047 63 3098 3097 3096 3102
5048 63 3098 3097 3096 3103
5049 63 3098 3097 3108 3114
5050 63 3098 3097 3108 3115
5051 63 3110 3109 3108 3114
5052 63 3110 3109 3108 3115
5053 63 3110 3109 3120 3126
5054 63 3110 3109 3120 3127
5055 63 3122 3121 3120 3126
5056 63 3122 3121 3120 3127
5057 63 3122 3121 3132 3138
5058 63 3122 3121 3132 3139
5059 63 3134 3133 3132 3138
5060 63 3134 3133 3132 3139
5061 63 3134 3133 3144 3150
5062 63 3134 3133 3144 3151
5063 63 3146 3145 3144 3150
5064 63 3146 3145 3144 3151
5065 63 3146 3145 3156 3162
5066 63 3146 3145 3156 3163
5067 63 3158 3157 3156 3162
5068 63 3158 3157 3156 3163
5069 63 3158 3157 3168 3174
5070 63 3158 3157 3168 3175
5071 63 3170 3169 3168 3174
5072 63 3170 3169 3168 3175
5073 63 3170 3169 3180 3186
5074 63 3170 3169 3180 3187
5075 63 3182 3181 3180 3186
5076 63 3182 3181 3180 3187
5077 63 3182 3181 3192 3198
5078 63 3182 3181 3192 3199
5079 63 3194 3193 3192 3198
5080 63 3194 3193 3192 3199
5081 63 3194 3193 3204 3210
5082 63 3194 3193 3204 3211
5083 63 3206 3205 3204 3210
5084 63 3206 3205 3204 3211
5085 63 3206 3205 3216 3222
5086 63 3206 3205 3216 3223
5087 63 3218 3217 3216 3222
5088 63 3218 3217 3216 3223
5089 63 3218 3217 3228 3234
5090 63 3218 3217 3228 3235
5091 63 3230 3229 3228 3234
5092 63 3230 3229 3228 3235
5093 63 3230 3229 3240 3246
5094 63 3230 3229 3240 3247
5095 63 3242 3241 3240 3246
5096 63 3242 3241 3240 3247
5097 63 3242 3241 3252 3258
5098 63 3242 3241 3252 3259
5099 63 3254 3253 3252 3258
5100 63 3254 3253 3252 3259
5101 63 3254 3253 3264 3270
5102 63 3254 3253 3264 3271
5103 63 3266 3265 3264 3270
5104 63 3266 3265 3264 3271
5105 63 3266 3265 3276 3282
5106 63 3266 3265 3276 3283
5107 63 3278 3277 3276 3282
5108 63 3278 3277 3276 3283
5109 63 3278 3277 3288 3294
5110 63 3278 3277 3288 3295
5111 63 3290 3289 3288 3294
5112 63 3290 3289 3288 3295
5113 63 3290 3289 3300 3306
5114 63 3290 3289 3300 3307
5115 63 3302 3301 3300 3306
5116 63 3302 3301 3300 3307
5117 63 3302 3301 3312 3318
5118 63 3302 3301 3312 3319
5119 63 3314 3313 3312 3318
5120 63 3314 3313 3312 3319
5121 63 3314 3313 3324 3330
5122 63 3314 3313 3324 3331
5123 63 3326 3325 3324 3330
5124 63 3326 3325 3324 3331
5125 63 3326 3325 3336 3342
5126 63 3326 3325 3336 3343
5127 63 3338 3337 3336 3342
5128 63 3338 3337 3336 3343
5129 63 3338 3337 3348 3354
5130 63 3338 3337 3348 3355
5131 63 3350 3349 3348 3354
5132 63 3350 3349 3348 3355
5133 63 3350 3349 3360 3366
5134 63 3350 3349 3360 3367
5135 63 3362 3361 3360 3366
5136 63 3362 3361 3360 3367
5137 63 3362 3361 3372 3378
5138 63 3362 3361 3372 3379
5139 63 3374 3373 3372 3378
5140 63 3374 3373 3372 3379
5141 63 3374 3373 3384 3390
5142 63 3374 3373 3384 3391
5143 63 3386 3385 3384 3390
5144 63 3386 3385 3384 3391
5145 63 3386 3385 3396 3402
5146 63 3386 3385 3396 3403
5147 63 3398 3397 3396 3402
5148 63 3398 3397 3396 3403
5149 63 3398 3397 3408 3414
5150 63 3398 3397 3408 3415
5151 63 3410 3409 3408 3414
5152 63 3410 3409 3408 3415
5153 63 3410 3409 3420 3426
5154 63 3410 3409 3420 3427
5155 63 3422 3421 3420 3426
5156 63 3422 3421 3420 3427
5157 63 3422 3421 3432 3438
5158 63 3422 3421 3432 3439
5159 63 3434 3433 3432 3438
5160 63 3434 3433 3432 3439
5161 63 3434 3433 3444 3450
5162 63 3434 3433 3444 3451
5163 63 3446 3445 3444 3450
5164 63 3446 3445 3444 3451
5165 63 3446 3445 3456 3462
5166 63 3446 3445 3456 3463
5167 63 3458 3457 3456 3462
5168 63 3458 3457 3456 3463
5169 63 3458 3457 3468 3474
5170 63 3458 3457 3468 3475
5171 63 3470 3469 3468 3474
5172 63 3470 3469 3468 3475
5173 63 3470 3469 3480 3486
5174 63 3470 3469 3480 3487
5175 63 3482 3481 3480 3486
5176 63 3482 3481 3480 3487
5177 63 3482 3481 3492 3498
5178 63 3482 3481 3492 3499
5179 63 3494 3493 3492 3498
5180 63 3494 3493 3492 3499
5181 63 3494 3493 3504 3510
5182 63 3494 3493 3504 3511
5183 63 3506 3505 3504 3510
5184 63 3506 3505 3504 3511
5185 63 3506 3505 3516 3522
5186 63 3506 3505 3516 3523
5187 63 3518 3517 3516 3522
5188 63 3518 3517 3516 3523
5189 63 3518 3517 3528 3534
5190 63 3518 3517 3528 3535
5191 63 3530 3529 3528 3534
5192 63 3530 3529 3528 3535
5193 63 3530 3529 3540 3546
5194 63 3530 3529 3540 3547
5195 63 3542 3541 3540 3546
5196 63 3542 3541 3540 3547
5197 63 3542 3541 3552 3558
5198 63 3542 3541 3552 3559
5199 63 3554 3553 3552 3558
5200 63 3554 3553 3552 3559
5201 63 3554 3553 3564 3570
5202 63 3554 3553 3564 3571
5203 63 3566 3565 3564 3570
5204 63 3566 3565 3564 3571
5205 63 3566 3565 3576 3582
5206 63 3566 3565 3576 3583
5207 63 3578 3577 3576 3582
5208 63 3578 3577 3576 3583
5209 63 3578 3577 3588 3594
5210 63 3578 3577 3588 3595
5211 63 3590 3589 3588 3594
5212 63 3590 3589 3588 3595
5213 63 3590 3589 3600 3606
5214 63 3590 3589 3600 3607
5215 63 3615 3614 3626 3632
5216 63 3615 3614 3626 3633
5217 63 3628 3627 3626 3632
5218 63 3628 3627 3626 3633
5219 63 3628 3627 3638 3644
5220 63 3628 3627 3638 3645
5221 63 3640 3639 3638 3644
5222 63 3640 3639 3638 3645
5223 63 3640 3639 3650 3656
5224 63 3640 3639 3650 3657
5225 63 3652 3651 3650 3656
5226 63 3652 3651 3650 3657
5227 63 3652 3651 3662 3668
5228 63 3652 3651 3662 3669
5229 63 3664 3663 3662 3668
5230 63 3664 3663 3662 3669
5231 63 3664 3663 3674 3680
5232 63 3664 3663 3674 3681
5233 63 3676 3675 3674 3680
5234 63 3676 3675 3674 3681
5235 63 3676 3675 3686 3692
5236 63 3676 3675 3686 3693
5237 63 3688 3687 3686 3692
5238 63 3688 3687 3686 3693
5239 63 3688 3687 3698 3704
5240 63 3688 3687 3698 3705
5241 63 3700 3699 3698 3704
5242 63 3700 3699 3698 3705
5243 63 3700 3699 3710 3716
5244 63 3700 3699 3710 3717
5245 63 3712 3711 3710 3716
5246 63 3712 3711 3710 3717
5247 63 3712 3711 3722 3728
5248 63 3712 3711 3722 3729
5249 63 3724 3723 3722 3728
5250 63 3724 3723 3722 3729
5251 63 3724 3723 3734 3740
5252 63 3724 3723 3734 3741
5253 63 3736 3735 3734 3740
5254 63 3736 3735 3734 3741
5255 63 3736 3735 3746 3752
5256 63 3736 3735 3746 3753
5257 63 3748 3747 3746 3752
5258 63 3748 3747 3746 3753
5259 63 3748 3747 3758 3764
5260 63 3748 3747 3758 3765
5261 63 3760 3759 3758 3764
5262 63 3760 3759 3758 3765
5263 63 3760 3759 3770 3776
5264 63 3760 3759 3770 3777
5265 63 3772 3771 3770 3776
5266 63 3772 3771 3770 3777
5267 63 3772 3771 3782 3788
5268 63 3772 3771 3782 3789
5269 63 3784 3783 3782 3788
5270 63 3784 3783 3782 3789
5271 63 3784 3783 3794 3800
5272 63 3784 3783 3794 3801
5273 63 3796 3795 3794 3800
5274 63 3796 3795 3794 3801
5275 63 3796 3795 3806 3812
5276 63 3796 3795 3806 3813
5277 63 3808 3807 3806 3812
5278 63 3808 3807 3806 3813
5279 63 3808 3807 3818 3824
5280 63 3808 3807 3818 3825
5281 63 3820 3819 3818 3824
5282 63 3820 3819 3818 3825
5283 63 3820 3819 3830 3836
5284 63 3820 3819 3830 3837
5285 63 3832 3831 3830 3836
5286 63 3832 3831 3830 3837
5287 63 3832 3831 3842 3848
5288 63 3832 3831 3842 3849
5289 63 3844 3843 3842 3848
5290 63 3844 3843 3842 3849
5291 63 3844 3843 3854 3860
5292 63 3844 3843 3854 3861
5293 63 3856 3855 3854 3860
5294 63 3856 3855 3854 3861
5295 63 3856 3855 3866 3872
5296 63 3856 3855 3866 3873
5297 63 3868 3867 3866 3872
5298 63 3868 3867 3866 3873
5299 63 3868 3867 3878 3884
5300 63 3868 3867 3878 3885
5301 63 3880 3879 3878 3884
5302 63 3880 3879 3878 3885
5303 63 3880 3879 3890 3896
5304 63 3880 3879 3890 3897
5305 63 3892 3891 3890 3896
5306 63 3892 3891 3890 3897
5307 63 3892 3891 3902 3908
5308 63 3892 3891 3902 3909
5309 63 3904 3903 3902 3908
5310 63 3904 3903 3902 3909
5311 63 3904 3903 3914 3920
5312 63 3904 3903 3914 3921
5313 63 3916 3915 3914 3920
5314 63 3916 3915 3914 3921
5315 63 3916 3915 3926 3932
5316 63 3916 3915 3926 3933
5317 63 3928 3927 3926 3932
5318 63 3928 3927 3926 3933
5319 63 3928 3927 3938 3944
5320 63 3928 3927 3938 3945
5321 63 3940 3939 3938 3944
5322 63 3940 3939 3938 3945
5323 63 3940 3939 3950 3956
5324 63 3940 3939 3950 3957
5325 63 3952 3951 3950 3956
5326 63 3952 3951 3950 3957
5327 63 3952 3951 3962 3968
5328 63 3952 3951 3962 3969
5329 63 3964 3963 3962 3968
5330 63 3964 3963 3962 3969
5331 63 3964 3963 3974 3980
5332 63 3964 3963 3974 3981
5333 63 3976 3975 3974 3980
5334 63 3976 3975 3974 3981
5335 63 3976 3975 3986 3992
5336 63 3976 3975 3986 3993
5337 63 3988 3987 3986 3992
5338 63 3988 3987 3986 3993
5339 63 3988 3987 3998 4004
5340 63 3988 3987 3998 4005
5341 63 4000 3999 3998 4004
5342 63 4000 3999 3998 4005
5343 63 4000 3999 4010 4016
5344 63 4000 3999 4010 4017
5345 63 4012 4011 4010 4016
5346 63 4012 4011 4010 4017
5347 63 4012 4011 4022 4028
5348 63 4012 4011 4022 4029
5349 63 4024 4023 4022 4028
5350 63 4024 4023 4022 4029
5351 63 4024 4023 4034 4040
5352 63 4024 4023 4034 4041
5353 63 4036 4035 4034 4040
5354 63 4036 4035 4034 4041
5355 63 4036 4035 4046 4052
5356 63 4036 4035 4046 4053
5357 63 4048 4047 4046 4052
5358 63 4048 4047 4046 4053
5359 63 4048 4047 4058 4064
5360 63 4048 4047 4058 4065
5361 63 4060 4059 4058 4064
5362 63 4060 4059 4058 4065
5363 63 4060 4059 4070 4076
5364 63 4060 4059 4070 4077
5365 63 4072 4071 4070 4076
5366 63 4072 4071 4070 4077
5367 63 4072 4071 4082 4088
5368 63 4072 4071 4082 4089
5369 63 4084 4083 4082 4088
5370 63 4084 4083 4082 4089
5371 63 4084 4083 4094 4100
5372 63 4084 4083 4094 4101
5373 63 4096 4095 4094 4100
5374 63 4096 4095 4094 4101
5375 63 4096 4095 4106 4112
5376 63 4096 4095 4106 4113
5377 63 4108 4107 4106 4112
5378 63 4108 4107 4106 4113
5379 63 4108 4107 4118 4124
5380 63 4108 4107 4118 4125
5381 63 4120 4119 4118 4124
5382 63 4120 4119 4118 4125
5383 63 4120 4119 4130 4136
5384 63 4120 4119 4130 4137
5385 63 4132 4131 4130 4136
5386 63 4132 4131 4130 4137
5387 63 4132 4131 4142 4148
5388 63 4132 4131 4142 4149
5389 63 4144 4143 4142 4148
5390 63 4144 4143 4142 4149
5391 63 4144 4143 4154 4160
5392 63 4144 4143 4154 4161
5393 63 4156 4155 4154 4160
5394 63 4156 4155 4154 4161
5395 63 4156 4155 4166 4172
5396 63 4156 4155 4166 4173
5397 63 4168 4167 4166 4172
5398 63 4168 4167 4166 4173
5399 63 4168 4167 4178 4184
5400 63 4168 4167 4178 4185
5401 63 4180 4179 4178 4184
5402 63 4180 4179 4178 4185
5403 63 4180 4179 4190 4196
5404 63 4180 4179 4190 4197
5405 63 4192 4191 4190 4196
5406 63 4192 4191 4190 4197
5407 63 4192 4191 4202 4208
5408 63 4192 4191 4202 4209
5409 63 4217 4216 4228 4234
5410 63 4217 4216 4228 4235
5411 63 4230 4229 4228 4234
5412 63 4230 4229 4228 4235
5413 63 4230 4229 4240 4246
5414 63 4230 4229 4240 4247
5415 63 4242 4241 4240 4246
5416 63 4242 4241 4240 4247
5417 63 4242 4241 4252 4258
5418 63 4242 4241 4252 4259
5419 63 4254 4253 4252 4258
5420 63 4254 4253 4252 4259
5421 63 4254 4253 4264 4270
5422 63 4254 4253 4264 4271
5423 63 4266 4265 4264 4270
5424 63 4266 4265 4264 4271
5425 63 4266 4265 4276 4282
5426 63 4266 4265 4276 4283
5427 63 4278 4277 4276 4282
5428 63 4278 4277 4276 4283
5429 63 4278 4277 4288 4294
5430 63 4278 4277 4288 4295
5431 63 4290 4289 4288 4294
5432 63 4290 4289 4288 4295
5433 63 4290 4289 4300 4306
5434 63 4290 4289 4300 4307
5435 63 4302 4301 4300 4306
5436 63 4302 4301 4300 4307
5437 63 4302 4301 4312 4318
5438 63 4302 4301 4312 4319
5439 63 4314 4313 4312 4318
5440 63 4314 4313 4312 4319
5441 63 4314 4313 4324 4330
5442 63 4314 4313 4324 4331
5443 63 4326 4325 4324 4330
5444 63 4326 4325 4324 4331
5445 63 4326 4325 4336 4342
5446 63 4326 4325 4336 4343
5447 63 4338 4337 4336 4342
5448 63 4338 4337 4336 4343
5449 63 4338 4337 4348 4354
5450 63 4338 4337 4348 4355
5451 63 4350 4349 4348 4354
5452 63 4350 4349 4348 4355
5453 63 4350 4349 4360 4366
5454 63 4350 4349 4360 4367
5455 63 4362 4361 4360 4366
5456 63 4362 4361 4360 4367
5457 63 4362 4361 4372 4378
5458 63 4362 4361 4372 4379
5459 63 4374 4373 4372 4378
5460 63 4374 4373 4372 4379
5461 63 4374 4373 4384 4390
5462 63 4374 4373 4384 4391
5463 63 4386 4385 4384 4390
5464 63 4386 4385 4384 4391
5465 63 4386 4385 4396 4402
5466 63 4386 4385 4396 4403
5467 63 4398 4397 4396 4402
5468 63 4398 4397 4396 4403
5469 63 4398 4397 4408 4414
5470 63 4398 4397 4408 4415
5471 63 4410 4409 4408 4414
5472 63 4410 4409 4408 4415
5473 63 4410 4409 4420 4426
5474 63 4410 4409 4420 4427
5475 63 4422 4421 4420 4426
5476 63 4422 4421 4420 4427
5477 63 4422 4421 4432 4438
5478 63 4422 4421 4432 4439
5479 63 4434 4433 4432 4438
5480 63 4434 4433 4432 4439
5481 63 4434 4433 4444 4450
5482 63 4434 4433 4444 4451
5483 63 4446 4445 4444 4450
5484 63 4446 4445 4444 4451
5485 63 4446 4445 4456 4462
5486 63 4446 4445 4456 4463
5487 63 4458 4457 4456 4462
5488 63 4458 4457 4456 4463
5489 63 4458 4457 4468 4474
5490 63 4458 4457 4468 4475
5491 63 4470 4469 4468 4474
5492 63 4470 4469 4468 4475
5493 63 4470 4469 4480 4486
5494 63 4470 4469 4480 4487
5495 63 4482 4481 4480 4486
5496 63 4482 4481 4480 4487
5497 63 4482 4481 4492 4498
5498 63 4482 4481 4492 4499
5499 63 4494 4493 4492 4498
5500 63 4494 4493 4492 4499
5501 63 4494 4493 4504 4510
5502 63 4494 4493 4504 4511
5503 63 4506 4505 4504 4510
5504 63 4506 4505 4504 4511
5505 63 4506 4505 4516 4522
5506 63 4506 4505 4516 4523
5507 63 4518 4517 4516 4522
5508 63 4518 4517 4516 4523
5509 63 4518 4517 4528 4534
5510 63 4518 4517 4528 4535
5511 63 4530 4529 4528 4534
5512 63 4530 4529 4528 4535
5513 63 4530 4529 4540 4546
5514 63 4530 4529 4540 4547
5515 63 4542 4541 4540 4546
5516 63 4542 4541 4540 4547
5517 63 4542 4541 4552 4558
5518 63 4542 4541 4552 4559
5519 63 4554 4553 4552 4558
5520 63 4554 4553 4552 4559
5521 63 4554 4553 4564 4570
5522 63 4554 4553 4564 4571
5523 63 4566 4565 4564 4570
5524 63 4566 4565 4564 4571
5525 63 4566 4565 4576 4582
5526 63 4566 4565 4576 4583
5527 63 4578 4577 4576 4582
5528 63 4578 4577 4576 4583
5529 63 4578 4577 4588 4594
5530 63 4578 4577 4588 4595
5531 63 4590 4589 4588 4594
5532 63 4590 4589 4588 4595
5533 63 4590 4589 4600 4606
5534 63 4590 4589 4600 4607
5535 63 4602 4601 4600 4606
5536 63 4602 4601 4600 4607
5537 63 4602 4601 4612 4618
5538 63 4602 4601 4612 4619
5539 63 4614 4613 4612 4618
5540 63 4614 4613 4612 4619
5541 63 4614 4613 4624 4630
5542 63 4614 4613 4624 4631
5543 63 4626 4625 4624 4630
5544 63 4626 4625 4624 4631
5545 63 4626 4625 4636 4642
5546 63 4626 4625 4636 4643
5547 63 4638 4637 4636 4642
5548 63 4638 4637 4636 4643
5549 63 4638 4637 4648 4654
5550 63 4638 4637 4648 4655
5551 63 4650 4649 4648 4654
5552 63 4650 4649 4648 4655
5553 63 4650 4649 4660 4666
5554 63 4650 4649 4660 4667
5555 63 4662 4661 4660 4666
5556 63 4662 4661 4660 4667
5557 63 4662 4661 4672 4678
5558 63 4662 4661 4672 4679
5559 63 4674 4673 4672 4678
5560 63 4674 4673 4672 4679
5561 63 4674 4673 4684 4690
5562 63 4674 4673 4684 4691
5563 63 4686 4685 4684 4690
5564 63 4686 4685 4684 4691
5565 63 4686 4685 4696 4702
5566 63 4686 4685 4696 4703
5567 63 4698 4697 4696 4702
5568 63 4698 4697 4696 4703
5569 63 4698 4697 4708 4714
5570 63 4698 4697 4708 4715
5571 63 4710 4709 4708 4714
5572 63 4710 4709 4708 4715
5573 63 4710 4709 4720 4726
5574 63 4710 4709 4720 4727
5575 63 4722 4721 4720 4726
5576 63 4722 4721 4720 4727
5577 63 4722 4721 4732 4738
5578 63 4722 4721 4732 4739
5579 63 4734 4733 4732 4738
5580 63 4734 4733 4732 4739
5581 63 4734 4733 4744 4750
5582 63 4734 4733 4744 4751
5583 63 4746 4745 4744 4750
5584 63 4746 4745 4744 4751
5585 63 4746 4745 4756 4762
5586 63 4746 4745 4756 4763
5587 63 4758 4757 4756 4762
5588 63 4758 4757 4756 4763
5589 63 4758 4757 4768 4774
5590 63 4758 4757 4768 4775
5591 63 4770 4769 4768 4774
5592 63 4770 4769 4768 4775
5593 63 4770 4769 4780 4786
5594 63 4770 4769 4780 4787
5595 63 4782 4781 4780 4786
5596 63 4782 4781 4780 4787
5597 63 4782 4781 4792 4798
5598 63 4782 4781 4792 4799
5599 63 4794 4793 4792 4798
5600 63 4794 4793 4792 4799
5601 63 4794 4793 4804 4810
5602 63 4794 4793 4804 4811
5603 63 4819 4818 4830 4836
5604 63 4819 4818 4830 4837
5605 63 4832 4831 4830 4836
5606 63 4832 4831 4830 4837
5607 63 4832 4831 4842 4848
5608 63 4832 4831 4842 4849
5609 63 4844 4843 4842 4848
5610 63 4844 4843 4842 4849
5611 63 4844 4843 4854 4860
5612 63 4844 4843 4854 4861
5613 63 4856 4855 4854 4860
5614 63 4856 4855 4854 4861
5615 63 4856 4855 4866 4872
5616 63 4856 4855 4866 4873
5617 63 4868 4867 4866 4872
5618 63 4868 4867 4866 4873
5619 63 4868 4867 4878 4884
5620 63 4868 4867 4878 4885
5621 63 4880 4879 4878 4884
5622 63 4880 4879 4878 4885
5623 63 4880 4879 4890 4896
5624 63 4880 4879 4890 4897
5625 63 4892 4891 4890 4896
5626 63 4892 4891 4890 4897
5627 63 4892 4891 4902 4908
5628 63 4892 4891 4902 4909
5629 63 4904 4903 4902 4908
5630 63 4904 4903 4902 4909
5631 63 4904 4903 4914 4920
5632 63 4904 4903 4914 4921
5633 63 4916 4915 4914 4920
5634 63 4916 4915 4914 4921
5635 63 4916 4915 4926 4932
5636 63 4916 4915 4926 4933
5637 63 4928 4927 4926 4932
5638 63 4928 4927 4926 4933
5639 63 4928 4927 4938 4944
5640 63 4928 4927 4938 4945
5641 63 4940 4939 4938 4944
5642 63 4940 4939 4938 4945
5643 63 4940 4939 4950 4956
5644 63 4940 4939 4950 4957
5645 63 4952 4951 4950 4956
5646 63 4952 4951 4950 4957
5647 63 4952 4951 4962 4968
5648 63 4952 4951 4962 4969
5649 63 4964 4963 4962 4968
5650 63 4964 4963 4962 4969
5651 63 4964 4963 4974 4980
5652 63 4964 4963 4974 4981
5653 63 4976 4975 4974 4980
5654 63 4976 4975 4974 4981
5655 63 4976 4975 4986 4992
5656 63 4976 4975 4986 4993
5657 63 4988 4987 4986 4992
5658 63 4988 4987 4986 4993
5659 63 4988 4987 4998 5004
5660 63 4988 4987 4998 5005
5661 63 5000 4999 4998 5004
5662 63 5000 4999 4998 5005
5663 63 5000 4999 5010 5016
5664 63 5000 4999 5010 5017
5665 63 5012 5011 5010 5016
5666 63 5012 5011 5010 5017
5667 63 5012 5011 5022 5028
5668 63 5012 5011 5022 5029
5669 63 5024 5023 5022 5028
5670 63 5024 5023 5022 5029
5671 63 5024 5023 5034 5040
5672 63 5024 5023 5034 5041
5673 63 5036 5035 5034 5040
5674 63 5036 5035 5034 5041
5675 63 5036 5035 5046 5052
5676 63 5036 5035 5046 5053
5677 63 5048 5047 5046 5052
5678 63 5048 5047 5046 5053
5679 63 5048 5047 5058 5064
5680 63 5048 5047 5058 5065
5681 63 5060 5059 5058 5064
5682 63 5060 5059 5058 5065
5683 63 5060 5059 5070 5076
5684 63 5060 5059 5070 5077
5685 63 5072 5071 5070 5076
5686 63 5072 5071 5070 5077
5687 63 5072 5071 5082 5088
5688 63 5072 5071 5082 5089
5689 63 5084 5083 5082 5088
5690 63 5084 5083 5082 5089
5691 63 5084 5083 5094 5100
5692 63 5084 5083 5094 5101
5693 63 5096 5095 5094 5100
5694 63 5096 5095 5094 5101
5695 63 5096 5095 5106 5112
5696 63 5096 5095 5106 5113
5697 63 5108 5107 5106 5112
5698 63 5108 5107 5106 5113
5699 63 5108 5107 5118 5124
5700 63 5108 5107 5118 5125
5701 63 5120 5119 5118 5124
5702 63 5120 5119 5118 5125
5703 63 5120 5119 5130 5136
5704 63 5120 5119 5130 5137
5705 63 5132 5131 5130 5136
5706 63 5132 5131 5130 5137
5707 63 5132 5131 5142 5148
5708 63 5132 5131 5142 5149
5709 63 5144 5143 5142 5148
5710 63 5144 5143 5142 5149
5711 63 5144 5143 5154 5160
5712 63 5144 5143 5154 5161
5713 63 5156 5155 5154 5160
5714 63 5156 5155 5154 5161
5715 63 5156 5155 5166 5172
5716 63 5156 5155 5166 5173
5717 63 5168 5167 5166 5172
5718 63 5168 5167 5166 5173
5719 63 5168 5167 5178 5184
5720 63 5168 5167 5178 5185
5721 63 5180 5179 5178 5184
5722 63 5180 5179 5178 5185
5723 63 5180 5179 5190 5196
5724 63 5180 5179 5190 5197
5725 63 5192 5191 5190 5196
5726 63 5192 5191 5190 5197
5727 63 5192 5191 5202 5208
5728 63 5192 5191 5202 5209
5729 63 5204 5203 5202 5208
5730 63 5204 5203 5202 5209
5731 63 5204 5203 5214 5220
5732 63 5204 5203 5214 5221
5733 63 5216 5215 5214 5220
5734 63 5216 5215 5214 5221
5735 63 5216 5215 5226 5232
5736 63 5216 5215 5226 5233
5737 63 5228 5227 5226 5232
5738 63 5228 5227 5226 5233
5739 63 5228 5227 5238 5244
5740 63 5228 5227 5238 5245
5741 63 5240 5239 5238 5244
5742 63 5240 5239 5238 5245
5743 63 5240 5239 5250 5256
5744 63 5240 5239 5250 5257
5745 63 5252 5251 5250 5256
5746 63 5252 5251 5250 5257
5747 63 5252 5251 5262 5268
5748 63 5252 5251 5262 5269
5749 63 5264 5263 5262 5268
5750 63 5264 5263 5262 5269
5751 63 5264 5263 5274 5280
5752 63 5264 5263 5274 5281
5753 63 5276 5275 5274 5280
5754 63 5276 5275 5274 5281
5755 63 5276 5275 5286 5292
5756 63 5276 5275 5286 5293
5757 63 5288 5287 5286 5292
5758 63 5288 5287 5286 5293
5759 63 5288 5287 5298 5304
5760 63 5288 5287 5298 5305
5761 63 5300 5299 5298 5304
5762 63 5300 5299 5298 5305
5763 63 5300 5299 5310 5316
5764 63 5300 5299 5310 5317
5765 63 5312 5311 5310 5316
5766 63 5312 5311 5310 5317
5767 63 5312 5311 5322 5328
5768 63 5312 5311 5322 5329
5769 63 5324 5323 5322 5328
5770 63 5324 5323 5322 5329
5771 63 5324 5323 5334 5340
5772 63 5324 5323 5334 5341
5773 63 5336 5335 5334 5340
5774 63 5336 5335 5334 5341
5775 63 5336 5335 5346 5352
5776 63 5336 5335 5346 5353
5777 63 5348 5347 5346 5352
5778 63 5348 5347 5346 5353
5779 63 5348 5347 5358 5364
5780 63 5348 5347 5358 5365
5781 63 5360 5359 5358 5364
5782 63 5360 5359 5358 5365
5783 63 5360 5359 5370 5376
5784 63 5360 5359 5370 5377
5785 63 5372 5371 5370 5376
5786 63 5372 5371 5370 5377
5787 63 5372 5371 5382 5388
5788 63 5372 5371 5382 5389
5789 63 5384 5383 5382 5388
5790 63 5384 5383 5382 5389
5791 63 5384 5383 5394 5400
5792 63 5384 5383 5394 5401
5793 63 5396 5395 5394 5400
5794 63 5396 5395 5394 5401
5795 63 5396 5395 5406 5412
5796 63 5396 5395 5406 5413
5797 63 5421 5420 5432 5438
5798 63 5421 5420 5432 5439
5799 63 5434 5433 5432 5438
5800 63 5434 5433 5432 5439
5801 63 5434 5433 5444 5450
5802 63 5434 5433 5444 5451
5803 63 5446 5445 5444 5450
5804 63 5446 5445 5444 5451
5805 63 5446 5445 5456 5462
5806 63 5446 5445 5456 5463
5807 63 5458 5457 5456 5462
5808 63 5458 5457 5456 5463
5809 63 5458 5457 5468 5474
5810 63 5458 5457 5468 5475
5811 63 5470 5469 5468 5474
5812 63 5470 5469 5468 5475
5813 63 5470 5469 5480 5486
5814 63 5470 5469 5480 5487
5815 63 5482 5481 5480 5486
5816 63 5482 5481 5480 5487
5817 63 5482 5481 5492 5498
5818 63 5482 5481 5492 5499
5819 63 5494 5493 5492 5498
5820 63 5494 5493 5492 5499
5821 63 5494 5493 5504 5510
5822 63 5494 5493 5504 5511
5823 63 5506 5505 5504 5510
5824 63 5506 5505 5504 5511
5825 63 5506 5505 5516 5522
5826 63 5506 5505 5516 5523
5827 63 5518 5517 5516 5522
5828 63 5518 5517 5516 5523
5829 63 5518 5517 5528 5534
5830 63 5518 5517 5528 5535
5831 63 5530 5529 5528 5534
5832 63 5530 5529 5528 5535
5833 63 5530 5529 5540 5546
5834 63 5530 5529 5540 5547
5835 63 5542 5541 5540 5546
5836 63 5542 5541 5540 5547
5837 63 5542 5541 5552 5558
5838 63 5542 5541 5552 5559
5839 63 5554 5553 5552 5558
5840 63 5554 5553 5552 5559
5841 63 5554 5553 5564 5570
5842 63 5554 5553 5564 5571
5843 63 5566 5565 5564 5570
5844 63 5566 5565 5564 5571
5845 63 5566 5565 5576 5582
5846 63 5566 5565 5576 5583
5847 63 5578 5577 5576 5582
5848 63 5578 5577 5576 5583
5849 63 5578 5577 5588 5594
5850 63 5578 5577 5588 5595
5851 63 5590 5589 5588 5594
5852 63 5590 5589 5588 5595
5853 63 5590 5589 5600 5606
5854 63 5590 5589 5600 5607
5855 63 5602 5601 5600 5606
5856 63 5602 5601 5600 5607
5857 63 5602 5601 5612 5618
5858 63 5602 5601 5612 5619
5859 63 5614 5613 5612 5618
5860 63 5614 5613 5612 5619
5861 63 5614 5613 5624 5630
5862 63 5614 5613 5624 5631
5863 63 5626 5625 5624 5630
5864 63 5626 5625 5624 5631
5865 63 5626 5625 5636 5642
5866 63 5626 5625 5636 5643
5867 63 5638 5637 5636 5642
5868 63 5638 5637 5636 5643
5869 63 5638 5637 5648 5654
5870 63 5638 5637 5648 5655
5871 63 5650 5649 5648 5654
5872 63 5650 5649 5648 5655
5873 63 5650 5649 5660 5666
5874 63 5650 5649 5660 5667
5875 63 5662 5661 5660 5666
5876 63 5662 5661 5660 5667
5877 63 5662 5661 5672 5678
5878 63 5662 5661 5672 5679
5879 63 5674 5673 5672 5678
5880 63 5674 5673 5672 5679
5881 63 5674 5673 5684 5690
5882 63 5674 5673 5684 5691
5883 63 5686 5685 5684 5690
5884 63 5686 5685 5684 5691
5885 63 5686 5685 5696 5702
5886 63 5686 5685 5696 5703
5887 63 5698 5697 5696 5702
5888 63 5698 5697 5696 5703
5889 63 5698 5697 5708 5714
5890 63 5698 5697 5708 5715
5891 63 5710 5709 5708 5714
5892 63 5710 5709 5708 5715
5893 63 5710 5709 5720 5726
5894 63 5710 5709 5720 5727
5895 63 5722 5721 5720 5726
5896 63 5722 5721 5720 5727
5897 63 5722 5721 5732 5738
5898 63 5722 5721 5732 5739
5899 63 5734 5733 5732 5738
5900 63 5734 5733 5732 5739
5901 63 5734 5733 5744 5750
5902 63 5734 5733 5744 5751
5903 63 5746 5745 5744 5750
5904 63 5746 5745 5744 5751
5905 63 5746 5745 5756 5762
5906 63 5746 5745 5756 5763
5907 63 5758 5757 5756 5762
5908 63 5758 5757 5756 5763
5909 63 5758 5757 5768 5774
5910 63 5758 5757 5768 5775
5911 63 5770 5769 5768 5774
5912 63 5770 5769 5768 5775
5913 63 5770 5769 5780 5786
5914 63 5770 5769 5780 5787
5915 63 5782 5781 5780 5786
5916 63 5782 5781 5780 5787
5917 63 5782 5781 5792 5798
5918 63 5782 5781 5792 5799
5919 63 5794 5793 5792 5798
5920 63 5794 5793 5792 5799
5921 63 5794 5793 5804 5810
5922 63 5794 5793 5804 5811
5923 63 5806 5805 5804 5810
5924 63 5806 5805 5804 5811
5925 63 5806 5805 5816 5822
5926 63 5806 5805 5816 5823
5927 63 5818 5817 5816 5822
5928 63 5818 5817 5816 5823
5929 63 5818 5817 5828 5834
5930 63 5818 5817 5828 5835
5931 63 5830 5829 5828 5834
5932 63 5830 5829 5828 5835
5933 63 5830 5829 5840 5846
5934 63 5830 5829 5840 5847
5935 63 5842 5841 5840 5846
5936 63 5842 5841 5840 5847
5937 63 5842 5841 5852 5858
5938 63 5842 5841 5852 5859
5939 63 5854 5853 5852 5858
5940 63 5854 5853 5852 5859
5941 63 5854 5853 5864 5870
5942 63 5854 5853 5864 5871
5943 63 5866 5865 5864 5870
5944 63 5866 5865 5864 5871
5945 63 5866 5865 5876 5882
5946 63 5866 5865 5876 5883
5947 63 5878 5877 5876 5882
5948 63 5878 5877 5876 5883
5949 63 5878 5877 5888 5894
5950 63 5878 5877 5888 5895
5951 63 5890 5889 5888 5894
5952 63 5890 5889 5888 5895
5953 63 5890 5889 5900 5906
5954 63 5890 5889 5900 5907
5955 63 5902 5901 5900 5906
5956 63 5902 5901 5900 5907
5957 63 5902 5901 5912 5918
5958 63 5902 5901 5912 5919
5959 63 5914 5913 5912 5918
5960 63 5914 5913 5912 5919
5961 63 5914 5913 5924 5930
5962 63 5914 5913 5924 5931
5963 63 5926 5925 5924 5930
5964 63 5926 5925 5924 5931
5965 63 5926 5925 5936 5942
5966 63 5926 5925 5936 5943
5967 63 5938 5937 5936 5942
5968 63 5938 5937 5936 5943
5969 63 5938 5937 5948 5954
5970 63 5938 5937 5948 5955
5971 63 5950 5949 5948 5954
5972 63 5950 5949 5948 5955
5973 63 5950 5949 5960 5966
5974 63 5950 5949 5960 5967
5975 63 5962 5961 5960 5966
5976 63 5962 5961 5960 5967
5977 63 5962 5961 5972 5978
5978 63 5962 5961 5972 5979
5979 63 5974 5973 5972 5978
5980 63 5974 5973 5972 5979
5981 63 5974 5973 5984 5990
5982 63 5974 5973 5984 5991
5983 63 5986 5985 5984 5990
5984 63 5986 5985 5984 5991
5985 63 5986 5985 5996 6002
5986 63 5986 5985 5996 6003
5987 63 5998 5997 5996 6002
5988 63 5998 5997 5996 6003
5989 63 5998 5997 6008 6014
5990 63 5998 5997 6008 6015
5991 119 596 590 591 598
5992 119 597 590 591 598
5993 119 596 590 591 599
5994 119 597 590 591 599
5995 119 1198 1192 1193 1200
5996 119 1199 1192 1193 1200
5997 119 1198 1192 1193 1201
5998 119 1199 1192 1193 1201
5999 119 1800 1794 1795 1802
6000 119 1801 1794 1795 1802
6001 119 1800 1794 1795 1803
6002 119 1801 1794 1795 1803
6003 119 2402 2396 2397 2404
6004 119 2403 2396 2397 2404
6005 119 2402 2396 2397 2405
6006 119 2403 2396 2397 2405
6007 119 3004 2998 2999 3006
6008 119 3005 2998 2999 3006
6009 119 3004 2998 2999 3007
6010 119 3005 2998 2999 3007
6011 119 3606 3600 3601 3608
6012 119 3607 3600 3601 3608
6013 119 3606 3600 3601 3609
6014 119 3607 3600 3601 3609
6015 119 4208 4202 4203 4210
6016 119 4209 4202 4203 4210
6017 119 4208 4202 4203 4211
6018 119 4209 4202 4203 4211
6019 119 4810 4804 4805 4812
6020 119 4811 4804 4805 4812
6021 119 4810 4804 4805 4813
6022 119 4811 4804 4805 4813
6023 119 5412 5406 5407 5414
6024 119 5413 5406 5407 5414
6025 119 5412 5406 5407 5415
6026 119 5413 5406 5407 5415
6027 119 6014 6008 6009 6016
6028 119 6015 6008 6009 6016
6029 119 6014 6008 6009 6017
6030 119 6015 6008 6009 6017
6031 125 7 1 2 10
6032 125 8 1 2 10
6033 125 9 1 2 10
6034 125 609 603 604 612
6035 125 610 603 604 612
6036 125 611 603 604 612
6037 125 1211 1205 1206 1214
6038 125 1212 1205 1206 1214
6039 125 1213 1205 1206 1214
6040 125 1813 1807 1808 1816
6041 125 1814 1807 1808 1816
6042 125 1815 1807 1808 1816
6043 125 2415 2409 2410 2418
6044 125 2416 2409 2410 2418
6045 125 2417 2409 2410 2418
6046 125 3017 3011 3012 3020
6047 125 3018 3011 3012 3020
6048 125 3019 3011 3012 3020
6049 125 3619 3613 3614 3622
6050 125 3620 3613 3614 3622
6051 125 3621 3613 3614 3622
6052 125 4221 4215 4216 4224
6053 125 4222 4215 4216 4224
6054 125 4223 4215 4216 4224
6055 125 4823 4817 4818 4826
6056 125 4824 4817 4818 4826
6057 125 4825 4817 4818 4826
6058 125 5425 5419 5420 5428
6059 125 5426 5419 5420 5428
6060 125 5427 5419 5420 5428
6061 127 10 2 14 20
6062 127 10 2 14 21
6063 127 20 14 15 22
6064 127 21 14 15 22
6065 127 22 15 26 32
6066 127 22 15 26 33
6067 127 32 26 27 34
6068 127 33 26 27 34
6069 127 34 27 38 44
6070 127 34 27 38 45
6071 127 44 38 39 46
6072 127 45 38 39 46
6073 127 46 39 50 56
6074 127 46 39 50 57
6075 127 56 50 51 58
6076 127 57 50 51 58
6077 127 58 51 62 68
6078 127 58 51 62 69
6079 127 68 62 63 70
6080 127 69 62 63 70
6081 127 70 63 74 80
6082 127 70 63 74 81
6083 127 80 74 75 82
6084 127 81 74 75 82
6085 127 82 75 86 92
6086 127 82 75 86 93
6087 127 92 86 87 94
6088 127 93 86 87 94
6089 127 94 87 98 104
6090 127 94 87 98 105
6091 127 104 98 99 106
6092 127 105 98 99 106
6093 127 106 99 110 116
6094 127 106 99 110 117
6095 127 116 110 111 118
6096 127 117 110 111 118
6097 127 118 111 122 128
6098 127 118 111 122 129
6099 127 128 122 123 130
6100 127 129 122 123 130
6101 127 130 123 134 140
6102 127 130 123 134 141
6103 127 140 134 135 142
6104 127 141 134 135 142
6105 127 142 135 146 152
6106 127 142 135 146 153
6107 127 152 146 147 154
6108 127 153 146 147 154
6109 127 154 147 158 164
6110 127 154 147 158 165
6111 127 164 158 159 166
6112 127 165 158 159 166
6113 127 166 159 170 176
6114 127 166 159 170 177
6115 127 176 170 171 178
6116 127 177 170 171 178
6117 127 178 171 182 188
6118 127 178 171 182 189
6119 127 188 182 183 190
6120 127 189 182 183 190
6121 127 190 183 194 200
6122 127 190 183 194 201
6123 127 200 194 195 202
6124 127 201 194 195 202
6125 127 202 195 206 212
6126 127 202 195 206 213
6127 127 212 206 207 214
6128 127 213 206 207 214
6129 127 214 207 218 224
6130 127 214 207 218 225
6131 127 224 218 219 226
6132 127 225 218 219 226
6133 127 226 219 230 236
6134 127 226 219 230 237
6135 127 236 230 231 238
6136 127 237 230 231 238
6137 127 238 231 242 248
6138 127 238 231 242 249
6139 127 248 242 243 250
6140 127 249 242 243 250
6141 127 250 243 254 260
6142 127 250 243 254 261
6143 127 260 254 255 262
6144 127 261 254 255 262
6145 127 262 255 266 272
6146 127 262 255 266 273
6147 127 272 266 267 274
6148 127 273 266 267 274
6149 127 274 267 278 284
6150 127 274 267 278 285
6151 127 284 278 279 286
6152 127 285 278 279 286
6153 127 286 279 290 296
6154 127 286 279 290 297
6155 127 296 290 291 298
6156 127 297 290 291 298
6157 127 298 291 302 308
6158 127 298 291 302 309
6159 127 308 302 303 310
6160 127 309 302 303 310
6161 127 310 303 314 320
6162 127 310 303 314 321
6163 127 320 314 315 322
6164 127 321 314 315 322
6165 127 322 315 326 332
6166 127 322 315 326 333
6167 127 332 326 327 334
6168 127 333 326 327 334
6169 127 334 327 338 344
6170 127 334 327 338 345
6171 127 344 338 339 346
6172 127 345 338 339 346
6173 127 346 339 350 356
6174 127 346 339 350 357
6175 127 356 350 351 358
6176 127 357 350 351 358
6177 127 358 351 362 368
6178 127 358 351 362 369
6179 127 368 362 363 370
6180 127 369 362 363 370
6181 127 370 363 374 380
6182 127 370 363 374 381
6183 127 380 374 375 382
6184 127 381 374 375 382
6185 127 382 375 386 392
6186 127 382 375 386 393
6187 127 392 386 387 394
6188 127 393 386 387 394
6189 127 394 387 398 404
6190 127 394 387 398 405
6191 127 404 398 399 406
6192 127 405 398 399 406
6193 127 406 399 410 416
6194 127 406 399 410 417
6195 127 416 410 411 418
6196 127 417 410 411 418
6197 127 418 411 422 428
6198 127 418 411 422 429
6199 127 428 422 423 430
6200 127 429 422 423 430
6201 127 430 423 434 440
6202 127 430 423 434 441
6203 127 440 434 435 442
6204 127 441 434 435 442
6205 127 442 435 446 452
6206 127 442 435 446 453
6207 127 452 446 447 454
6208 127 453 446 447 454
6209 127 454 447 458 464
6210 127 454 447 458 465
6211 127 464 458 459 466
6212 127 465 458 459 466
6213 127 466 459 470 476
6214 127 466 459 470 477
6215 127 476 470 471 478
6216 127 477 470 471 478
6217 127 478 471 482 488
6218 127 478 471 482 489
6219 127 488 482 483 490
6220 127 489 482 483 490
6221 127 490 483 494 500
6222 127 490 483 494 501
6223 127 500 494 495 502
6224 127 501 494 495 502
6225 127 502 495 506 512
6226 127 502 495 506 513
6227 127 512 506 507 514
6228 127 513 506 507 514
6229 127 514 507 518 524
6230 127 514 507 518 525
6231 127 524 518 519 526
6232 127 525 518 519 526
6233 127 526 519 530 536
6234 127 526 519 530 537
6235 127 536 530 531 538
6236 127 537 530 531 538
6237 127 538 531 542 548
6238 127 538 531 542 549
6239 127 548 542 543 550
6240 127 549 542 543 550
6241 127 550 543 554 560
6242 127 550 543 554 561
6243 127 560 554 555 562
6244 127 561 554 555 562
6245 127 562 555 566 572
6246 127 562 555 566 573
6247 127 572 566 567 574
6248 127 573 566 567 574
6249 127 574 567 578 584
6250 127 574 567 578 585
6251 127 584 578 579 586
6252 127 585 578 579 586
6253 127 586 579 590 596
6254 127 586 579 590 597
6255 127 612 604 616 622
6256 127 612 604 616 623
6257 127 622 616 617 624
6258 127 623 616 617 624
6259 127 624 617 628 634
6260 127 624 617 628 635
6261 127 634 628 629 636
6262 127 635 628 629 636
6263 127 636 629 640 646
6264 127 636 629 640 647
6265 127 646 640 641 648
6266 127 647 640 641 648
6267 127 648 641 652 658
6268 127 648 641 652 659
6269 127 658 652 653 660
6270 127 659 652 653 660
6271 127 660 653 664 670
6272 127 660 653 664 671
6273 127 670 664 665 672
6274 127 671 664 665 672
6275 127 672 665 676 682
6276 127 672 665 676 683
6277 127 682 676 677 684
6278 127 683 676 677 684
6279 127 684 677 688 694
6280 127 684 677 688 695
6281 127 694 688 689 696
6282 127 695 688 689 696
6283 127 696 689 700 706
6284 127 696 689 700 707
6285 127 706 700 701 708
6286 127 707 700 701 708
6287 127 708 701 712 718
6288 127 708 701 712 719
6289 127 718 712 713 720
6290 127 719 712 713 720
6291 127 720 713 724 730
6292 127 720 713 724 731
6293 127 730 724 725 732
6294 127 731 724 725 732
6295 127 732 725 736 742
6296 127 732 725 736 743
6297 127 742 736 737 744
6298 127 743 736 737 744
6299 127 744 737 748 754
6300 127 744 737 748 755
6301 127 754 748 749 756
6302 127 755 748 749 756
6303 127 756 749 760 766
6304 127 756 749 760 767
6305 127 766 760 761 768
6306 127 767 760 761 768
6307 127 768 761 772 778
6308 127 768 761 772 779
6309 127 778 772 773 780
6310 127 779 772 773 780
6311 127 780 773 784 790
6312 127 780 773 784 791
6313 127 790 784 785 792
6314 127 791 784 785 792
6315 127 792 785 796 802
6316 127 792 785 796 803
6317 127 802 796 797 804
6318 127 803 796 797 804
6319 127 804 797 808 814
6320 127 804 797 808 815
6321 127 814 808 809 816
6322 127 815 808 809 816
6323 127 816 809 820 826
6324 127 816 809 820 827
6325 127 826 820 821 828
6326 127 827 820 821 828
6327 127 828 821 832 838
6328 127 828 821 832 839
6329 127 838 832 833 840
6330 127 839 832 833 840
6331 127 840 833 844 850
6332 127 840 833 844 851
6333 127 850 844 845 852
6334 127 851 844 845 852
6335 127 852 845 856 862
6336 127 852 845 856 863
6337 127 862 856 857 864
6338 127 863 856 857 864
6339 127 864 857 868 874
6340 127 864 857 868 875
6341 127 874 868 869 876
6342 127 875 868 869 876
6343 127 876 869 880 886
6344 127 876 869 880 887
6345 127 886 880 881 888
6346 127 887 880 881 888
6347 127 888 881 892 898
6348 127 888 881 892 899
6349 127 898 892 893 900
6350 127 899 892 893 900
6351 127 900 893 904 910
6352 127 900 893 904 911
6353 127 910 904 905 912
6354 127 911 904 905 912
6355 127 912 905 916 922
6356 127 912 905 916 923
6357 127 922 916 917 924
6358 127 923 916 917 924
6359 127 924 917 928 934
6360 127 924 917 928 935
6361 127 934 928 929 936
6362 127 935 928 929 936
6363 127 936 929 940 946
6364 127 936 929 940 947
6365 127 946 940 941 948
6366 127 947 940 941 948
6367 127 948 941 952 958
6368 127 948 941 952 959
6369 127 958 952 953 960
6370 127 959 952 953 960
6371 127 960 953 964 970
6372 127 960 953 964 971
6373 127 970 964 965 972
6374 127 971 964 965 972
6375 127 972 965 976 982
6376 127 972 965 976 983
6377 127 982 976 977 984
6378 127 983 976 977 984
6379 127 984 977 988 994
6380 127 984 977 988 995
6381 127 994 988 989 996
6382 127 995 988 989 996
6383 127 996 989 1000 1006
6384 127 996 989 1000 1007
6385 127 1006 1000 1001 1008
6386 127 1007 1000 1001 1008
6387 127 1008 1001 1012 1018
6388 127 1008 1001 1012 1019
6389 127 1018 1012 1013 1020
6390 127 1019 1012 1013 1020
6391 127 1020 1013 1024 1030
6392 127 1020 1013 1024 1031
6393 127 1030 1024 1025 1032
6394 127 1031 1024 1025 1032
6395 127 1032 1025 1036 1042
6396 127 1032 1025 1036 1043
6397 127 1042 1036 1037 1044
6398 127 1043 1036 1037 1044
6399 127 1044 1037 1048 1054
6400 127 1044 1037 1048 1055
6401 127 1054 1048 1049 1056
6402 127 1055 1048 1049 1056
6403 127 1056 1049 1060 1066
6404 127 1056 1049 1060 1067
6405 127 1066 1060 1061 1068
6406 127 1067 1060 1061 1068
6407 127 1068 1061 1072 1078
6408 127 1068 1061 1072 1079
6409 127 1078 1072 1073 1080
6410 127 1079 1072 1073 1080
6411 127 1080 1073 1084 1090
6412 127 1080 1073 1084 1091
6413 127 1090 1084 1085 1092
6414 127 1091 1084 1085 1092
6415 127 1092 1085 1096 1102
6416 127 1092 1085 1096 1103
6417 127 1102 1096 1097 1104
6418 127 1103 1096 1097 1104
6419 127 1104 1097 1108 1114
6420 127 1104 1097 1108 1115
6421 127 1114 1108 1109 1116
6422 127 1115 1108 1109 1116
6423 127 1116 1109 1120 1126
6424 127 1116 1109 1120 1127
6425 127 1126 1120 1121 1128
6426 127 1127 1120 1121 1128
6427 127 1128 1121 1132 1138
6428 127 1128 1121 1132 1139
6429 127 1138 1132 1133 1140
6430 127 1139 1132 1133 1140
6431 127 1140 1133 1144 1150
6432 127 1140 1133 1144 1151
6433 127 1150 1144 1145 1152
6434 127 1151 1144 1145 1152
6435 127 1152 1145 1156 1162
6436 127 1152 1145 1156 1163
6437 127 1162 1156 1157 1164
6438 127 1163 1156 1157 1164
6439 127 1164 1157 1168 1174
6440 127 1164 1157 1168 1175
6441 127 1174 1168 1169 1176
6442 127 1175 1168 1169 1176
6443 127 1176 1169 1180 1186
6444 127 1176 1169 1180 1187
6445 127 1186 1180 1181 1188
6446 127 1187 1180 1181 1188
6447 127 1188 1181 1192 1198
6448 127 1188 1181 1192 1199
6449 127 1214 1206 1218 1224
6450 127 1214 1206 1218 1225
6451 127 1224 1218 1219 1226
6452 127 1225 1218 1219 1226
6453 127 1226 1219 1230 1236
6454 127 1226 1219 1230 1237
6455 127 1236 1230 1231 1238
6456 127 1237 1230 1231 1238
6457 127 1238 1231 1242 1248
6458 127 1238 1231 1242 1249
6459 127 1248 1242 1243 1250
6460 127 1249 1242 1243 1250
6461 127 1250 1243 1254 1260
6462 127 1250 1243 1254 1261
6463 127 1260 1254 1255 1262
6464 127 1261 1254 1255 1262
6465 127 1262 1255 1266 1272
6466 127 1262 1255 1266 1273
6467 127 1272 1266 1267 1274
6468 127 1273 1266 1267 1274
6469 127 1274 1267 1278 1284
6470 127 1274 1267 1278 1285
6471 127 1284 1278 1279 1286
6472 127 1285 1278 1279 1286
6473 127 1286 1279 1290 1296
6474 127 1286 1279 1290 1297
6475 127 1296 1290 1291 1298
6476 127 1297 1290 1291 1298
6477 127 1298 1291 1302 1308
6478 127 1298 1291 1302 1309
6479 127 1308 1302 1303 1310
6480 127 1309 1302 1303 1310
6481 127 1310 1303 1314 1320
6482 127 1310 1303 1314 1321
6483 127 1320 1314 1315 1322
6484 127 1321 1314 1315 1322
6485 127 1322 1315 1326 1332
6486 127 1322 1315 1326 1333
6487 127 1332 1326 1327 1334
6488 127 1333 1326 1327 1334
6489 127 1334 1327 1338 1344
6490 127 1334 1327 1338 1345
6491 127 1344 1338 1339 1346
6492 127 1345 1338 1339 1346
6493 127 1346 1339 1350 1356
6494 127 1346 1339 1350 1357
6495 127 1356 1350 1351 1358
6496 127 1357 1350 1351 1358
6497 127 1358 1351 1362 1368
6498 127 1358 1351 1362 1369
6499 127 1368 1362 1363 1370
6500 127 1369 1362 1363 1370
6501 127 1370 1363 1374 1380
6502 127 1370 1363 1374 1381
6503 127 1380 1374 1375 1382
6504 127 1381 1374 1375 1382
6505 127 1382 1375 1386 1392
6506 127 1382 1375 1386 1393
6507 127 1392 1386 1387 1394
6508 127 1393 1386 1387 1394
6509 127 1394 1387 1398 1404
6510 127 1394 1387 1398 1405
6511 127 1404 1398 1399 1406
6512 127 1405 1398 1399 1406
6513 127 1406 1399 1410 1416
6514 127 1406 1399 1410 1417
6515 127 1416 1410 1411 1418
6516 127 1417 1410 1411 1418
6517 127 1418 1411 1422 1428
6518 127 1418 1411 1422 1429
6519 127 1428 1422 1423 1430
6520 127 1429 1422 1423 1430
6521 127 1430 1423 1434 1440
6522 127 1430 1423 1434 1441
6523 127 1440 1434 1435 1442
6524 127 1441 1434 1435 1442
6525 127 1442 1435 1446 1452
6526 127 1442 1435 1446 1453
6527 127 1452 1446 1447 1454
6528 127 1453 1446 1447 1454
6529 127 1454 1447 1458 1464
6530 127 1454 1447 1458 1465
6531 127 1464 1458 1459 1466
6532 127 1465 1458 1459 1466
6533 127 1466 1459 1470 1476
6534 127 1466 1459 1470 1477
6535 127 1476 1470 1471 1478
6536 127 1477 1470 1471 1478
6537 127 1478 1471 1482 1488
6538 127 1478 1471 1482 1489
6539 127 1488 1482 1483 1490
6540 127 1489 1482 1483 1490
6541 127 1490 1483 1494 1500
6542 127 1490 1483 1494 1501
6543 127 1500 1494 1495 1502
6544 127 1501 1494 1495 1502
6545 127 1502 1495 1506 1512
6546 127 1502 1495 1506 1513
6547 127 1512 1506 1507 1514
6548 127 1513 1506 1507 1514
6549 127 1514 1507 1518 1524
6550 127 1514 1507 1518 1525
6551 127 1524 1518 1519 1526
6552 127 1525 1518 1519 1526
6553 127 1526 1519 1530 1536
6554 127 1526 1519 1530 1537
6555 127 1536 1530 1531 1538
6556 127 1537 1530 1531 1538
6557 127 1538 1531 1542 1548
6558 127 1538 1531 1542 1549
6559 127 1548 1542 1543 1550
6560 127 1549 1542 1543 1550
6561 127 1550 1543 1554 1560
6562 127 1550 1543 1554 1561
6563 127 1560 1554 1555 1562
6564 127 1561 1554 1555 1562
6565 127 1562 1555 1566 1572
6566 127 1562 1555 1566 1573
6567 127 1572 1566 1567 1574
6568 127 1573 1566 1567 1574
6569 127 1574 1567 1578 1584
6570 127 1574 1567 1578 1585
6571 127 1584 1578 1579 1586
6572 127 1585 1578 1579 1586
6573 127 1586 1579 1590 1596
6574 127 1586 1579 1590 1597
6575 127 1596 1590 1591 1598
6576 127 1597 1590 1591 1598
6577 127 1598 1591 1602 1608
6578 127 1598 1591 1602 1609
6579 127 1608 1602 1603 1610
6580 127 1609 1602 1603 1610
6581 127 1610 1603 1614 1620
6582 127 1610 1603 1614 1621
6583 127 1620 1614 1615 1622
6584 127 1621 1614 1615 1622
6585 127 1622 1615 1626 1632
6586 127 1622 1615 1626 1633
6587 127 1632 1626 1627 1634
6588 127 1633 1626 1627 1634
6589 127 1634 1627 1638 1644
6590 127 1634 1627 1638 1645
6591 127 1644 1638 1639 1646
6592 127 1645 1638 1639 1646
6593 127 1646 1639 1650 1656
6594 127 1646 1639 1650 1657
6595 127 1656 1650 1651 1658
6596 127 1657 1650 1651 1658
6597 127 1658 1651 1662 1668
6598 127 1658 1651 1662 1669
6599 127 1668 1662 1663 1670
6600 127 1669 1662 1663 1670
6601 127 1670 1663 1674 1680
6602 127 1670 1663 1674 1681
6603 127 1680 1674 1675 1682
6604 127 1681 1674 1675 1682
6605 127 1682 1675 1686 1692
6606 127 1682 1675 1686 1693
6607 127 1692 1686 1687 1694
6608 127 1693 1686 1687 1694
6609 127 1694 1687 1698 1704
6610 127 1694 1687 1698 1705
6611 127 1704 1698 1699 1706
6612 127 1705 1698 1699 1706
6613 127 1706 1699 1710 1716
6614 127 1706 1699 1710 1717
6615 127 1716 1710 1711 1718
6616 127 1717 1710 1711 1718
6617 127 1718 1711 1722 1728
6618 127 1718 1711 1722 1729
6619 127 1728 1722 1723 1730
6620 127 1729 1722 1723 1730
6621 127 1730 1723 1734 1740
6622 127 1730 1723 1734 1741
6623 127 1740 1734 1735 1742
6624 127 1741 1734 1735 1742
6625 127 1742 1735 1746 1752
6626 127 1742 1735 1746 1753
6627 127 1752 1746 1747 1754
6628 127 1753 1746 1747 1754
6629 127 1754 1747 1758 1764
6630 127 1754 1747 1758 1765
6631 127 1764 1758 1759 1766
6632 127 1765 1758 1759 1766
6633 127 1766 1759 1770 1776
6634 127 1766 1759 1770 1777
6635 127 1776 1770 1771 1778
6636 127 1777 1770 1771 1778
6637 127 1778 1771 1782 1788
6638 127 1778 1771 1782 1789
6639 127 1788 1782 1783 1790
6640 127 1789 1782 1783 1790
6641 127 1790 1783 1794 1800
6642 127 1790 1783 1794 1801
6643 127 1816 1808 1820 1826
6644 127 1816 1808 1820 1827
6645 127 1826 1820 1821 1828
6646 127 1827 1820 1821 1828
6647 127 1828 1821 1832 1838
6648 127 1828 1821 1832 1839
6649 127 1838 1832 1833 1840
6650 127 1839 1832 1833 1840
6651 127 1840 1833 1844 1850
6652 127 1840 1833 1844 1851
6653 127 1850 1844 1845 1852
6654 127 1851 1844 1845 1852
6655 127 1852 1845 1856 1862
6656 127 1852 1845 1856 1863
6657 127 1862 1856 1857 1864
6658 127 1863 1856 1857 1864
6659 127 1864 1857 1868 1874
6660 127 1864 1857 1868 1875
6661 127 1874 1868 1869 1876
6662 127 1875 1868 1869 1876
6663 127 1876 1869 1880 1886
6664 127 1876 1869 1880 1887
6665 127 1886 1880 1881 1888
6666 127 1887 1880 1881 1888
6667 127 1888 1881 1892 1898
6668 127 1888 1881 1892 1899
6669 127 1898 1892 1893 1900
6670 127 1899 1892 1893 1900
6671 127 1900 1893 1904 1910
6672 127 1900 1893 1904 1911
6673 127 1910 1904 1905 1912
6674 127 1911 1904 1905 1912
6675 127 1912 1905 1916 1922
6676 127 1912 1905 1916 1923
6677 127 1922 1916 1917 1924
6678 127 1923 1916 1917 1924
6679 127 1924 1917 1928 1934
6680 127 1924 1917 1928 1935
6681 127 1934 1928 1929 1936
6682 127 1935 1928 1929 1936
6683 127 1936 1929 1940 1946
6684 127 1936 1929 1940 1947
6685 127 1946 1940 1941 1948
6686 127 1947 1940 1941 1948
6687 127 1948 1941 1952 1958
6688 127 1948 1941 1952 1959
6689 127 1958 1952 1953 1960
6690 127 1959 1952 1953 1960
6691 127 1960 1953 1964 1970
6692 127 1960 1953 1964 1971
6693 127 1970 1964 1965 1972
6694 127 1971 1964 1965 1972
6695 127 1972 1965 1976 1982
6696 127 1972 1965 1976 1983
6697 127 1982 1976 1977 1984
6698 127 1983 1976 1977 1984
6699 127 1984 1977 1988 1994
6700 127 1984 1977 1988 1995
6701 127 1994 1988 1989 1996
6702 127 1995 1988 1989 1996
6703 127 1996 1989 2000 2006
6704 127 1996 1989 2000 2007
6705 127 2006 2000 2001 2008
6706 127 2007 2000 2001 2008
6707 127 2008 2001 2012 2018
6708 127 2008 2001 2012 2019
6709 127 2018 2012 2013 2020
6710 127 2019 2012 2013 2020
6711 127 2020 2013 2024 2030
6712 127 2020 2013 2024 2031
6713 127 2030 2024 2025 2032
6714 127 2031 2024 2025 2032
6715 127 2032 2025 2036 2042
6716 127 2032 2025 2036 2043
6717 127 2042 2036 2037 2044
6718 127 2043 2036 2037 2044
6719 127 2044 2037 2048 2054
6720 127 2044 2037 2048 2055
6721 127 2054 2048 2049 2056
6722 127 2055 2048 2049 2056
6723 127 2056 2049 2060 2066
6724 127 2056 2049 2060 2067
6725 127 2066 2060 2061 2068
6726 127 2067 2060 2061 2068
6727 127 2068 2061 2072 2078
6728 127 2068 2061 2072 2079
6729 127 2078 2072 2073 2080
6730 127 2079 2072 2073 2080
6731 127 2080 2073 2084 2090
6732 127 2080 2073 2084 2091
6733 127 2090 2084 2085 2092
6734 127 2091 2084 2085 2092
6735 127 2092 2085 2096 2102
6736 127 2092 2085 2096 2103
6737 127 2102 2096 2097 2104
6738 127 2103 2096 2097 2104
6739 127 2104 2097 2108 2114
6740 127 2104 2097 2108 2115
6741 127 2114 2108 2109 2116
6742 127 2115 2108 2109 2116
6743 127 2116 2109 2120 2126
6744 127 2116 2109 2120 2127
6745 127 2126 2120 2121 2128
6746 127 2127 2120 2121 2128
6747 127 2128 2121 2132 2138
6748 127 2128 2121 2132 2139
6749 127 2138 2132 2133 2140
6750 127 2139 2132 2133 2140
6751 127 2140 2133 2144 2150
6752 127 2140 2133 2144 2151
6753 127 2150 2144 2145 2152
6754 127 2151 2144 2145 2152
6755 127 2152 2145 2156 2162
6756 127 2152 2145 2156 2163
6757 127 2162 2156 2157 2164
6758 127 2163 2156 2157 2164
6759 127 2164 2157 2168 2174
6760 127 2164 2157 2168 2175
6761 127 2174 2168 2169 2176
6762 127 2175 2168 2169 2176
6763 127 2176 2169 2180 2186
6764 127 2176 2169 2180 2187
6765 127 2186 2180 2181 2188
6766 127 2187 2180 2181 2188
6767 127 2188 2181 2192 2198
6768 127 2188 2181 2192 2199
6769 127 2198 2192 2193 2200
6770 127 2199 2192 2193 2200
6771 127 2200 2193 2204 2210
6772 127 2200 2193 2204 2211
6773 127 2210 2204 2205 2212
6774 127 2211 2204 2205 2212
6775 127 2212 2205 2216 2222
6776 127 2212 2205 2216 2223
6777 127 2222 2216 2217 2224
6778 127 2223 2216 2217 2224
6779 127 2224 2217 2228 2234
6780 127 2224 2217 2228 2235
6781 127 2234 2228 2229 2236
6782 127 2235 2228 2229 2236
6783 127 2236 2229 2240 2246
6784 127 2236 2229 2240 2247
6785 127 2246 2240 2241 2248
6786 127 2247 2240 2241 2248
6787 127 2248 2241 2252 2258
6788 127 2248 2241 2252 2259
6789 127 2258 2252 2253 2260
6790 127 2259 2252 2253 2260
6791 127 2260 2253 2264 2270
6792 127 2260 2253 2264 2271
6793 127 2270 2264 2265 2272
6794 127 2271 2264 2265 2272
6795 127 2272 2265 2276 2282
6796 127 2272 2265 2276 2283
6797 127 2282 2276 2277 2284
6798 127 2283 2276 2277 2284
6799 127 2284 2277 2288 2294
6800 127 2284 2277 2288 2295
6801 127 2294 2288 2289 2296
6802 127 2295 2288 2289 2296
6803 127 2296 2289 2300 2306
6804 127 2296 2289 2300 2307
6805 127 2306 2300 2301 2308
6806 127 2307 2300 2301 2308
6807 127 2308 2301 2312 2318
6808 127 2308 2301 2312 2319
6809 127 2318 2312 2313 2320
6810 127 2319 2312 2313 2320
6811 127 2320 2313 2324 2330
6812 127 2320 2313 2324 2331
6813 127 2330 2324 2325 2332
6814 127 2331 2324 2325 2332
6815 127 2332 2325 2336 2342
6816 127 2332 2325 2336 2343
6817 127 2342 2336 2337 2344
6818 127 2343 2336 2337 2344
6819 127 2344 2337 2348 2354
6820 127 2344 2337 2348 2355
6821 127 2354 2348 2349 2356
6822 127 2355 2348 2349 2356
6823 127 2356 2349 2360 2366
6824 127 2356 2349 2360 2367
6825 127 2366 2360 2361 2368
6826 127 2367 2360 2361 2368
6827 127 2368 2361 2372 2378
6828 127 2368 2361 2372 2379
6829 127 2378 2372 2373 2380
6830 127 2379 2372 2373 2380
6831 127 2380 2373 2384 2390
6832 127 2380 2373 2384 2391
6833 127 2390 2384 2385 2392
6834 127 2391 2384 2385 2392
6835 127 2392 2385 2396 2402
6836 127 2392 2385 2396 2403
6837 127 2418 2410 2422 2428
6838 127 2418 2410 2422 2429
6839 127 2428 2422 2423 2430
6840 127 2429 2422 2423 2430
6841 127 2430 2423 2434 2440
6842 127 2430 2423 2434 2441
6843 127 2440 2434 2435 2442
6844 127 2441 2434 2435 2442
6845 127 2442 2435 2446 2452
6846 127 2442 2435 2446 2453
6847 127 2452 2446 2447 2454
6848 127 2453 2446 2447 2454
6849 127 2454 2447 2458 2464
6850 127 2454 2447 2458 2465
6851 127 2464 2458 2459 2466
6852 127 2465 2458 2459 2466
6853 127 2466 2459 2470 2476
6854 127 2466 2459 2470 2477
6855 127 2476 2470 2471 2478
6856 127 2477 2470 2471 2478
6857 127 2478 2471 2482 2488
6858 127 2478 2471 2482 2489
6859 127 2488 2482 2483 2490
6860 127 2489 2482 2483 2490
6861 127 2490 2483 2494 2500
6862 127 2490 2483 2494 2501
6863 127 2500 2494 2495 2502
6864 127 2501 2494 2495 2502
6865 127 2502 2495 2506 2512
6866 127 2502 2495 2506 2513
6867 127 2512 2506 2507 2514
6868 127 2513 2506 2507 2514
6869 127 2514 2507 2518 2524
6870 127 2514 2507 2518 2525
6871 127 2524 2518 2519 2526
6872 127 2525 2518 2519 2526
6873 127 2526 2519 2530 2536
6874 127 2526 2519 2530 2537
6875 127 2536 2530 2531 2538
6876 127 2537 2530 2531 2538
6877 127 2538 2531 2542 2548
6878 127 2538 2531 2542 2549
6879 127 2548 2542 2543 2550
6880 127 2549 2542 2543 2550
6881 127 2550 2543 2554 2560
6882 127 2550 2543 2554 2561
6883 127 2560 2554 2555 2562
6884 127 2561 2554 2555 2562
6885 127 2562 2555 2566 2572
6886 127 2562 2555 2566 2573
6887 127 2572 2566 2567 2574
6888 127 2573 2566 2567 2574
6889 127 2574 2567 2578 2584
6890 127 2574 2567 2578 2585
6891 127 2584 2578 2579 2586
6892 127 2585 2578 2579 2586
6893 127 2586 2579 2590 2596
6894 127 2586 2579 2590 2597
6895 127 2596 2590 2591 2598
6896 127 2597 2590 2591 2598
6897 127 2598 2591 2602 2608
6898 127 2598 2591 2602 2609
6899 127 2608 2602 2603 2610
6900 127 2609 2602 2603 2610
6901 127 2610 2603 2614 2620
6902 127 2610 2603 2614 2621
6903 127 2620 2614 2615 2622
6904 127 2621 2614 2615 2622
6905 127 2622 2615 2626 2632
6906 127 2622 2615 2626 2633
6907 127 2632 2626 2627 2634
6908 127 2633 2626 2627 2634
6909 127 2634 2627 2638 2644
6910 127 2634 2627 2638 2645
6911 127 2644 2638 2639 2646
6912 127 2645 2638 2639 2646
6913 127 2646 2639 2650 2656
6914 127 2646 2639 2650 2657
6915 127 2656 2650 2651 2658
6916 127 2657 2650 2651 2658
6917 127 2658 2651 2662 2668
6918 127 2658 2651 2662 2669
6919 127 2668 2662 2663 2670
6920 127 2669 2662 2663 2670
6921 127 2670 2663 2674 2680
6922 127 2670 2663 2674 2681
6923 127 2680 2674 2675 2682
6924 127 2681 2674 2675 2682
6925 127 2682 2675 2686 2692
6926 127 2682 2675 2686 2693
6927 127 2692 2686 2687 2694
6928 127 2693 2686 2687 2694
6929 127 2694 2687 2698 2704
6930 127 2694 2687 2698 2705
6931 127 2704 2698 2699 2706
6932 127 2705 2698 2699 2706
6933 127 2706 2699 2710 2716
6934 127 2706 2699 2710 2717
6935 127 2716 2710 2711 2718
6936 127 2717 2710 2711 2718
6937 127 2718 2711 2722 2728
6938 127 2718 2711 2722 2729
6939 127 2728 2722 2723 2730
6940 127 2729 2722 2723 2730
6941 127 2730 2723 2734 2740
6942 127 2730 2723 2734 2741
6943 127 2740 2734 2735 2742
6944 127 2741 2734 2735 2742
6945 127 2742 2735 2746 2752
6946 127 2742 2735 2746 2753
6947 127 2752 2746 2747 2754
6948 127 2753 2746 2747 2754
6949 127 2754 2747 2758 2764
6950 127 2754 2747 2758 2765
6951 127 2764 2758 2759 2766
6952 127 2765 2758 2759 2766
6953 127 2766 2759 2770 2776
6954 127 2766 2759 2770 2777
6955 127 2776 2770 2771 2778
6956 127 2777 2770 2771 2778
6957 127 2778 2771 2782 2788
6958 127 2778 2771 2782 2789
6959 127 2788 2782 2783 2790
6960 127 2789 2782 2783 2790
6961 127 2790 2783 2794 2800
6962 127 2790 2783 2794 2801
6963 127 2800 2794 2795 2802
6964 127 2801 2794 2795 2802
6965 127 2802 2795 2806 2812
6966 127 2802 2795 2806 2813
6967 127 2812 2806 2807 2814
6968 127 2813 2806 2807 2814
6969 127 2814 2807 2818 2824
6970 127 2814 2807 2818 2825
6971 127 2824 2818 2819 2826
6972 127 2825 2818 2819 2826
6973 127 2826 2819 2830 2836
6974 127 2826 2819 2830 2837
6975 127 2836 2830 2831 2838
6976 127 2837 2830 2831 2838
6977 127 2838 2831 2842 2848
6978 127 2838 2831 2842 2849
6979 127 2848 2842 2843 2850
6980 127 2849 2842 2843 2850
6981 127 2850 2843 2854 2860
6982 127 2850 2843 2854 2861
6983 127 2860 2854 2855 2862
6984 127 2861 2854 2855 2862
6985 127 2862 2855 2866 2872
6986 127 2862 2855 2866 2873
6987 127 2872 2866 2867 2874
6988 127 2873 2866 2867 2874
6989 127 2874 2867 2878 2884
6990 127 2874 2867 2878 2885
6991 127 2884 2878 2879 2886
6992 127 2885 2878 2879 2886
6993 127 2886 2879 2890 2896
6994 127 2886 2879 2890 2897
6995 127 2896 2890 2891 2898
6996 127 2897 2890 2891 2898
6997 127 2898 2891 2902 2908
6998 127 2898 2891 2902 2909
6999 127 2908 2902 2903 2910
7000 127 2909 2902 2903 2910
7001 127 2910 2903 2914 2920
7002 127 2910 2903 2914 2921
7003 127 2920 2914 2915 2922
7004 127 2921 2914 2915 2922
7005 127 2922 2915 2926 2932
7006 127 2922 2915 2926 2933
7007 127 2932 2926 2927 2934
7008 127 2933 2926 2927 2934
7009 127 2934 2927 2938 2944
7010 127 2934 2927 2938 2945
7011 127 2944 2938 2939 2946
7012 127 2945 2938 2939 2946
7013 127 2946 2939 2950 2956
7014 127 2946 2939 2950 2957
7015 127 2956 2950 2951 2958
7016 127 2957 2950 2951 2958
7017 127 2958 2951 2962 2968
7018 127 2958 2951 2962 2969
7019 127 2968 2962 2963 2970
7020 127 2969 2962 2963 2970
7021 127 2970 2963 2974 2980
7022 127 2970 2963 2974 2981
7023 127 2980 2974 2975 2982
7024 127 2981 2974 2975 2982
7025 127 2982 2975 2986 2992
7026 127 2982 2975 2986 2993
7027 127 2992 2986 2987 2994
7028 127 2993 2986 2987 2994
7029 127 2994 2987 2998 3004
7030 127 2994 2987 2998 3005
7031 127 3020 3012 3024 3030
7032 127 3020 3012 3024 3031
7033 127 3030 3024 3025 3032
7034 127 3031 3024 3025 3032
7035 127 3032 3025 3036 3042
7036 127 3032 3025 3036 3043
7037 127 3042 3036 3037 3044
7038 127 3043 3036 3037 3044
7039 127 3044 3037 3048 3054
7040 127 3044 3037 3048 3055
7041 127 3054 3048 3049 3056
7042 127 3055 3048 3049 3056
7043 127 3056 3049 3060 3066
7044 127 3056 3049 3060 3067
7045 127 3066 3060 3061 3068
7046 127 3067 3060 3061 3068
7047 127 3068 3061 3072 3078
7048 127 3068 3061 3072 3079
7049 127 3078 3072 3073 3080
7050 127 3079 3072 3073 3080
7051 127 3080 3073 3084 3090
7052 127 3080 3073 3084 3091
7053 127 3090 3084 3085 3092
7054 127 3091 3084 3085 3092
7055 127 3092 3085 3096 3102
7056 127 3092 3085 3096 3103
7057 127 3102 3096 3097 3104
7058 127 3103 3096 3097 3104
7059 127 3104 3097 3108 3114
7060 127 3104 3097 3108 3115
7061 127 3114 3108 3109 3116
7062 127 3115 3108 3109 3116
7063 127 3116 3109 3120 3126
7064 127 3116 3109 3120 3127
7065 127 3126 3120 3121 3128
7066 127 3127 3120 3121 3128
7067 127 3128 3121 3132 3138
7068 127 3128 3121 3132 3139
7069 127 3138 3132 3133 3140
7070 127 3139 3132 3133 3140
7071 127 3140 3133 3144 3150
7072 127 3140 3133 3144 3151
7073 127 3150 3144 3145 3152
7074 127 3151 3144 3145 3152
7075 127 3152 3145 3156 3162
7076 127 3152 3145 3156 3163
7077 127 3162 3156 3157 3164
7078 127 3163 3156 3157 3164
7079 127 3164 3157 3168 3174
7080 127 3164 3157 3168 3175
7081 127 3174 3168 3169 3176
7082 127 3175 3168 3169 3176
7083 127 3176 3169 3180 3186
7084 127 3176 3169 3180 3187
7085 127 3186 3180 3181 3188
7086 127 3187 3180 3181 3188
7087 127 3188 3181 3192 3198
7088 127 3188 3181 3192 3199
7089 127 3198 3192 3193 3200
7090 127 3199 3192 3193 3200
7091 127 3200 3193 3204 3210
7092 127 3200 3193 3204 3211
7093 127 3210 3204 3205 3212
7094 127 3211 3204 3205 3212
7095 127 3212 3205 3216 3222
7096 127 3212 3205 3216 3223
7097 127 3222 3216 3217 3224
7098 127 3223 3216 3217 3224
7099 127 3224 3217 3228 3234
7100 127 3224 3217 3228 3235
7101 127 3234 3228 3229 3236
7102 127 3235 3228 3229 3236
7103 127 3236 3229 3240 3246
7104 127 3236 3229 3240 3247
7105 127 3246 3240 3241 3248
7106 127 3247 3240 3241 3248
7107 127 3248 3241 3252 3258
7108 127 3248 3241 3252 3259
7109 127 3258 3252 3253 3260
7110 127 3259 3252 3253 3260
7111 127 3260 3253 3264 3270
7112 127 3260 3253 3264 3271
7113 127 3270 3264 3265 3272
7114 127 3271 3264 3265 3272
7115 127 3272 3265 3276 3282
7116 127 3272 3265 3276 3283
7117 127 3282 3276 3277 3284
7118 127 3283 3276 3277 3284
7119 127 3284 3277 3288 3294
7120 127 3284 3277 3288 3295
7121 127 3294 3288 3289 3296
7122 127 3295 3288 3289 3296
7123 127 3296 3289 3300 3306
7124 127 3296 3289 3300 3307
7125 127 3306 3300 3301 3308
7126 127 3307 3300 3301 3308
7127 127 3308 3301 3312 3318
7128 127 3308 3301 3312 3319
7129 127 3318 3312 3313 3320
7130 127 3319 3312 3313 3320
7131 127 3320 3313 3324 3330
7132 127 3320 3313 3324 3331
7133 127 3330 3324 3325 3332
7134 127 3331 3324 3325 3332
7135 127 3332 3325 3336 3342
7136 127 3332 3325 3336 3343
7137 127 3342 3336 3337 3344
7138 127 3343 3336 3337 3344
7139 127 3344 3337 3348 3354
7140 127 3344 3337 3348 3355
7141 127 3354 3348 3349 3356
7142 127 3355 3348 3349 3356
7143 127 3356 3349 3360 3366
7144 127 3356 3349 3360 3367
7145 127 3366 3360 3361 3368
7146 127 3367 3360 3361 3368
7147 127 3368 3361 3372 3378
7148 127 3368 3361 3372 3379
7149 127 3378 3372 3373 3380
7150 127 3379 3372 3373 3380
7151 127 3380 3373 3384 3390
7152 127 3380 3373 3384 3391
7153 127 3390 3384 3385 3392
7154 127 3391 3384 3385 3392
7155 127 3392 3385 3396 3402
7156 127 3392 3385 3396 3403
7157 127 3402 3396 3397 3404
7158 127 3403 3396 3397 3404
7159 127 3404 3397 3408 3414
7160 127 3404 3397 3408 3415
7161 127 3414 3408 3409 3416
7162 127 3415 3408 3409 3416
7163 127 3416 3409 3420 3426
7164 127 3416 3409 3420 3427
7165 127 3426 3420 3421 3428
7166 127 3427 3420 3421 3428
7167 127 3428 3421 3432 3438
7168 127 3428 3421 3432 3439
7169 127 3438 3432 3433 3440
7170 127 3439 3432 3433 3440
7171 127 3440 3433 3444 3450
7172 127 3440 3433 3444 3451
7173 127 3450 3444 3445 3452
7174 127 3451 3444 3445 3452
7175 127 3452 3445 3456 3462
7176 127 3452 3445 3456 3463
7177 127 3462 3456 3457 3464
7178 127 3463 3456 3457 3464
7179 127 3464 3457 3468 3474
7180 127 3464 3457 3468 3475
7181 127 3474 3468 3469 3476
7182 127 3475 3468 3469 3476
7183 127 3476 3469 3480 3486
7184 127 3476 3469 3480 3487
7185 127 3486 3480 3481 3488
7186 127 3487 3480 3481 3488
7187 127 3488 3481 3492 3498
7188 127 3488 3481 3492 3499
7189 127 3498 3492 3493 3500
7190 127 3499 3492 3493 3500
7191 127 3500 3493 3504 3510
7192 127 3500 3493 3504 3511
7193 127 3510 3504 3505 3512
7194 127 3511 3504 3505 3512
7195 127 3512 3505 3516 3522
7196 127 3512 3505 3516 3523
7197 127 3522 3516 3517 3524
7198 127 3523 3516 3517 3524
7199 127 3524 3517 3528 3534
7200 127 3524 3517 3528 3535
7201 127 3534 3528 3529 3536
7202 127 3535 3528 3529 3536
7203 127 3536 3529 3540 3546
7204 127 3536 3529 3540 3547
7205 127 3546 3540 3541 3548
7206 127 3547 3540 3541 3548
7207 127 3548 3541 3552 3558
7208 127 3548 3541 3552 3559
7209 127 3558 3552 3553 3560
7210 127 3559 3552 3553 3560
7211 127 3560 3553 3564 3570
7212 127 3560 3553 3564 3571
7213 127 3570 3564 3565 3572
7214 127 3571 3564 3565 3572
7215 127 3572 3565 3576 3582
7216 127 3572 3565 3576 3583
7217 127 3582 3576 3577 3584
7218 127 3583 3576 3577 3584
7219 127 3584 3577 3588 3594
7220 127 3584 3577 3588 3595
7221 127 3594 3588 3589 3596
7222 127 3595 3588 3589 3596
7223 127 3596 3589 3600 3606
7224 127 3596 3589 3600 3607
7225 127 3622 3614 3626 3632
7226 127 3622 3614 3626 3633
7227 127 3632 3626 3627 3634
7228 127 3633 3626 3627 3634
7229 127 3634 3627 3638 3644
7230 127 3634 3627 3638 3645
7231 127 3644 3638 3639 3646
7232 127 3645 3638 3639 3646
7233 127 3646 3639 3650 3656
7234 127 3646 3639 3650 3657
7235 127 3656 3650 3651 3658
7236 127 3657 3650 3651 3658
7237 127 3658 3651 3662 3668
7238 127 3658 3651 3662 3669
7239 127 3668 3662 3663 3670
7240 127 3669 3662 3663 3670
7241 127 3670 3663 3674 3680
7242 127 3670 3663 3674 3681
7243 127 3680 3674 3675 3682
7244 127 3681 3674 3675 3682
7245 127 3682 3675 3686 3692
7246 127 3682 3675 3686 3693
7247 127 3692 3686 3687 3694
7248 127 3693 3686 3687 3694
7249 127 3694 3687 3698 3704
7250 127 3694 3687 3698 3705
7251 127 3704 3698 3699 3706
7252 127 3705 3698 3699 3706
7253 127 3706 3699 3710 3716
7254 127 3706 3699 3710 3717
7255 127 3716 3710 3711 3718
7256 127 3717 3710 3711 3718
7257 127 3718 3711 3722 3728
7258 127 3718 3711 3722 3729
7259 127 3728 3722 3723 3730
7260 127 3729 3722 3723 3730
7261 127 3730 3723 3734 3740
7262 127 3730 3723 3734 3741
7263 127 3740 3734 3735 3742
7264 127 3741 3734 3735 3742
7265 127 3742 3735 3746 3752
7266 127 3742 3735 3746 3753
7267 127 3752 3746 3747 3754
7268 127 3753 3746 3747 3754
7269 127 3754 3747 3758 3764
7270 127 3754 3747 3758 3765
7271 127 3764 3758 3759 3766
7272 127 3765 3758 3759 3766
7273 127 3766 3759 3770 3776
7274 127 3766 3759 3770 3777
7275 127 3776 3770 3771 3778
7276 127 3777 3770 3771 3778
7277 127 3778 3771 3782 3788
7278 127 3778 3771 3782 3789
7279 127 3788 3782 3783 3790
7280 127 3789 3782 3783 3790
7281 127 3790 3783 3794 3800
7282 127 3790 3783 3794 3801
7283 127 3800 3794 3795 3802
7284 127 3801 3794 3795 3802
7285 127 3802 3795 3806 3812
7286 127 3802 3795 3806 3813
7287 127 3812 3806 3807 3814
7288 127 3813 3806 3807 3814
7289 127 3814 3807 3818 3824
7290 127 3814 3807 3818 3825
7291 127 3824 3818 3819 3826
7292 127 3825 3818 3819 3826
7293 127 3826 3819 3830 3836
7294 127 3826 3819 3830 3837
7295 127 3836 3830 3831 3838
7296 127 3837 3830 3831 3838
7297 127 3838 3831 3842 3848
7298 127 3838 3831 3842 3849
7299 127 3848 3842 3843 3850
7300 127 3849 3842 3843 3850
7301 127 3850 3843 3854 3860
7302 127 3850 3843 3854 3861
7303 127 3860 3854 3855 3862
7304 127 3861 3854 3855 3862
7305 127 3862 3855 3866 3872
7306 127 3862 3855 3866 3873
7307 127 3872 3866 3867 3874
7308 127 3873 3866 3867 3874
7309 127 3874 3867 3878 3884
7310 127 3874 3867 3878 3885
7311 127 3884 3878 3879 3886
7312 127 3885 3878 3879 3886
7313 127 3886 3879 3890 3896
7314 127 3886 3879 3890 3897
7315 127 3896 3890 3891 3898
7316 127 3897 3890 3891 3898
7317 127 3898 3891 3902 3908
7318 127 3898 3891 3902 3909
7319 127 3908 3902 3903 3910
7320 127 3909 3902 3903 3910
7321 127 3910 3903 3914 3920
7322 127 3910 3903 3914 3921
7323 127 3920 3914 3915 3922
7324 127 3921 3914 3915 3922
7325 127 3922 3915 3926 3932
7326 127 3922 3915 3926 3933
7327 127 3932 3926 3927 3934
7328 127 3933 3926 3927 3934
7329 127 3934 3927 3938 3944
7330 127 3934 3927 3938 3945
7331 127 3944 3938 3939 3946
7332 127 3945 3938 3939 3946
7333 127 3946 3939 3950 3956
7334 127 3946 3939 3950 3957
7335 127 3956 3950 3951 3958
7336 127 3957 3950 3951 3958
7337 127 3958 3951 3962 3968
7338 127 3958 3951 3962 3969
7339 127 3968 3962 3963 3970
7340 127 3969 3962 3963 3970
7341 127 3970 3963 3974 3980
7342 127 3970 3963 3974 3981
7343 127 3980 3974 3975 3982
7344 127 3981 3974 3975 3982
7345 127 3982 3975 3986 3992
7346 127 3982 3975 3986 3993
7347 127 3992 3986 3987 3994
7348 127 3993 3986 3987 3994
7349 127 3994 3987 3998 4004
7350 127 3994 3987 3998 4005
7351 127 4004 3998 3999 4006
7352 127 4005 3998 3999 4006
7353 127 4006 3999 4010 4016
7354 127 4006 3999 4010 4017
7355 127 4016 4010 4011 4018
7356 127 4017 4010 4011 4018
7357 127 4018 4011 4022 4028
7358 127 4018 4011 4022 4029
7359 127 4028 4022 4023 4030
7360 127 4029 4022 4023 4030
7361 127 4030 4023 4034 4040
7362 127 4030 4023 4034 4041
7363 127 4040 4034 4035 4042
7364 127 4041 4034 4035 4042
7365 127 4042 4035 4046 4052
7366 127 4042 4035 4046 4053
7367 127 4052 4046 4047 4054
7368 127 4053 4046 4047 4054
7369 127 4054 4047 4058 4064
7370 127 4054 4047 4058 4065
7371 127 4064 4058 4059 4066
7372 127 4065 4058 4059 4066
7373 127 4066 4059 4070 4076
7374 127 4066 4059 4070 4077
7375 127 4076 4070 4071 4078
7376 127 4077 4070 4071 4078
7377 127 4078 4071 4082 4088
7378 127 4078 4071 4082 4089
7379 127 4088 4082 4083 4090
7380 127 4089 4082 4083 4090
7381 127 4090 4083 4094 4100
7382 127 4090 4083 4094 4101
7383 127 4100 4094 4095 4102
7384 127 4101 4094 4095 4102
7385 127 4102 4095 4106 4112
7386 127 4102 4095 4106 4113
7387 127 4112 4106 4107 4114
7388 127 4113 4106 4107 4114
7389 127 4114 4107 4118 4124
7390 127 4114 4107 4118 4125
7391 127 4124 4118 4119 4126
7392 127 4125 4118 4119 4126
7393 127 4126 4119 4130 4136
7394 127 4126 4119 4130 4137
7395 127 4136 4130 4131 4138
7396 127 4137 4130 4131 4138
7397 127 4138 4131 4142 4148
7398 127 4138 4131 4142 4149
7399 127 4148 4142 4143 4150
7400 127 4149 4142 4143 4150
7401 127 4150 4143 4154 4160
7402 127 4150 4143 4154 4161
7403 127 4160 4154 4155 4162
7404 127 4161 4154 4155 4162
7405 127 4162 4155 4166 4172
7406 127 4162 4155 4166 4173
7407 127 4172 4166 4167 4174
7408 127 4173 4166 4167 4174
7409 127 4174 4167 4178 4184
7410 127 4174 4167 4178 4185
7411 127 4184 4178 4179 4186
7412 127 4185 4178 4179 4186
7413 127 4186 4179 4190 4196
7414 127 4186 4179 4190 4197
7415 127 4196 4190 4191 4198
7416 127 4197 4190 4191 4198
7417 127 4198 4191 4202 4208
7418 127 4198 4191 4202 4209
7419 127 4224 4216 4228 4234
7420 127 4224 4216 4228 4235
7421 127 4234 4228 4229 4236
7422 127 4235 4228 4229 4236
7423 127 4236 4229 4240 4246
7424 127 4236 4229 4240 4247
7425 127 4246 4240 4241 4248
7426 127 4247 4240 4241 4248
7427 127 4248 4241 4252 4258
7428 127 4248 4241 4252 4259
7429 127 4258 4252 4253 4260
7430 127 4259 4252 4253 4260
7431 127 4260 4253 4264 4270
7432 127 4260 4253 4264 4271
7433 127 4270 4264 4265 4272
7434 127 4271 4264 4265 4272
7435 127 4272 4265 4276 4282
7436 127 4272 4265 4276 4283
7437 127 4282 4276 4277 4284
7438 127 4283 4276 4277 4284
7439 127 4284 4277 4288 4294
7440 127 4284 4277 4288 4295
7441 127 4294 4288 4289 4296
7442 127 4295 4288 4289 4296
7443 127 4296 4289 4300 4306
7444 127 4296 4289 4300 4307
7445 127 4306 4300 4301 4308
7446 127 4307 4300 4301 4308
7447 127 4308 4301 4312 4318
7448 127 4308 4301 4312 4319
7449 127 4318 4312 4313 4320
7450 127 4319 4312 4313 4320
7451 127 4320 4313 4324 4330
7452 127 4320 4313 4324 4331
7453 127 4330 4324 4325 4332
7454 127 4331 4324 4325 4332
7455 127 4332 4325 4336 4342
7456 127 4332 4325 4336 4343
7457 127 4342 4336 4337 4344
7458 127 4343 4336 4337 4344
7459 127 4344 4337 4348 4354
7460 127 4344 4337 4348 4355
7461 127 4354 4348 4349 4356
7462 127 4355 4348 4349 4356
7463 127 4356 4349 4360 4366
7464 127 4356 4349 4360 4367
7465 127 4366 4360 4361 4368
7466 127 4367 4360 4361 4368
7467 127 4368 4361 4372 4378
7468 127 4368 4361 4372 4379
7469 127 4378 4372 4373 4380
7470 127 4379 4372 4373 4380
7471 127 4380 4373 4384 4390
7472 127 4380 4373 4384 4391
7473 127 4390 4384 4385 4392
7474 127 4391 4384 4385 4392
7475 127 4392 4385 4396 4402
7476 127 4392 4385 4396 4403
7477 127 4402 4396 4397 4404
7478 127 4403 4396 4397 4404
7479 127 4404 4397 4408 4414
7480 127 4404 4397 4408 4415
7481 127 4414 4408 4409 4416
7482 127 4415 4408 4409 4416
7483 127 4416 4409 4420 4426
7484 127 4416 4409 4420 4427
7485 127 4426 4420 4421 4428
7486 127 4427 4420 4421 4428
7487 127 4428 4421 4432 4438
7488 127 4428 4421 4432 4439
7489 127 4438 4432 4433 4440
7490 127 4439 4432 4433 4440
7491 127 4440 4433 4444 4450
7492 127 4440 4433 4444 4451
7493 127 4450 4444 4445 4452
7494 127 4451 4444 4445 4452
7495 127 4452 4445 4456 4462
7496 127 4452 4445 4456 4463
7497 127 4462 4456 4457 4464
7498 127 4463 4456 4457 4464
7499 127 4464 4457 4468 4474
7500 127 4464 4457 4468 4475
7501 127 4474 4468 4469 4476
7502 127 4475 4468 4469 4476
7503 127 4476 4469 4480 4486
7504 127 4476 4469 4480 4487
7505 127 4486 4480 4481 4488
7506 127 4487 4480 4481 4488
7507 127 4488 4481 4492 4498
7508 127 4488 4481 4492 4499
7509 127 4498 4492 4493 4500
7510 127 4499 4492 4493 4500
7511 127 4500 4493 4504 4510
7512 127 4500 4493 4504 4511
7513 127 4510 4504 4505 4512
7514 127 4511 4504 4505 4512
7515 127 4512 4505 4516 4522
7516 127 4512 4505 4516 4523
7517 127 4522 4516 4517 4524
7518 127 4523 4516 4517 4524
7519 127 4524 4517 4528 4534
7520 127 4524 4517 4528 4535
7521 127 4534 4528 4529 4536
7522 127 4535 4528 4529 4536
7523 127 4536 4529 4540 4546
7524 127 4536 4529 4540 4547
7525 127 4546 4540 4541 4548
7526 127 4547 4540 4541 4548
7527 127 4548 4541 4552 4558
7528 127 4548 4541 4552 4559
7529 127 4558 4552 4553 4560
7530 127 4559 4552 4553 4560
7531 127 4560 4553 4564 4570
7532 127 4560 4553 4564 4571
7533 127 4570 4564 4565 4572
7534 127 4571 4564 4565 4572
7535 127 4572 4565 4576 4582
7536 127 4572 4565 4576 4583
7537 127 4582 4576 4577 4584
7538 127 4583 4576 4577 4584
7539 127 4584 4577 4588 4594
7540 127 4584 4577 4588 4595
7541 127 4594 4588 4589 4596
7542 127 4595 4588 4589 4596
7543 127 4596 4589 4600 4606
7544 127 4596 4589 4600 4607
7545 127 4606 4600 4601 4608
7546 127 4607 4600 4601 4608
7547 127 4608 4601 4612 4618
7548 127 4608 4601 4612 4619
7549 127 4618 4612 4613 4620
7550 127 4619 4612 4613 4620
7551 127 4620 4613 4624 4630
7552 127 4620 4613 4624 4631
7553 127 4630 4624 4625 4632
7554 127 4631 4624 4625 4632
7555 127 4632 4625 4636 4642
7556 127 4632 4625 4636 4643
7557 127 4642 4636 4637 4644
7558 127 4643 4636 4637 4644
7559 127 4644 4637 4648 4654
7560 127 4644 4637 4648 4655
7561 127 4654 4648 4649 4656
7562 127 4655 4648 4649 4656
7563 127 4656 4649 4660 4666
7564 127 4656 4649 4660 4667
7565 127 4666 4660 4661 4668
7566 127 4667 4660 4661 4668
7567 127 4668 4661 4672 4678
7568 127 4668 4661 4672 4679
7569 127 4678 4672 4673 4680
7570 127 4679 4672 4673 4680
7571 127 4680 4673 4684 4690
7572 127 4680 4673 4684 4691
7573 127 4690 4684 4685 4692
7574 127 4691 4684 4685 4692
7575 127 4692 4685 4696 4702
7576 127 4692 4685 4696 4703
7577 127 4702 4696 4697 4704
7578 127 4703 4696 4697 4704
7579 127 4704 4697 4708 4714
7580 127 4704 4697 4708 4715
7581 127 4714 4708 4709 4716
7582 127 4715 4708 4709 4716
7583 127 4716 4709 4720 4726
7584 127 4716 4709 4720 4727
7585 127 4726 4720 4721 4728
7586 127 4727 4720 4721 4728
7587 127 4728 4721 4732 4738
7588 127 4728 4721 4732 4739
7589 127 4738 4732 4733 4740
7590 127 4739 4732 4733 4740
7591 127 4740 4733 4744 4750
7592 127 4740 4733 4744 4751
7593 127 4750 4744 4745 4752
7594 127 4751 4744 4745 4752
7595 127 4752 4745 4756 4762
7596 127 4752 4745 4756 4763
7597 127 4762 4756 4757 4764
7598 127 4763 4756 4757 4764
7599 127 4764 4757 4768 4774
7600 127 4764 4757 4768 4775
7601 127 4774 4768 4769 4776
7602 127 4775 4768 4769 4776
7603 127 4776 4769 4780 4786
7604 127 4776 4769 4780 4787
7605 127 4786 4780 4781 4788
7606 127 4787 4780 4781 4788
7607 127 4788 4781 4792 4798
7608 127 4788 4781 4792 4799
7609 127 4798 4792 4793 4800
7610 127 4799 4792 4793 4800
7611 127 4800 4793 4804 4810
7612 127 4800 4793 4804 4811
7613 127 4826 4818 4830 4836
7614 127 4826 4818 4830 4837
7615 127 4836 4830 4831 4838
7616 127 4837 4830 4831 4838
7617 127 4838 4831 4842 4848
7618 127 4838 4831 4842 4849
7619 127 4848 4842 4843 4850
7620 127 4849 4842 4843 4850
7621 127 4850 4843 4854 4860
7622 127 4850 4843 4854 4861
7623 127 4860 4854 4855 4862
7624 127 4861 4854 4855 4862
7625 127 4862 4855 4866 4872
7626 127 4862 4855 4866 4873
7627 127 4872 4866 4867 4874
7628 127 4873 4866 4867 4874
7629 127 4874 4867 4878 4884
7630 127 4874 4867 4878 4885
7631 127 4884 4878 4879 4886
7632 127 4885 4878 4879 4886
7633 127 4886 4879 4890 4896
7634 127 4886 4879 4890 4897
7635 127 4896 4890 4891 4898
7636 127 4897 4890 4891 4898
7637 127 4898 4891 4902 4908
7638 127 4898 4891 4902 4909
7639 127 4908 4902 4903 4910
7640 127 4909 4902 4903 4910
7641 127 4910 4903 4914 4920
7642 127 4910 4903 4914 4921
7643 127 4920 4914 4915 4922
7644 127 4921 4914 4915 4922
7645 127 4922 4915 4926 4932
7646 127 4922 4915 4926 4933
7647 127 4932 4926 4927 4934
7648 127 4933 4926 4927 4934
7649 127 4934 4927 4938 4944
7650 127 4934 4927 4938 4945
7651 127 4944 4938 4939 4946
7652 127 4945 4938 4939 4946
7653 127 4946 4939 4950 4956
7654 127 4946 4939 4950 4957
7655 127 4956 4950 4951 4958
7656 127 4957 4950 4951 4958
7657 127 4958 4951 4962 4968
7658 127 4958 4951 4962 4969
7659 127 4968 4962 4963 4970
7660 127 4969 4962 4963 4970
7661 127 4970 4963 4974 4980
7662 127 4970 4963 4974 4981
7663 127 4980 4974 4975 4982
7664 127 4981 4974 4975 4982
7665 127 4982 4975 4986 4992
7666 127 4982 4975 4986 4993
7667 127 4992 4986 4987 4994
7668 127 4993 4986 4987 4994
7669 127 4994 4987 4998 5004
7670 127 4994 4987 4998 5005
7671 127 5004 4998 4999 5006
7672 127 5005 4998 4999 5006
7673 127 5006 4999 5010 5016
7674 127 5006 4999 5010 5017
7675 127 5016 5010 5011 5018
7676 127 5017 5010 5011 5018
7677 127 5018 5011 5022 5028
7678 127 5018 5011 5022 5029
7679 127 5028 5022 5023 5030
7680 127 5029 5022 5023 5030
7681 127 5030 5023 5034 5040
7682 127 5030 5023 5034 5041
7683 127 5040 5034 5035 5042
7684 127 5041 5034 5035 5042
7685 127 5042 5035 5046 5052
7686 127 5042 5035 5046 5053
7687 127 5052 5046 5047 5054
7688 127 5053 5046 5047 5054
7689 127 5054 5047 5058 5064
7690 127 5054 5047 5058 5065
7691 127 5064 5058 5059 5066
7692 127 5065 5058 5059 5066
7693 127 5066 5059 5070 5076
7694 127 5066 5059 5070 5077
7695 127 5076 5070 5071 5078
7696 127 5077 5070 5071 5078
7697 127 5078 5071 5082 5088
7698 127 5078 5071 5082 5089
7699 127 5088 5082 5083 5090
7700 127 5089 5082 5083 5090
7701 127 5090 5083 5094 5100
7702 127 5090 5083 5094 5101
7703 127 5100 5094 5095 5102
7704 127 5101 5094 5095 5102
7705 127 5102 5095 5106 5112
7706 127 5102 5095 5106 5113
7707 127 5112 5106 5107 5114
7708 127 5113 5106 5107 5114
7709 127 5114 5107 5118 5124
7710 127 5114 5107 5118 5125
7711 127 5124 5118 5119 5126
7712 127 5125 5118 5119 5126
7713 127 5126 5119 5130 5136
7714 127 5126 5119 5130 5137
7715 127 5136 5130 5131 5138
7716 127 5137 5130 5131 5138
7717 127 5138 5131 5142 5148
7718 127 5138 5131 5142 5149
7719 127 5148 5142 5143 5150
7720 127 5149 5142 5143 5150
7721 127 5150 5143 5154 5160
7722 127 5150 5143 5154 5161
7723 127 5160 5154 5155 5162
7724 127 5161 5154 5155 5162
7725 127 5162 5155 5166 5172
7726 127 5162 5155 5166 5173
7727 127 5172 5166 5167 5174
7728 127 5173 5166 5167 5174
7729 127 5174 5167 5178 5184
7730 127 5174 5167 5178 5185
7731 127 5184 5178 5179 5186
7732 127 5185 5178 5179 5186
7733 127 5186 5179 5190 5196
7734 127 5186 5179 5190 5197
7735 127 5196 5190 5191 5198
7736 127 5197 5190 5191 5198
7737 127 5198 5191 5202 5208
7738 127 5198 5191 5202 5209
7739 127 5208 5202 5203 5210
7740 127 5209 5202 5203 5210
7741 127 5210 5203 5214 5220
7742 127 5210 5203 5214 5221
7743 127 5220 5214 5215 5222
7744 127 5221 5214 5215 5222
7745 127 5222 5215 5226 5232
7746 127 5222 5215 5226 5233
7747 127 5232 5226 5227 5234
7748 127 5233 5226 5227 5234
7749 127 5234 5227 5238 5244
7750 127 5234 5227 5238 5245
7751 127 5244 5238 5239 5246
7752 127 5245 5238 5239 5246
7753 127 5246 5239 5250 5256
7754 127 5246 5239 5250 5257
7755 127 5256 5250 5251 5258
7756 127 5257 5250 5251 5258
7757 127 5258 5251 5262 5268
7758 127 5258 5251 5262 5269
7759 127 5268 5262 5263 5270
7760 127 5269 5262 5263 5270
7761 127 5270 5263 5274 5280
7762 127 5270 5263 5274 5281
7763 127 5280 5274 5275 5282
7764 127 5281 5274 5275 5282
7765 127 5282 5275 5286 5292
7766 127 5282 5275 5286 5293
7767 127 5292 5286 5287 5294
7768 127 5293 5286 5287 5294
7769 127 5294 5287 5298 5304
7770 127 5294 5287 5298 5305
7771 127 5304 5298 5299 5306
7772 127 5305 5298 5299 5306
7773 127 5306 5299 5310 5316
7774 127 5306 5299 5310 5317
7775 127 5316 5310 5311 5318
7776 127 5317 5310 5311 5318
7777 127 5318 5311 5322 5328
7778 127 5318 5311 5322 5329
7779 127 5328 5322 5323 5330
7780 127 5329 5322 5323 5330
7781 127 5330 5323 5334 5340
7782 127 5330 5323 5334 5341
7783 127 5340 5334 5335 5342
7784 127 5341 5334 5335 5342
7785 127 5342 5335 5346 5352
7786 127 5342 5335 5346 5353
7787 127 5352 5346 5347 5354
7788 127 5353 5346 5347 5354
7789 127 5354 5347 5358 5364
7790 127 5354 5347 5358 5365
7791 127 5364 5358 5359 5366
7792 127 5365 5358 5359 5366
7793 127 5366 5359 5370 5376
7794 127 5366 5359 5370 5377
7795 127 5376 5370 5371 5378
7796 127 5377 5370 5371 5378
7797 127 5378 5371 5382 5388
7798 127 5378 5371 5382 5389
7799 127 5388 5382 5383 5390
7800 127 5389 5382 5383 5390
7801 127 5390 5383 5394 5400
7802 127 5390 5383 5394 5401
7803 127 5400 5394 5395 5402
7804 127 5401 5394 5395 5402
7805 127 5402 5395 5406 5412
7806 127 5402 5395 5406 5413
7807 127 5428 5420 5432 5438
7808 127 5428 5420 5432 5439
7809 127 5438 5432 5433 5440
7810 127 5439 5432 5433 5440
7811 127 5440 5433 5444 5450
7812 127 5440 5433 5444 5451
7813 127 5450 5444 5445 5452
7814 127 5451 5444 5445 5452
7815 127 5452 5445 5456 5462
7816 127 5452 5445 5456 5463
7817 127 5462 5456 5457 5464
7818 127 5463 5456 5457 5464
7819 127 5464 5457 5468 5474
7820 127 5464 5457 5468 5475
7821 127 5474 5468 5469 5476
7822 127 5475 5468 5469 5476
7823 127 5476 5469 5480 5486
7824 127 5476 5469 5480 5487
7825 127 5486 5480 5481 5488
7826 127 5487 5480 5481 5488
7827 127 5488 5481 5492 5498
7828 127 5488 5481 5492 5499
7829 127 5498 5492 5493 5500
7830 127 5499 5492 5493 5500
7831 127 5500 5493 5504 5510
7832 127 5500 5493 5504 5511
7833 127 5510 5504 5505 5512
7834 127 5511 5504 5505 5512
7835 127 5512 5505 5516 5522
7836 127 5512 5505 5516 5523
7837 127 5522 5516 5517 5524
7838 127 5523 5516 5517 5524
7839 127 5524 5517 5528 5534
7840 127 5524 5517 5528 5535
7841 127 5534 5528 5529 5536
7842 127 5535 5528 5529 5536
7843 127 5536 5529 5540 5546
7844 127 5536 5529 5540 5547
7845 127 5546 5540 5541 5548
7846 127 5547 5540 5541 5548
7847 127 5548 5541 5552 5558
7848 127 5548 5541 5552 5559
7849 127 5558 5552 5553 5560
7850 127 5559 5552 5553 5560
7851 127 5560 5553 5564 5570
7852 127 5560 5553 5564 5571
7853 127 5570 5564 5565 5572
7854 127 5571 5564 5565 5572
7855 127 5572 5565 5576 5582
7856 127 5572 5565 5576 5583
7857 127 5582 5576 5577 5584
7858 127 5583 5576 5577 5584
7859 127 5584 5577 5588 5594
7860 127 5584 5577 5588 5595
7861 127 5594 5588 5589 5596
7862 127 5595 5588 5589 5596
7863 127 5596 5589 5600 5606
7864 127 5596 5589 5600 5607
7865 127 5606 5600 5601 5608
7866 127 5607 5600 5601 5608
7867 127 5608 5601 5612 5618
7868 127 5608 5601 5612 5619
7869 127 5618 5612 5613 5620
7870 127 5619 5612 5613 5620
7871 127 5620 5613 5624 5630
7872 127 5620 5613 5624 5631
7873 127 5630 5624 5625 5632
7874 127 5631 5624 5625 5632
7875 127 5632 5625 5636 5642
7876 127 5632 5625 5636 5643
7877 127 5642 5636 5637 5644
7878 127 5643 5636 5637 5644
7879 127 5644 5637 5648 5654
7880 127 5644 5637 5648 5655
7881 127 5654 5648 5649 5656
7882 127 5655 5648 5649 5656
7883 127 5656 5649 5660 5666
7884 127 5656 5649 5660 5667
7885 127 5666 5660 5661 5668
7886 127 5667 5660 5661 5668
7887 127 5668 5661 5672 5678
7888 127 5668 5661 5672 5679
7889 127 5678 5672 5673 5680
7890 127 5679 5672 5673 5680
7891 127 5680 5673 5684 5690
7892 127 5680 5673 5684 5691
7893 127 5690 5684 5685 5692
7894 127 5691 5684 5685 5692
7895 127 5692 5685 5696 5702
7896 127 5692 5685 5696 5703
7897 127 5702 5696 5697 5704
7898 127 5703 5696 5697 5704
7899 127 5704 5697 5708 5714
7900 127 5704 5697 5708 5715
7901 127 5714 5708 5709 5716
7902 127 5715 5708 5709 5716
7903 127 5716 5709 5720 5726
7904 127 5716 5709 5720 5727
7905 127 5726 5720 5721 5728
7906 127 5727 5720 5721 5728
7907 127 5728 5721 5732 5738
7908 127 5728 5721 5732 5739
7909 127 5738 5732 5733 5740
7910 127 5739 5732 5733 5740
7911 127 5740 5733 5744 5750
7912 127 5740 5733 5744 5751
7913 127 5750 5744 5745 5752
7914 127 5751 5744 5745 5752
7915 127 5752 5745 5756 5762
7916 127 5752 5745 5756 5763
7917 127 5762 5756 5757 5764
7918 127 5763 5756 5757 5764
7919 127 5764 5757 5768 5774
7920 127 5764 5757 5768 5775
7921 127 5774 5768 5769 5776
7922 127 5775 5768 5769 5776
7923 127 5776 5769 5780 5786
7924 127 5776 5769 5780 5787
7925 127 5786 5780 5781 5788
7926 127 5787 5780 5781 5788
7927 127 5788 5781 5792 5798
7928 127 5788 5781 5792 5799
7929 127 5798 5792 5793 5800
7930 127 5799 5792 5793 5800
7931 127 5800 5793 5804 5810
7932 127 5800 5793 5804 5811
7933 127 5810 5804 5805 5812
7934 127 5811 5804 5805 5812
7935 127 5812 5805 5816 5822
7936 127 5812 5805 5816 5823
7937 127 5822 5816 5817 5824
7938 127 5823 5816 5817 5824
7939 127 5824 5817 5828 5834
7940 127 5824 5817 5828 5835
7941 127 5834 5828 5829 5836
7942 127 5835 5828 5829 5836
7943 127 5836 5829 5840 5846
7944 127 5836 5829 5840 5847
7945 127 5846 5840 5841 5848
7946 127 5847 5840 5841 5848
7947 127 5848 5841 5852 5858
7948 127 5848 5841 5852 5859
7949 127 5858 5852 5853 5860
7950 127 5859 5852 5853 5860
7951 127 5860 5853 5864 5870
7952 127 5860 5853 5864 5871
7953 127 5870 5864 5865 5872
7954 127 5871 5864 5865 5872
7955 127 5872 5865 5876 5882
7956 127 5872 5865 5876 5883
7957 127 5882 5876 5877 5884
7958 127 5883 5876 5877 5884
7959 127 5884 5877 5888 5894
7960 127 5884 5877 5888 5895
7961 127 5894 5888 5889 5896
7962 127 5895 5888 5889 5896
7963 127 5896 5889 5900 5906
7964 127 5896 5889 5900 5907
7965 127 5906 5900 5901 5908
7966 127 5907 5900 5901 5908
7967 127 5908 5901 5912 5918
7968 127 5908 5901 5912 5919
7969 127 5918 5912 5913 5920
7970 127 5919 5912 5913 5920
7971 127 5920 5913 5924 5930
7972 127 5920 5913 5924 5931
7973 127 5930 5924 5925 5932
7974 127 5931 5924 5925 5932
7975 127 5932 5925 5936 5942
7976 127 5932 5925 5936 5943
7977 127 5942 5936 5937 5944
7978 127 5943 5936 5937 5944
7979 127 5944 5937 5948 5954
7980 127 5944 5937 5948 5955
7981 127 5954 5948 5949 5956
7982 127 5955 5948 5949 5956
7983 127 5956 5949 5960 5966
7984 127 5956 5949 5960 5967
7985 127 5966 5960 5961 5968
7986 127 5967 5960 5961 5968
7987 127 5968 5961 5972 5978
7988 127 5968 5961 5972 5979
7989 127 5978 5972 5973 5980
7990 127 5979 5972 5973 5980
7991 127 5980 5973 5984 5990
7992 127 5980 5973 5984 5991
7993 127 5990 5984 5985 5992
7994 127 5991 5984 5985 5992
7995 127 5992 5985 5996 6002
7996 127 5992 5985 5996 6003
7997 127 6002 5996 5997 6004
7998 127 6003 5996 5997 6004
7999 127 6004 5997 6008 6014
8000 127 6004 5997 6008 6015
8001 136 1 2 3 4
8002 136 603 604 605 606
8003 136 1205 1206 1207 1208
8004 136 1807 1808 1809 1810
8005 136 2409 2410 2411 2412
8006 136 3011 3012 3013 3014
8007 136 3613 3614 3615 3616
8008 136 4215 4216 4217 4218
8009 136 4817 4818 4819 4820
8010 136 5419 5420 5421 5422
8011 139 590 591 592 593
8012 139 1192 1193 1194 1195
8013 139 1794 1795 1796 1797
8014 139 2396 2397 2398 2399
8015 139 2998 2999 3000 3001
8016 139 3600 3601 3602 3603
8017 139 4202 4203 4204 4205
8018 139 4804 4805 4806 4807
8019 139 5406 5407 5408 5409
8020 139 6008 6009 6010 6011
8021 140 14 15 16 17
8022 140 4 3 2 14
8023 140 26 27 28 29
8024 140 17 16 15 26
8025 140 38 39 40 41
8026 140 29 28 27 38
8027 140 50 51 52 53
8028 140 41 40 39 50
8029 140 62 63 64 65
8030 140 53 52 51 62
8031 140 74 75 76 77
8032 140 65 64 63 74
8033 140 86 87 88 89
8034 140 77 76 75 86
8035 140 98 99 100 101
8036 140 89 88 87 98
8037 140 110 111 112 113
8038 140 101 100 99 110
8039 140 122 123 124 125
8040 140 113 112 111 122
8041 140 134 135 136 137
8042 140 125 124 123 134
8043 140 146 147 148 149
8044 140 137 136 135 146
8045 140 158 159 160 161
8046 140 149 148 147 158
8047 140 170 171 172 173
8048 140 161 160 159 170
8049 140 182 183 184 185
8050 140 173 172 171 182
8051 140 194 195 196 197
8052 140 185 184 183 194
8053 140 206 207 208 209
8054 140 197 196 195 206
8055 140 218 219 220 221
8056 140 209 208 207 218
8057 140 230 231 232 233
8058 140 221 220 219 230
8059 140 242 243 244 245
8060 140 233 232 231 242
8061 140 254 255 256 257
8062 140 245 244 243 254
8063 140 266 267 268 269
8064 140 257 256 255 266
8065 140 278 279 280 281
8066 140 269 268 267 278
8067 140 290 291 292 293
8068 140 281 280 279 290
8069 140 302 303 304 305
8070 140 293 292 291 302
8071 140 314 315 316 317
8072 140 305 304 303 314
8073 140 326 327 328 329
8074 140 317 316 315 326
8075 140 338 339 340 341
8076 140 329 328 327 338
8077 140 350 351 352 353
8078 140 341 340 339 350
8079 140 362 363 364 365
8080 140 353 352 351 362
8081 140 374 375 376 377
8082 140 365 364 363 374
8083 140 386 387 388 389
8084 140 377 376 375 386
8085 140 398 399 400 401
8086 140 389 388 387 398
8087 140 410 411 412 413
8088 140 401 400 399 410
8089 140 422 423 424 425
8090 140 413 412 411 422
8091 140 434 435 436 437
8092 140 425 424 423 434
8093 140 446 447 448 449
8094 140 437 436 435 446
8095 140 458 459 460 461
8096 140 449 448 447 458
8097 140 470 471 472 473
8098 140 461 460 459 470
8099 140 482 483 484 485
8100 140 473 472 471 482
8101 140 494 495 496 497
8102 140 485 484 483 494
8103 140 506 507 508 509
8104 140 497 496 495 506
8105 140 518 519 520 521
8106 140 509 508 507 518
8107 140 530 531 532 533
8108 140 521 520 519 530
8109 140 542 543 544 545
8110 140 533 532 531 542
8111 140 554 555 556 557
8112 140 545 544 543 554
8113 140 566 567 568 569
8114 140 557 556 555 566
8115 140 578 579 580 581
8116 140 569 568 567 578
8117 140 581 580 579 590
8118 140 616 617 618 619
8119 140 606 605 604 616
8120 140 628 629 630 631
8121 140 619 618 617 628
8122 140 640 641 642 643
8123 140 631 630 629 640
8124 140 652 653 654 655
8125 140 643 642 641 652
8126 140 664 665 666 667
8127 140 655 654 653 664
8128 140 676 677 678 679
8129 140 667 666 665 676
8130 140 688 689 690 691
8131 140 679 678 677 688
8132 140 700 701 702 703
8133 140 691 690 689 700
8134 140 712 713 714 715
8135 140 703 702 701 712
8136 140 724 725 726 727
8137 140 715 714 713 724
8138 140 736 737 738 739
8139 140 727 726 725 736
8140 140 748 749 750 751
8141 140 739 738 737 748
8142 140 760 761 762 763
8143 140 751 750 749 760
8144 140 772 773 774 775
8145 140 763 762 761 772
8146 140 784 785 786 787
8147 140 775 774 773 784
8148 140 796 797 798 799
8149 140 787 786 785 796
8150 140 808 809 810 811
8151 140 799 798 797 808
8152 140 820 821 822 823
8153 140 811 810 809 820
8154 140 832 833 834 835
8155 140 823 822 821 832
8156 140 844 845 846 847
8157 140 835 834 833 844
8158 140 856 857 858 859
8159 140 847 846 845 856
8160 140 868 869 870 871
8161 140 859 858 857 868
8162 140 880 881 882 883
8163 140 871 870 869 880
8164 140 892 893 894 895
8165 140 883 882 881 892
8166 140 904 905 906 907
8167 140 895 894 893 904
8168 140 916 917 918 919
8169 140 907 906 905 916
8170 140 928 929 930 931
8171 140 919 918 917 928
8172 140 940 941 942 943
8173 140 931 930 929 940
8174 140 952 953 954 955
8175 140 943 942 941 952
8176 140 964 965 966 967
8177 140 955 954 953 964
8178 140 976 977 978 979
8179 140 967 966 965 976
8180 140 988 989 990 991
8181 140 979 978 977 988
8182 140 1000 1001 1002 1003
8183 140 991 990 989 1000
8184 140 1012 1013 1014 1015
8185 140 1003 1002 1001 1012
8186 140 1024 1025 1026 1027
8187 140 1015 1014 1013 1024
8188 140 1036 1037 1038 1039
8189 140 1027 1026 1025 1036
8190 140 1048 1049 1050 1051
8191 140 1039 1038 1037 1048
8192 140 1060 1061 1062 1063
8193 140 1051 1050 1049 1060
8194 140 1072 1073 1074 1075
8195 140 1063 1062 1061 1072
8196 140 1084 1085 1086 1087
8197 140 1075 1074 1073 1084
8198 140 1096 1097 1098 1099
8199 140 1087 1086 1085 1096
8200 140 1108 1109 1110 1111
8201 140 1099 1098 1097 1108
8202 140 1120 1121 1122 1123
8203 140 1111 1110 1109 1120
8204 140 1132 1133 1134 1135
8205 140 1123 1122 1121 1132
8206 140 1144 1145 1146 1147
8207 140 1135 1134 1133 1144
8208 140 1156 1157 1158 1159
8209 140 1147 1146 1145 1156
8210 140 1168 1169 1170 1171
8211 140 1159 1158 1157 1168
8212 140 1180 1181 1182 1183
8213 140 1171 1170 1169 1180
8214 140 1183 1182 1181 1192
8215 140 1218 1219 1220 1221
8216 140 1208 1207 1206 1218
8217 140 1230 1231 1232 1233
8218 140 1221 1220 1219 1230
8219 140 1242 1243 1244 1245
8220 140 1233 1232 1231 1242
8221 140 1254 1255 1256 1257
8222 140 1245 1244 1243 1254
8223 140 1266 1267 1268 1269
8224 140 1257 1256 1255 1266
8225 140 1278 1279 1280 1281
8226 140 1269 1268 1267 1278
8227 140 1290 1291 1292 1293
8228 140 1281 1280 1279 1290
8229 140 1302 1303 1304 1305
8230 140 1293 1292 1291 1302
8231 140 1314 1315 1316 1317
8232 140 1305 1304 1303 1314
8233 140 1326 1327 1328 1329
8234 140 1317 1316 1315 1326
8235 140 1338 1339 1340 1341
8236 140 1329 1328 1327 1338
8237 140 1350 1351 1352 1353
8238 140 1341 1340 1339 1350
8239 140 1362 1363 1364 1365
8240 140 1353 1352 1351 1362
8241 140 1374 1375 1376 1377
8242 140 1365 1364 1363 1374
8243 140 1386 1387 1388 1389
8244 140 1377 1376 1375 1386
8245 140 1398 1399 1400 1401
8246 140 1389 1388 1387 1398
8247 140 1410 1411 1412 1413
8248 140 1401 1400 1399 1410
8249 140 1422 1423 1424 1425
8250 140 1413 1412 1411 1422
8251 140 1434 1435 1436 1437
8252 140 1425 1424 1423 1434
8253 140 1446 1447 1448 1449
8254 140 1437 1436 1435 1446
8255 140 1458 1459 1460 1461
8256 140 1449 1448 1447 1458
8257 140 1470 1471 1472 1473
8258 140 1461 1460 1459 1470
8259 140 1482 1483 1484 1485
8260 140 1473 1472 1471 1482
8261 140 1494 1495 1496 1497
8262 140 1485 1484 1483 1494
8263 140 1506 1507 1508 1509
8264 140 1497 1496 1495 1506
8265 140 1518 1519 1520 1521
8266 140 1509 1508 1507 1518
8267 140 1530 1531 1532 1533
8268 140 1521 1520 1519 1530
8269 140 1542 1543 1544 1545
8270 140 1533 1532 1531 1542
8271 140 1554 1555 1556 1557
8272 140 1545 1544 1543 1554
8273 140 1566 1567 1568 1569
8274 140 1557 1556 1555 1566
8275 140 1578 1579 1580 1581
8276 140 1569 1568 1567 1578
8277 140 1590 1591 1592 1593
8278 140 1581 1580 1579 1590
8279 140 1602 1603 1604 1605
8280 140 1593 1592 1591 1602
8281 140 1614 1615 1616 1617
8282 140 1605 1604 1603 1614
8283 140 1626 1627 1628 1629
8284 140 1617 1616 1615 1626
8285 140 1638 1639 1640 1641
8286 140 1629 1628 1627 1638
8287 140 1650 1651 1652 1653
8288 140 1641 1640 1639 1650
8289 140 1662 1663 1664 1665
8290 140 1653 1652 1651 1662
8291 140 1674 1675 1676 1677
8292 140 1665 1664 1663 1674
8293 140 1686 1687 1688 1689
8294 140 1677 1676 1675 1686
8295 140 1698 1699 1700 1701
8296 140 1689 1688 1687 1698
8297 140 1710 1711 1712 1713
8298 140 1701 1700 1699 1710
8299 140 1722 1723 1724 1725
8300 140 1713 1712 1711 1722
8301 140 1734 1735 1736 1737
8302 140 1725 1724 1723 1734
8303 140 1746 1747 1748 1749
8304 140 1737 1736 1735 1746
8305 140 1758 1759 1760 1761
8306 140 1749 1748 1747 1758
8307 140 1770 1771 1772 1773
8308 140 1761 1760 1759 1770
8309 140 1782 1783 1784 1785
8310 140 1773 1772 1771 1782
8311 140 1785 1784 1783 1794
8312 140 1820 1821 1822 1823
8313 140 1810 1809 1808 1820
8314 140 1832 1833 1834 1835
8315 140 1823 1822 1821 1832
8316 140 1844 1845 1846 1847
8317 140 1835 1834 1833 1844
8318 140 1856 1857 1858 1859
8319 140 1847 1846 1845 1856
8320 140 1868 1869 1870 1871
8321 140 1859 1858 1857 1868
8322 140 1880 1881 1882 1883
8323 140 1871 1870 1869 1880
8324 140 1892 1893 1894 1895
8325 140 1883 1882 1881 1892
8326 140 1904 1905 1906 1907
8327 140 1895 1894 1893 1904
8328 140 1916 1917 1918 1919
8329 140 1907 1906 1905 1916
8330 140 1928 1929 1930 1931
8331 140 1919 1918 1917 1928
8332 140 1940 1941 1942 1943
8333 140 1931 1930 1929 1940
8334 140 1952 1953 1954 1955
8335 140 1943 1942 1941 1952
8336 140 1964 1965 1966 1967
8337 140 1955 1954 1953 1964
8338 140 1976 1977 1978 1979
8339 140 1967 1966 1965 1976
8340 140 1988 1989 1990 1991
8341 140 1979 1978 1977 1988
8342 140 2000 2001 2002 2003
8343 140 1991 1990 1989 2000
8344 140 2012 2013 2014 2015
8345 140 2003 2002 2001 2012
8346 140 2024 2025 2026 2027
8347 140 2015 2014 2013 2024
8348 140 2036 2037 2038 2039
8349 140 2027 2026 2025 2036
8350 140 2048 2049 2050 2051
8351 140 2039 2038 2037 2048
8352 140 2060 2061 2062 2063
8353 140 2051 2050 2049 2060
8354 140 2072 2073 2074 2075
8355 140 2063 2062 2061 2072
8356 140 2084 2085 2086 2087
8357 140 2075 2074 2073 2084
8358 140 2096 2097 2098 2099
8359 140 2087 2086 2085 2096
8360 140 2108 2109 2110 2111
8361 140 2099 2098 2097 2108
8362 140 2120 2121 2122 2123
8363 140 2111 2110 2109 2120
8364 140 2132 2133 2134 2135
8365 140 2123 2122 2121 2132
8366 140 2144 2145 2146 2147
8367 140 2135 2134 2133 2144
8368 140 2156 2157 2158 2159
8369 140 2147 2146 2145 2156
8370 140 2168 2169 2170 2171
8371 140 2159 2158 2157 2168
8372 140 2180 2181 2182 2183
8373 140 2171 2170 2169 2180
8374 140 2192 2193 2194 2195
8375 140 2183 2182 2181 2192
8376 140 2204 2205 2206 2207
8377 140 2195 2194 2193 2204
8378 140 2216 2217 2218 2219
8379 140 2207 2206 2205 2216
8380 140 2228 2229 2230 2231
8381 140 2219 2218 2217 2228
8382 140 2240 2241 2242 2243
8383 140 2231 2230 2229 2240
8384 140 2252 2253 2254 2255
8385 140 2243 2242 2241 2252
8386 140 2264 2265 2266 2267
8387 140 2255 2254 2253 2264
8388 140 2276 2277 2278 2279
8389 140 2267 2266 2265 2276
8390 140 2288 2289 2290 2291
8391 140 2279 2278 2277 2288
8392 140 2300 2301 2302 2303
8393 140 2291 2290 2289 2300
8394 140 2312 2313 2314 2315
8395 140 2303 2302 2301 2312
8396 140 2324 2325 2326 2327
8397 140 2315 2314 2313 2324
8398 140 2336 2337 2338 2339
8399 140 2327 2326 2325 2336
8400 140 2348 2349 2350 2351
8401 140 2339 2338 2337 2348
8402 140 2360 2361 2362 2363
8403 140 2351 2350 2349 2360
8404 140 2372 2373 2374 2375
8405 140 2363 2362 2361 2372
8406 140 2384 2385 2386 2387
8407 140 2375 2374 2373 2384
8408 140 2387 2386 2385 2396
8409 140 2422 2423 2424 2425
8410 140 2412 2411 2410 2422
8411 140 2434 2435 2436 2437
8412 140 2425 2424 2423 2434
8413 140 2446 2447 2448 2449
8414 140 2437 2436 2435 2446
8415 140 2458 2459 2460 2461
8416 140 2449 2448 2447 2458
8417 140 2470 2471 2472 2473
8418 140 2461 2460 2459 2470
8419 140 2482 2483 2484 2485
8420 140 2473 2472 2471 2482
8421 140 2494 2495 2496 2497
8422 140 2485 2484 2483 2494
8423 140 2506 2507 2508 2509
8424 140 2497 2496 2495 2506
8425 140 2518 2519 2520 2521
8426 140 2509 2508 2507 2518
8427 140 2530 2531 2532 2533
8428 140 2521 2520 2519 2530
8429 140 2542 2543 2544 2545
8430 140 2533 2532 2531 2542
8431 140 2554 2555 2556 2557
8432 140 2545 2544 2543 2554
8433 140 2566 2567 2568 2569
8434 140 2557 2556 2555 2566
8435 140 2578 2579 2580 2581
8436 140 2569 2568 2567 2578
8437 140 2590 2591 2592 2593
8438 140 2581 2580 2579 2590
8439 140 2602 2603 2604 2605
8440 140 2593 2592 2591 2602
8441 140 2614 2615 2616 2617
8442 140 2605 2604 2603 2614
8443 140 2626 2627 2628 2629
8444 140 2617 2616 2615 2626
8445 140 2638 2639 2640 2641
8446 140 2629 2628 2627 2638
8447 140 2650 2651 2652 2653
8448 140 2641 2640 2639 2650
8449 140 2662 2663 2664 2665
8450 140 2653 2652 2651 2662
8451 140 2674 2675 2676 2677
8452 140 2665 2664 2663 2674
8453 140 2686 2687 2688 2689
8454 140 2677 2676 2675 2686
8455 140 2698 2699 2700 2701
8456 140 2689 2688 2687 2698
8457 140 2710 2711 2712 2713
8458 140 2701 2700 2699 2710
8459 140 2722 2723 2724 2725
8460 140 2713 2712 2711 2722
8461 140 2734 2735 2736 2737
8462 140 2725 2724 2723 2734
8463 140 2746 2747 2748 2749
8464 140 2737 2736 2735 2746
8465 140 2758 2759 2760 2761
8466 140 2749 2748 2747 2758
8467 140 2770 2771 2772 2773
8468 140 2761 2760 2759 2770
8469 140 2782 2783 2784 2785
8470 140 2773 2772 2771 2782
8471 140 2794 2795 2796 2797
8472 140 2785 2784 2783 2794
8473 140 2806 2807 2808 2809
8474 140 2797 2796 2795 2806
8475 140 2818 2819 2820 2821
8476 140 2809 2808 2807 2818
8477 140 2830 2831 2832 2833
8478 140 2821 2820 2819 2830
8479 140 2842 2843 2844 2845
8480 140 2833 2832 2831 2842
8481 140 2854 2855 2856 2857
8482 140 2845 2844 2843 2854
8483 140 2866 2867 2868 2869
8484 140 2857 2856 2855 2866
8485 140 2878 2879 2880 2881
8486 140 2869 2868 2867 2878
8487 140 2890 2891 2892 2893
8488 140 2881 2880 2879 2890
8489 140 2902 2903 2904 2905
8490 140 2893 2892 2891 2902
8491 140 2914 2915 2916 2917
8492 140 2905 2904 2903 2914
8493 140 2926 2927 2928 2929
8494 140 2917 2916 2915 2926
8495 140 2938 2939 2940 2941
8496 140 2929 2928 2927 2938
8497 140 2950 2951 2952 2953
8498 140 2941 2940 2939 2950
8499 140 2962 2963 2964 2965
8500 140 2953 2952 2951 2962
8501 140 2974 2975 2976 2977
8502 140 2965 2964 2963 2974
8503 140 2986 2987 2988 2989
8504 140 2977 2976 2975 2986
8505 140 2989 2988 2987 2998
8506 140 3024 3025 3026 3027
8507 140 3014 3013 3012 3024
8508 140 3036 3037 3038 3039
8509 140 3027 3026 3025 3036
8510 140 3048 3049 3050 3051
8511 140 3039 3038 3037 3048
8512 140 3060 3061 3062 3063
8513 140 3051 3050 3049 3060
8514 140 3072 3073 3074 3075
8515 140 3063 3062 3061 3072
8516 140 3084 3085 3086 3087
8517 140 3075 3074 3073 3084
8518 140 3096 3097 3098 3099
8519 140 3087 3086 3085 3096
8520 140 3108 3109 3110 3111
8521 140 3099 3098 3097 3108
8522 140 3120 3121 3122 3123
8523 140 3111 3110 3109 3120
8524 140 3132 3133 3134 3135
8525 140 3123 3122 3121 3132
8526 140 3144 3145 3146 3147
8527 140 3135 3134 3133 3144
8528 140 3156 3157 3158 3159
8529 140 3147 3146 3145 3156
8530 140 3168 3169 3170 3171
8531 140 3159 3158 3157 3168
8532 140 3180 3181 3182 3183
8533 140 3171 3170 3169 3180
8534 140 3192 3193 3194 3195
8535 140 3183 3182 3181 3192
8536 140 3204 3205 3206 3207
8537 140 3195 3194 3193 3204
8538 140 3216 3217 3218 3219
8539 140 3207 3206 3205 3216
8540 140 3228 3229 3230 3231
8541 140 3219 3218 3217 3228
8542 140 3240 3241 3242 3243
8543 140 3231 3230 3229 3240
8544 140 3252 3253 3254 3255
8545 140 3243 3242 3241 3252
8546 140 3264 3265 3266 3267
8547 140 3255 3254 3253 3264
8548 140 3276 3277 3278 3279
8549 140 3267 3266 3265 3276
8550 140 3288 3289 3290 3291
8551 140 3279 3278 3277 3288
8552 140 3300 3301 3302 3303
8553 140 3291 3290 3289 3300
8554 140 3312 3313 3314 3315
8555 140 3303 3302 3301 3312
8556 140 3324 3325 3326 3327
8557 140 3315 3314 3313 3324
8558 140 3336 3337 3338 3339
8559 140 3327 3326 3325 3336
8560 140 3348 3349 3350 3351
8561 140 3339 3338 3337 3348
8562 140 3360 3361 3362 3363
8563 140 3351 3350 3349 3360
8564 140 3372 3373 3374 3375
8565 140 3363 3362 3361 3372
8566 140 3384 3385 3386 3387
8567 140 3375 3374 3373 3384
8568 140 3396 3397 3398 3399
8569 140 3387 3386 3385 3396
8570 140 3408 3409 3410 3411
8571 140 3399 3398 3397 3408
8572 140 3420 3421 3422 3423
8573 140 3411 3410 3409 3420
8574 140 3432 3433 3434 3435
8575 140 3423 3422 3421 3432
8576 140 3444 3445 3446 3447
8577 140 3435 3434 3433 3444
8578 140 3456 3457 3458 3459
8579 140 3447 3446 3445 3456
8580 140 3468 3469 3470 3471
8581 140 3459 3458 3457 3468
8582 140 3480 3481 3482 3483
8583 140 3471 3470 3469 3480
8584 140 3492 3493 3494 3495
8585 140 3483 3482 3481 3492
8586 140 3504 3505 3506 3507
8587 140 3495 3494 3493 3504
8588 140 3516 3517 3518 3519
8589 140 3507 3506 3505 3516
8590 140 3528 3529 3530 3531
8591 140 3519 3518 3517 3528
8592 140 3540 3541 3542 3543
8593 140 3531 3530 3529 3540
8594 140 3552 3553 3554 3555
8595 140 3543 3542 3541 3552
8596 140 3564 3565 3566 3567
8597 140 3555 3554 3553 3564
8598 140 3576 3577 3578 3579
8599 140 3567 3566 3565 3576
8600 140 3588 3589 3590 3591
8601 140 3579 3578 3577 3588
8602 140 3591 3590 3589 3600
8603 140 3626 3627 3628 3629
8604 140 3616 3615 3614 3626
8605 140 3638 3639 3640 3641
8606 140 3629 3628 3627 3638
8607 140 3650 3651 3652 3653
8608 140 3641 3640 3639 3650
8609 140 3662 3663 3664 3665
8610 140 3653 3652 3651 3662
8611 140 3674 3675 3676 3677
8612 140 3665 3664 3663 3674
8613 140 3686 3687 3688 3689
8614 140 3677 3676 3675 3686
8615 140 3698 3699 3700 3701
8616 140 3689 3688 3687 3698
8617 140 3710 3711 3712 3713
8618 140 3701 3700 3699 3710
8619 140 3722 3723 3724 3725
8620 140 3713 3712 3711 3722
8621 140 3734 3735 3736 3737
8622 140 3725 3724 3723 3734
8623 140 3746 3747 3748 3749
8624 140 3737 3736 3735 3746
8625 140 3758 3759 3760 3761
8626 140 3749 3748 3747 3758
8627 140 3770 3771 3772 3773
8628 140 3761 3760 3759 3770
8629 140 3782 3783 3784 3785
8630 140 3773 3772 3771 3782
8631 140 3794 3795 3796 3797
8632 140 3785 3784 3783 3794
8633 140 3806 3807 3808 3809
8634 140 3797 3796 3795 3806
8635 140 3818 3819 3820 3821
8636 140 3809 3808 3807 3818
8637 140 3830 3831 3832 3833
8638 140 3821 3820 3819 3830
8639 140 3842 3843 3844 3845
8640 140 3833 3832 3831 3842
8641 140 3854 3855 3856 3857
8642 140 3845 3844 3843 3854
8643 140 3866 3867 3868 3869
8644 140 3857 3856 3855 3866
8645 140 3878 3879 3880 3881
8646 140 3869 3868 3867 3878
8647 140 3890 3891 3892 3893
8648 140 3881 3880 3879 3890
8649 140 3902 3903 3904 3905
8650 140 3893 3892 3891 3902
8651 140 3914 3915 3916 3917
8652 140 3905 3904 3903 3914
8653 140 3926 3927 3928 3929
8654 140 3917 3916 3915 3926
8655 140 3938 3939 3940 3941
8656 140 3929 3928 3927 3938
8657 140 3950 3951 3952 3953
8658 140 3941 3940 3939 3950
8659 140 3962 3963 3964 3965
8660 140 3953 3952 3951 3962
8661 140 3974 3975 3976 3977
8662 140 3965 3964 3963 3974
8663 140 3986 3987 3988 3989
8664 140 3977 3976 3975 3986
8665 140 3998 3999 4000 4001
8666 140 3989 3988 3987 3998
8667 140 4010 4011 4012 4013
8668 140 4001 4000 3999 4010
8669 140 4022 4023 4024 4025
8670 140 4013 4012 4011 4022
8671 140 4034 4035 4036 4037
8672 140 4025 4024 4023 4034
8673 140 4046 4047 4048 4049
8674 140 4037 4036 4035 4046
8675 140 4058 4059 4060 4061
8676 140 4049 4048 4047 4058
8677 140 4070 4071 4072 4073
8678 140 4061 4060 4059 4070
8679 140 4082 4083 4084 4085
8680 140 4073 4072 4071 4082
8681 140 4094 4095 4096 4097
8682 140 4085 4084 4083 4094
8683 140 4106 4107 4108 4109
8684 140 4097 4096 4095 4106
8685 140 4118 4119 4120 4121
8686 140 4109 4108 4107 4118
8687 140 4130 4131 4132 4133
8688 140 4121 4120 4119 4130
8689 140 4142 4143 4144 4145
8690 140 4133 4132 4131 4142
8691 140 4154 4155 4156 4157
8692 140 4145 4144 4143 4154
8693 140 4166 4167 4168 4169
8694 140 4157 4156 4155 4166
8695 140 4178 4179 4180 4181
8696 140 4169 4168 4167 4178
8697 140 4190 4191 4192 4193
8698 140 4181 4180 4179 4190
8699 140 4193 4192 4191 4202
8700 140 4228 4229 4230 4231
8701 140 4218 4217 4216 4228
8702 140 4240 4241 4242 4243
8703 140 4231 4230 4229 4240
8704 140 4252 4253 4254 4255
8705 140 4243 4242 4241 4252
8706 140 4264 4265 4266 4267
8707 140 4255 4254 4253 4264
8708 140 4276 4277 4278 4279
8709 140 4267 4266 4265 4276
8710 140 4288 4289 4290 4291
8711 140 4279 4278 4277 4288
8712 140 4300 4301 4302 4303
8713 140 4291 4290 4289 4300
8714 140 4312 4313 4314 4315
8715 140 4303 4302 4301 4312
8716 140 4324 4325 4326 4327
8717 140 4315 4314 4313 4324
8718 140 4336 4337 4338 4339
8719 140 4327 4326 4325 4336
8720 140 4348 4349 4350 4351
8721 140 4339 4338 4337 4348
8722 140 4360 4361 4362 4363
8723 140 4351 4350 4349 4360
8724 140 4372 4373 4374 4375
8725 140 4363 4362 4361 4372
8726 140 4384 4385 4386 4387
8727 140 4375 4374 4373 4384
8728 140 4396 4397 4398 4399
8729 140 4387 4386 4385 4396
8730 140 4408 4409 4410 4411
8731 140 4399 4398 4397 4408
8732 140 4420 4421 4422 4423
8733 140 4411 4410 4409 4420
8734 140 4432 4433 4434 4435
8735 140 4423 4422 4421 4432
8736 140 4444 4445 4446 4447
8737 140 4435 4434 4433 4444
8738 140 4456 4457 4458 4459
8739 140 4447 4446 4445 4456
8740 140 4468 4469 4470 4471
8741 140 4459 4458 4457 4468
8742 140 4480 4481 4482 4483
8743 140 4471 4470 4469 4480
8744 140 4492 4493 4494 4495
8745 140 4483 4482 4481 4492
8746 140 4504 4505 4506 4507
8747 140 4495 4494 4493 4504
8748 140 4516 4517 4518 4519
8749 140 4507 4506 4505 4516
8750 140 4528 4529 4530 4531
8751 140 4519 4518 4517 4528
8752 140 4540 4541 4542 4543
8753 140 4531 4530 4529 4540
8754 140 4552 4553 4554 4555
8755 140 4543 4542 4541 4552
8756 140 4564 4565 4566 4567
8757 140 4555 4554 4553 4564
8758 140 4576 4577 4578 4579
8759 140 4567 4566 4565 4576
8760 140 4588 4589 4590 4591
8761 140 4579 4578 4577 4588
8762 140 4600 4601 4602 4603
8763 140 4591 4590 4589 4600
8764 140 4612 4613 4614 4615
8765 140 4603 4602 4601 4612
8766 140 4624 4625 4626 4627
8767 140 4615 4614 4613 4624
8768 140 4636 4637 4638 4639
8769 140 4627 4626 4625 4636
8770 140 4648 4649 4650 4651
8771 140 4639 4638 4637 4648
8772 140 4660 4661 4662 4663
8773 140 4651 4650 4649 4660
8774 140 4672 4673 4674 4675
8775 140 4663 4662 4661 4672
8776 140 4684 4685 4686 4687
8777 140 4675 4674 4673 4684
8778 140 4696 4697 4698 4699
8779 140 4687 4686 4685 4696
8780 140 4708 4709 4710 4711
8781 140 4699 4698 4697 4708
8782 140 4720 4721 4722 4723
8783 140 4711 4710 4709 4720
8784 140 4732 4733 4734 4735
8785 140 4723 4722 4721 4732
8786 140 4744 4745 4746 4747
8787 140 4735 4734 4733 4744
8788 140 4756 4757 4758 4759
8789 140 4747 4746 4745 4756
8790 140 4768 4769 4770 4771
8791 140 4759 4758 4757 4768
8792 140 4780 4781 4782 4783
8793 140 4771 4770 4769 4780
8794 140 4792 4793 4794 4795
8795 140 4783 4782 4781 4792
8796 140 4795 4794 4793 4804
8797 140 4830 4831 4832 4833
8798 140 4820 4819 4818 4830
8799 140 4842 4843 4844 4845
8800 140 4833 4832 4831 4842
8801 140 4854 4855 4856 4857
8802 140 4845 4844 4843 4854
8803 140 4866 4867 4868 4869
8804 140 4857 4856 4855 4866
8805 140 4878 4879 4880 4881
8806 140 4869 4868 4867 4878
8807 140 4890 4891 4892 4893
8808 140 4881 4880 4879 4890
8809 140 4902 4903 4904 4905
8810 140 4893 4892 4891 4902
8811 140 4914 4915 4916 4917
8812 140 4905 4904 4903 4914
8813 140 4926 4927 4928 4929
8814 140 4917 4916 4915 4926
8815 140 4938 4939 4940 4941
8816 140 4929 4928 4927 4938
8817 140 4950 4951 4952 4953
8818 140 4941 4940 4939 4950
8819 140 4962 4963 4964 4965
8820 140 4953 4952 4951 4962
8821 140 4974 4975 4976 4977
8822 140 4965 4964 4963 4974
8823 140 4986 4987 4988 4989
8824 140 4977 4976 4975 4986
8825 140 4998 4999 5000 5001
8826 140 4989 4988 4987 4998
8827 140 5010 5011 5012 5013
8828 140 5001 5000 4999 5010
8829 140 5022 5023 5024 5025
8830 140 5013 5012 5011 5022
8831 140 5034 5035 5036 5037
8832 140 5025 5024 5023 5034
8833 140 5046 5047 5048 5049
8834 140 5037 5036 5035 5046
8835 140 5058 5059 5060 5061
8836 140 5049 5048 5047 5058
8837 140 5070 5071 5072 5073
8838 140 5061 5060 5059 5070
8839 140 5082 5083 5084 5085
8840 140 5073 5072 5071 5082
8841 140 5094 5095 5096 5097
8842 140 5085 5084 5083 5094
8843 140 5106 5107 5108 5109
8844 140 5097 5096 5095 5106
8845 140 5118 5119 5120 5121
8846 140 5109 5108 5107 5118
8847 140 5130 5131 5132 5133
8848 140 5121 5120 5119 5130
8849 140 5142 5143 5144 5145
8850 140 5133 5132 5131 5142
8851 140 5154 5155 5156 5157
8852 140 5145 5144 5143 5154
8853 140 5166 5167 5168 5169
8854 140 5157 5156 5155 5166
8855 140 5178 5179 5180 5181
8856 140 5169 5168 5167 5178
8857 140 5190 5191 5192 5193
8858 140 5181 5180 5179 5190
8859 140 5202 5203 5204 5205
8860 140 5193 5192 5191 5202
8861 140 5214 5215 5216 5217
8862 140 5205 5204 5203 5214
8863 140 5226 5227 5228 5229
8864 140 5217 5216 5215 5226
8865 140 5238 5239 5240 5241
8866 140 5229 5228 5227 5238
8867 140 5250 5251 5252 5253
8868 140 5241 5240 5239 5250
8869 140 5262 5263 5264 5265
8870 140 5253 5252 5251 5262
8871 140 5274 5275 5276 5277
8872 140 5265 5264 5263 5274
8873 140 5286 5287 5288 5289
8874 140 5277 5276 5275 5286
8875 140 5298 5299 5300 5301
8876 140 5289 5288 5287 5298
8877 140 5310 5311 5312 5313
8878 140 5301 5300 5299 5310
8879 140 5322 5323 5324 5325
8880 140 5313 5312 5311 5322
8881 140 5334 5335 5336 5337
8882 140 5325 5324 5323 5334
8883 140 5346 5347 5348 5349
8884 140 5337 5336 5335 5346
8885 140 5358 5359 5360 5361
8886 140 5349 5348 5347 5358
8887 140 5370 5371 5372 5373
8888 140 5361 5360 5359 5370
8889 140 5382 5383 5384 5385
8890 140 5373 5372 5371 5382
8891 140 5394 5395 5396 5397
8892 140 5385 5384 5383 5394
8893 140 5397 5396 5395 5406
8894 140 5432 5433 5434 5435
8895 140 5422 5421 5420 5432
8896 140 5444 5445 5446 5447
8897 140 5435 5434 5433 5444
8898 140 5456 5457 5458 5459
8899 140 5447 5446 5445 5456
8900 140 5468 5469 5470 5471
8901 140 5459 5458 5457 5468
8902 140 5480 5481 5482 5483
8903 140 5471 5470 5469 5480
8904 140 5492 5493 5494 5495
8905 140 5483 5482 5481 5492
8906 140 5504 5505 5506 5507
8907 140 5495 5494 5493 5504
8908 140 5516 5517 5518 5519
8909 140 5507 5506 5505 5516
8910 140 5528 5529 5530 5531
8911 140 5519 5518 5517 5528
8912 140 5540 5541 5542 5543
8913 140 5531 5530 5529 5540
8914 140 5552 5553 5554 5555
8915 140 5543 5542 5541 5552
8916 140 5564 5565 5566 5567
8917 140 5555 5554 5553 5564
8918 140 5576 5577 5578 5579
8919 140 5567 5566 5565 5576
8920 140 5588 5589 5590 5591
8921 140 5579 5578 5577 5588
8922 140 5600 5601 5602 5603
8923 140 5591 5590 5589 5600
8924 140 5612 5613 5614 5615
8925 140 5603 5602 5601 5612
8926 140 5624 5625 5626 5627
8927 140 5615 5614 5613 5624
8928 140 5636 5637 5638 5639
8929 140 5627 5626 5625 5636
8930 140 5648 5649 5650 5651
8931 140 5639 5638 5637 5648
8932 140 5660 5661 5662 5663
8933 140 5651 5650 5649 5660
8934 140 5672 5673 5674 5675
8935 140 5663 5662 5661 5672
8936 140 5684 5685 5686 5687
8937 140 5675 5674 5673 5684
8938 140 5696 5697 5698 5699
8939 140 5687 5686 5685 5696
8940 140 5708 5709 5710 5711
8941 140 5699 5698 5697 5708
8942 140 5720 5721 5722 5723
8943 140 5711 5710 5709 5720
8944 140 5732 5733 5734 5735
8945 140 5723 5722 5721 5732
8946 140 5744 5745 5746 5747
8947 140 5735 5734 5733 5744
8948 140 5756 5757 5758 5759
8949 140 5747 5746 5745 5756
8950 140 5768 5769 5770 5771
8951 140 5759 5758 5757 5768
8952 140 5780 5781 5782 5783
8953 140 5771 5770 5769 5780
8954 140 5792 5793 5794 5795
8955 140 5783 5782 5781 5792
8956 140 5804 5805 5806 5807
8957 140 5795 5794 5793 5804
8958 140 5816 5817 5818 5819
8959 140 5807 5806 5805 5816
8960 140 5828 5829 5830 5831
8961 140 5819 5818 5817 5828
8962 140 5840 5841 5842 5843
8963 140 5831 5830 5829 5840
8964 140 5852 5853 5854 5855
8965 140 5843 5842 5841 5852
8966 140 5864 5865 5866 5867
8967 140 5855 5854 5853 5864
8968 140 5876 5877 5878 5879
8969 140 5867 5866 5865 5876
8970 140 5888 5889 5890 5891
8971 140 5879 5878 5877 5888
8972 140 5900 5901 5902 5903
8973 140 5891 5890 5889 5900
8974 140 5912 5913 5914 5915
8975 140 5903 5902 5901 5912
8976 140 5924 5925 5926 5927
8977 140 5915 5914 5913 5924
8978 140 5936 5937 5938 5939
8979 140 5927 5926 5925 5936
8980 140 5948 5949 5950 5951
8981 140 5939 5938 5937 5948
8982 140 5960 5961 5962 5963
8983 140 5951 5950 5949 5960
8984 140 5972 5973 5974 5975
8985 140 5963 5962 5961 5972
8986 140 5984 5985 5986 5987
8987 140 5975 5974 5973 5984
8988 140 5996 5997 5998 5999
8989 140 5987 5986 5985 5996
8990 140 5999 5998 5997 6008
8991 155 593 592 591 598
8992 155 593 592 591 599
8993 155 1195 1194 1193 1200
8994 155 1195 1194 1193 1201
8995 155 1797 1796 1795 1802
8996 155 1797 1796 1795 1803
8997 155 2399 2398 2397 2404
8998 155 2399 2398 2397 2405
8999 155 3001 3000 2999 3006
9000 155 3001 3000 2999 3007
9001 155 3603 3602 3601 3608
9002 155 3603 3602 3601 3609
9003 155 4205 4204 4203 4210
9004 155 4205 4204 4203 4211
9005 155 4807 4806 4805 4812
9006 155 4807 4806 4805 4813
9007 155 5409 5408 5407 5414
9008 155 5409 5408 5407 5415
9009 155 6011 6010 6009 6016
9010 155 6011 6010 6009 6017
9011 156 4 3 2 10
9012 156 17 16 15 22
9013 156 29 28 27 34
9014 156 41 40 39 46
9015 156 53 52 51 58
9016 156 65 64 63 70
9017 156 77 76 75 82
9018 156 89 88 87 94
9019 156 101 100 99 106
9020 156 113 112 111 118
9021 156 125 124 123 130
9022 156 137 136 135 142
9023 156 149 148 147 154
9024 156 161 160 159 166
9025 156 173 172 171 178
9026 156 185 184 183 190
9027 156 197 196 195 202
9028 156 209 208 207 214
9029 156 221 220 219 226
9030 156 233 232 231 238
9031 156 245 244 243 250
9032 156 257 256 255 262
9033 156 269 268 267 274
9034 156 281 280 279 286
9035 156 293 292 291 298
9036 156 305 304 303 310
9037 156 317 316 315 322
9038 156 329 328 327 334
9039 156 341 340 339 346
9040 156 353 352 351 358
9041 156 365 364 363 370
9042 156 377 376 375 382
9043 156 389 388 387 394
9044 156 401 400 399 406
9045 156 413 412 411 418
9046 156 425 424 423 430
9047 156 437 436 435 442
9048 156 449 448 447 454
9049 156 461 460 459 466
9050 156 473 472 471 478
9051 156 485 484 483 490
9052 156 497 496 495 502
9053 156 509 508 507 514
9054 156 521 520 519 526
9055 156 533 532 531 538
9056 156 545 544 543 550
9057 156 557 556 555 562
9058 156 569 568 567 574
9059 156 581 580 579 586
9060 156 606 605 604 612
9061 156 619 618 617 624
9062 156 631 630 629 636
9063 156 643 642 641 648
9064 156 655 654 653 660
9065 156 667 666 665 672
9066 156 679 678 677 684
9067 156 691 690 689 696
9068 156 703 702 701 708
9069 156 715 714 713 720
9070 156 727 726 725 732
9071 156 739 738 737 744
9072 156 751 750 749 756
9073 156 763 762 761 768
9074 156 775 774 773 780
9075 156 787 786 785 792
9076 156 799 798 797 804
9077 156 811 810 809 816
9078 156 823 822 821 828
9079 156 835 834 833 840
9080 156 847 846 845 852
9081 156 859 858 857 864
9082 156 871 870 869 876
9083 156 883 882 881 888
9084 156 895 894 893 900
9085 156 907 906 905 912
9086 156 919 918 917 924
9087 156 931 930 929 936
9088 156 943 942 941 948
9089 156 955 954 953 960
9090 156 967 966 965 972
9091 156 979 978 977 984
9092 156 991 990 989 996
9093 156 1003 1002 1001 1008
9094 156 1015 1014 1013 1020
9095 156 1027 1026 1025 1032
9096 156 1039 1038 1037 1044
9097 156 1051 1050 1049 1056
9098 156 1063 1062 1061 1068
9099 156 1075 1074 1073 1080
9100 156 1087 1086 1085 1092
9101 156 1099 1098 1097 1104
9102 156 1111 1110 1109 1116
9103 156 1123 1122 1121 1128
9104 156 1135 1134 1133 1140
9105 156 1147 1146 1145 1152
9106 156 1159 1158 1157 1164
9107 156 1171 1170 1169 1176
9108 156 1183 1182 1181 1188
9109 156 1208 1207 1206 1214
9110 156 1221 1220 1219 1226
9111 156 1233 1232 1231 1238
9112 156 1245 1244 1243 1250
9113 156 1257 1256 1255 1262
9114 156 1269 1268 1267 1274
9115 156 1281 1280 1279 1286
9116 156 1293 1292 1291 1298
9117 156 1305 1304 1303 1310
9118 156 1317 1316 1315 1322
9119 156 1329 1328 1327 1334
9120 156 1341 1340 1339 1346
9121 156 1353 1352 1351 1358
9122 156 1365 1364 1363 1370
9123 156 1377 1376 1375 1382
9124 156 1389 1388 1387 1394
9125 156 1401 1400 1399 1406
9126 156 1413 1412 1411 1418
9127 156 1425 1424 1423 1430
9128 156 1437 1436 1435 1442
9129 156 1449 1448 1447 1454
9130 156 1461 1460 1459 1466
9131 156 1473 1472 1471 1478
9132 156 1485 1484 1483 1490
9133 156 1497 1496 1495 1502
9134 156 1509 1508 1507 1514
9135 156 1521 1520 1519 1526
9136 156 1533 1532 1531 1538
9137 156 1545 1544 1543 1550
9138 156 1557 1556 1555 1562
9139 156 1569 1568 1567 1574
9140 156 1581 1580 1579 1586
9141 156 1593 1592 1591 1598
9142 156 1605 1604 1603 1610
9143 156 1617 1616 1615 1622
9144 156 1629 1628 1627 1634
9145 156 1641 1640 1639 1646
9146 156 1653 1652 1651 1658
9147 156 1665 1664 1663 1670
9148 156 1677 1676 1675 1682
9149 156 1689 1688 1687 1694
9150 156 1701 1700 1699 1706
9151 156 1713 1712 1711 1718
9152 156 1725 1724 1723 1730
9153 156 1737 1736 1735 1742
9154 156 1749 1748 1747 1754
9155 156 1761 1760 1759 1766
9156 156 1773 1772 1771 1778
9157 156 1785 1784 1783 1790
9158 156 1810 1809 1808 1816
9159 156 1823 1822 1821 1828
9160 156 1835 1834 1833 1840
9161 156 1847 1846 1845 1852
9162 156 1859 1858 1857 1864
9163 156 1871 1870 1869 1876
9164 156 1883 1882 1881 1888
9165 156 1895 1894 1893 1900
9166 156 1907 1906 1905 1912
9167 156 1919 1918 1917 1924
9168 156 1931 1930 1929 1936
9169 156 1943 1942 1941 1948
9170 156 1955 1954 1953 1960
9171 156 1967 1966 1965 1972
9172 156 1979 1978 1977 1984
9173 156 1991 1990 1989 1996
9174 156 2003 2002 2001 2008
9175 156 2015 2014 2013 2020
9176 156 2027 2026 2025 2032
9177 156 2039 2038 2037 2044
9178 156 2051 2050 2049 2056
9179 156 2063 2062 2061 2068
9180 156 2075 2074 2073 2080
9181 156 2087 2086 2085 2092
9182 156 2099 2098 2097 2104
9183 156 2111 2110 2109 2116
9184 156 2123 2122 2121 2128
9185 156 2135 2134 2133 2140
9186 156 2147 2146 2145 2152
9187 156 2159 2158 2157 2164
9188 156 2171 2170 2169 2176
9189 156 2183 2182 2181 2188
9190 156 2195 2194 2193 2200
9191 156 2207 2206 2205 2212
9192 156 2219 2218 2217 2224
9193 156 2231 2230 2229 2236
9194 156 2243 2242 2241 2248
9195 156 2255 2254 2253 2260
9196 156 2267 2266 2265 2272
9197 156 2279 2278 2277 2284
9198 156 2291 2290 2289 2296
9199 156 2303 2302 2301 2308
9200 156 2315 2314 2313 2320
9201 156 2327 2326 2325 2332
9202 156 2339 2338 2337 2344
9203 156 2351 2350 2349 2356
9204 156 2363 2362 2361 2368
9205 156 2375 2374 2373 2380
9206 156 2387 2386 2385 2392
9207 156 2412 2411 2410 2418
9208 156 2425 2424 2423 2430
9209 156 2437 2436 2435 2442
9210 156 2449 2448 2447 2454
9211 156 2461 2460 2459 2466
9212 156 2473 2472 2471 2478
9213 156 2485 2484 2483 2490
9214 156 2497 2496 2495 2502
9215 156 2509 2508 2507 2514
9216 156 2521 2520 2519 2526
9217 156 2533 2532 2531 2538
9218 156 2545 2544 2543 2550
9219 156 2557 2556 2555 2562
9220 156 2569 2568 2567 2574
9221 156 2581 2580 2579 2586
9222 156 2593 2592 2591 2598
9223 156 2605 2604 2603 2610
9224 156 2617 2616 2615 2622
9225 156 2629 2628 2627 2634
9226 156 2641 2640 2639 2646
9227 156 2653 2652 2651 2658
9228 156 2665 2664 2663 2670
9229 156 2677 2676 2675 2682
9230 156 2689 2688 2687 2694
9231 156 2701 2700 2699 2706
9232 156 2713 2712 2711 2718
9233 156 2725 2724 2723 2730
9234 156 2737 2736 2735 2742
9235 156 2749 2748 2747 2754
9236 156 2761 2760 2759 2766
9237 156 2773 2772 2771 2778
9238 156 2785 2784 2783 2790
9239 156 2797 2796 2795 2802
9240 156 2809 2808 2807 2814
9241 156 2821 2820 2819 2826
9242 156 2833 2832 2831 2838
9243 156 2845 2844 2843 2850
9244 156 2857 2856 2855 2862
9245 156 2869 2868 2867 2874
9246 156 2881 2880 2879 2886
9247 156 2893 2892 2891 2898
9248 156 2905 2904 2903 2910
9249 156 2917 2916 2915 2922
9250 156 2929 2928 2927 2934
9251 156 2941 2940 2939 2946
9252 156 2953 2952 2951 2958
9253 156 2965 2964 2963 2970
9254 156 2977 2976 2975 2982
9255 156 2989 2988 2987 2994
9256 156 3014 3013 3012 3020
9257 156 3027 3026 3025 3032
9258 156 3039 3038 3037 3044
9259 156 3051 3050 3049 3056
9260 156 3063 3062 3061 3068
9261 156 3075 3074 3073 3080
9262 156 3087 3086 3085 3092
9263 156 3099 3098 3097 3104
9264 156 3111 3110 3109 3116
9265 156 3123 3122 3121 3128
9266 156 3135 3134 3133 3140
9267 156 3147 3146 3145 3152
9268 156 3159 3158 3157 3164
9269 156 3171 3170 3169 3176
9270 156 3183 3182 3181 3188
9271 156 3195 3194 3193 3200
9272 156 3207 3206 3205 3212
9273 156 3219 3218 3217 3224
9274 156 3231 3230 3229 3236
9275 156 3243 3242 3241 3248
9276 156 3255 3254 3253 3260
9277 156 3267 3266 3265 3272
9278 156 3279 3278 3277 3284
9279 156 3291 3290 3289 3296
9280 156 3303 3302 3301 3308
9281 156 3315 3314 3313 3320
9282 156 3327 3326 3325 3332
9283 156 3339 3338 3337 3344
9284 156 3351 3350 3349 3356
9285 156 3363 3362 3361 3368
9286 156 3375 3374 3373 3380
9287 156 3387 3386 3385 3392
9288 156 3399 3398 3397 3404
9289 156 3411 3410 3409 3416
9290 156 3423 3422 3421 3428
9291 156 3435 3434 3433 3440
9292 156 3447 3446 3445 3452
9293 156 3459 3458 3457 3464
9294 156 3471 3470 3469 3476
9295 156 3483 3482 3481 3488
9296 156 3495 3494 3493 3500
9297 156 3507 3506 3505 3512
9298 156 3519 3518 3517 3524
9299 156 3531 3530 3529 3536
9300 156 3543 3542 3541 3548
9301 156 3555 3554 3553 3560
9302 156 3567 3566 3565 3572
9303 156 3579 3578 3577 3584
9304 156 3591 3590 3589 3596
9305 156 3616 3615 3614 3622
9306 156 3629 3628 3627 3634
9307 156 3641 3640 3639 3646
9308 156 3653 3652 3651 3658
9309 156 3665 3664 3663 3670
9310 156 3677 3676 3675 3682
9311 156 3689 3688 3687 3694
9312 156 3701 3700 3699 3706
9313 156 3713 3712 3711 3718
9314 156 3725 3724 3723 3730
9315 156 3737 3736 3735 3742
9316 156 3749 3748 3747 3754
9317 156 3761 3760 3759 3766
9318 156 3773 3772 3771 3778
9319 156 3785 3784 3783 3790
9320 156 3797 3796 3795 3802
9321 156 3809 3808 3807 3814
9322 156 3821 3820 3819 3826
9323 156 3833 3832 3831 3838
9324 156 3845 3844 3843 3850
9325 156 3857 3856 3855 3862
9326 156 3869 3868 3867 3874
9327 156 3881 3880 3879 3886
9328 156 3893 3892 3891 3898
9329 156 3905 3904 3903 3910
9330 156 3917 3916 3915 3922
9331 156 3929 3928 3927 3934
9332 156 3941 3940 3939 3946
9333 156 3953 3952 3951 3958
9334 156 3965 3964 3963 3970
9335 156 3977 3976 3975 3982
9336 156 3989 3988 3987 3994
9337 156 4001 4000 3999 4006
9338 156 4013 4012 4011 4018
9339 156 4025 4024 4023 4030
9340 156 4037 4036 4035 4042
9341 156 4049 4048 4047 4054
9342 156 4061 4060 4059 4066
9343 156 4073 4072 4071 4078
9344 156 4085 4084 4083 4090
9345 156 4097 4096 4095 4102
9346 156 4109 4108 4107 4114
9347 156 4121 4120 4119 4126
9348 156 4133 4132 4131 4138
9349 156 4145 4144 4143 4150
9350 156 4157 4156 4155 4162
9351 156 4169 4168 4167 4174
9352 156 4181 4180 4179 4186
9353 156 4193 4192 4191 4198
9354 156 4218 4217 4216 4224
9355 156 4231 4230 4229 4236
9356 156 4243 4242 4241 4248
9357 156 4255 4254 4253 4260
9358 156 4267 4266 4265 4272
9359 156 4279 4278 4277 4284
9360 156 4291 4290 4289 4296
9361 156 4303 4302 4301 4308
9362 156 4315 4314 4313 4320
9363 156 4327 4326 4325 4332
9364 156 4339 4338 4337 4344
9365 156 4351 4350 4349 4356
9366 156 4363 4362 4361 4368
9367 156 4375 4374 4373 4380
9368 156 4387 4386 4385 4392
9369 156 4399 4398 4397 4404
9370 156 4411 4410 4409 4416
9371 156 4423 4422 4421 4428
9372 156 4435 4434 4433 4440
9373 156 4447 4446 4445 4452
9374 156 4459 4458 4457 4464
9375 156 4471 4470 4469 4476
9376 156 4483 4482 4481 4488
9377 156 4495 4494 4493 4500
9378 156 4507 4506 4505 4512
9379 156 4519 4518 4517 4524
9380 156 4531 4530 4529 4536
9381 156 4543 4542 4541 4548
9382 156 4555 4554 4553 4560
9383 156 4567 4566 4565 4572
9384 156 4579 4578 4577 4584
9385 156 4591 4590 4589 4596
9386 156 4603 4602 4601 4608
9387 156 4615 4614 4613 4620
9388 156 4627 4626 4625 4632
9389 156 4639 4638 4637 4644
9390 156 4651 4650 4649 4656
9391 156 4663 4662 4661 4668
9392 156 4675 4674 4673 4680
9393 156 4687 4686 4685 4692
9394 156 4699 4698 4697 4704
9395 156 4711 4710 4709 4716
9396 156 4723 4722 4721 4728
9397 156 4735 4734 4733 4740
9398 156 4747 4746 4745 4752
9399 156 4759 4758 4757 4764
9400 156 4771 4770 4769 4776
9401 156 4783 4782 4781 4788
9402 156 4795 4794 4793 4800
9403 156 4820 4819 4818 4826
9404 156 4833 4832 4831 4838
9405 156 4845 4844 4843 4850
9406 156 4857 4856 4855 4862
9407 156 4869 4868 4867 4874
9408 156 4881 4880 4879 4886
9409 156 4893 4892 4891 4898
9410 156 4905 4904 4903 4910
9411 156 4917 4916 4915 4922
9412 156 4929 4928 4927 4934
9413 156 4941 4940 4939 4946
9414 156 4953 4952 4951 4958
9415 156 4965 4964 4963 4970
9416 156 4977 4976 4975 4982
9417 156 4989 4988 4987 4994
9418 156 5001 5000 4999 5006
9419 156 5013 5012 5011 5018
9420 156 5025 5024 5023 5030
9421 156 5037 5036 5035 5042
9422 156 5049 5048 5047 5054
9423 156 5061 5060 5059 5066
9424 156 5073 5072 5071 5078
9425 156 5085 5084 5083 5090
9426 156 5097 5096 5095 5102
9427 156 5109 5108 5107 5114
9428 156 5121 5120 5119 5126
9429 156 5133 5132 5131 5138
9430 156 5145 5144 5143 5150
9431 156 5157 5156 5155 5162
9432 156 5169 5168 5167 5174
9433 156 5181 5180 5179 5186
9434 156 5193 5192 5191 5198
9435 156 5205 5204 5203 5210
9436 156 5217 5216 5215 5222
9437 156 5229 5228 5227 5234
9438 156 5241 5240 5239 5246
9439 156 5253 5252 5251 5258
9440 156 5265 5264 5263 5270
9441 156 5277 5276 5275 5282
9442 156 5289 5288 5287 5294
9443 156 5301 5300 5299 5306
9444 156 5313 5312 5311 5318
9445 156 5325 5324 5323 5330
9446 156 5337 5336 5335 5342
9447 156 5349 5348 5347 5354
9448 156 5361 5360 5359 5366
9449 156 5373 5372 5371 5378
9450 156 5385 5384 5383 5390
9451 156 5397 5396 5395 5402
9452 156 5422 5421 5420 5428
9453 156 5435 5434 5433 5440
9454 156 5447 5446 5445 5452
9455 156 5459 5458 5457 5464
9456 156 5471 5470 5469 5476
9457 156 5483 5482 5481 5488
9458 156 5495 5494 5493 5500
9459 156 5507 5506 5505 5512
9460 156 5519 5518 5517 5524
9461 156 5531 5530 5529 5536
9462 156 5543 5542 5541 5548
9463 156 5555 5554 5553 5560
9464 156 5567 5566 5565 5572
9465 156 5579 5578 5577 5584
9466 156 5591 5590 5589 5596
9467 156 5603 5602 5601 5608
9468 156 5615 5614 5613 5620
9469 156 5627 5626 5625 5632
9470 156 5639 5638 5637 5644
9471 156 5651 5650 5649 5656
9472 156 5663 5662 5661 5668
9473 156 5675 5674 5673 5680
9474 156 5687 5686 5685 5692
9475 156 5699 5698 5697 5704
9476 156 5711 5710 5709 5716
9477 156 5723 5722 5721 5728
9478 156 5735 5734 5733 5740
9479 156 5747 5746 5745 5752
9480 156 5759 5758 5757 5764
9481 156 5771 5770 5769 5776
9482 156 5783 5782 5781 5788
9483 156 5795 5794 5793 5800
9484 156 5807 5806 5805 5812
9485 156 5819 5818 5817 5824
9486 156 5831 5830 5829 5836
9487 156 5843 5842 5841 5848
9488 156 5855 5854 5853 5860
9489 156 5867 5866 5865 5872
9490 156 5879 5878 5877 5884
9491 156 5891 5890 5889 5896
9492 156 5903 5902 5901 5908
9493 156 5915 5914 5913 5920
9494 156 5927 5926 5925 5932
9495 156 5939 5938 5937 5944
9496 156 5951 5950 5949 5956
9497 156 5963 5962 5961 5968
9498 156 5975 5974 5973 5980
9499 156 5987 5986 5985 5992
9500 156 5999 5998 5997 6004

