LAMMPS Description

     710  atoms
     705  bonds
     1300  angles
     1105  dihedrals
     0  impropers

     8  atom types
     9  bond types
     10  angle types
     21  dihedral types
     0  improper types

  -158.4000 158.4000 xlo xhi
  -158.4000 158.4000 ylo yhi
  -158.4000 158.4000 zlo zhi

Masses

1 12.011  # 54_bCT_aCT_dCT_iCT
2 1.008  # 60_bHC_aHC_dHC_iHC
3 15.999  # 154_bOH_aOH_dOH_iOH
4 1.008  # 155_bHO_aHO_dHO_iHO
5 12.011  # 157_bCT_aCT_dCT_iCT
6 15.999  # 180_bOS_aOS_dOS_iOS
7 12.011  # 182_bCT_aCT_dCT_iCT
8 1.008  # 185_bHC_aHC_dHC_iHC

Atoms  # full

1 1 1 -0.1800 -0.7132266709526276 0.2932164768615585 -0.12401484843514088
2 1 6 -0.4000 0.8452266709526277 -0.5890164768615584 1.341414848435141
3 1 7 0.1400 0.6907577139223029 -0.26249150289878853 -0.015749026228702334
4 1 2 0.0600 -0.9731054436880986 0.6264462788134565 -1.1360775552733111
5 1 2 0.0600 -0.7862921263241391 1.1058981000529857 0.6403299811792822
6 1 2 0.0600 -1.3895524518267641 -0.5359759215767028 0.20499944380334645
7 1 8 0.0300 0.8592720484487022 -1.1405700941636265 -0.6572698026821875
8 1 8 0.0300 1.4666661938471879 0.5025242657428919 -0.25402387700031315
9 1 7 0.1400 0.8452900143500062 -0.5890487952052854 1.3414462123891278
10 1 6 -0.4000 2.847109985649994 -1.6467512047947144 0.7345537876108723
11 1 7 0.1400 2.081797324561179 -0.5033833127055153 0.5355578225345458
12 1 8 0.0300 -0.05426172650287109 -0.14434200963029842 0.9440049709557303
13 1 8 0.0300 0.776974849087698 -1.3406228468662045 2.1053954797264125
14 1 8 0.0300 1.7900490047258604 -0.3830485023009612 -0.5360687221526268
15 1 8 0.0300 2.622088277422506 0.4123407152112737 0.8839716439481795
16 1 7 0.1400 2.847059825569602 -1.6466981462797945 0.7345732676575022
17 1 6 -0.4000 2.5275401744303982 -1.8861018537202054 -1.5751732676575023
18 1 7 0.1400 3.2051499905079766 -1.1490237770865055 -0.6107284293690307
19 1 8 0.0300 3.6012287002458043 -1.6184736237375945 1.5061623323784161
20 1 8 0.0300 2.004542781942778 -2.304881914568402 0.835112605032111
21 1 8 0.0300 4.312777551839504 -1.2339309945599726 -0.7287663461571758
22 1 8 0.0300 2.904897182573625 -0.07155087689387973 -0.6382493428355238
23 1 7 0.1400 2.527518165175913 -1.8861571393070058 -1.5752452187591306
24 1 6 -0.4000 2.6444818348240866 0.3509571393070058 -2.265154781240869
25 1 7 0.1400 1.7989498888412285 -0.7489718326436419 -2.176695836040099
26 1 8 0.0300 2.2804409423377017 -2.882988796605458 -1.9072037899124856
27 1 8 0.0300 3.4710080072599965 -1.701036869836778 -1.0970126354741536
28 1 8 0.0300 1.4281409975780566 -1.0666869652862727 -3.1814539465572786
29 1 8 0.0300 0.9301709707821046 -0.5399062501159552 -1.503366961166626
30 1 7 0.1400 2.6444879337151557 0.3509197609785133 -2.2651545988563875
31 1 6 -0.4000 3.199712066284844 0.3538802390214867 -4.542445401143612
32 1 7 0.1400 3.3828775283088843 1.037925653588646 -3.3461489143431358
33 1 8 0.0300 3.0650113000534573 0.36546487245237363 -1.2712403479797256
34 1 8 0.0300 1.9208929192217317 -0.3977343683292354 -2.5279782082804987
35 1 8 0.0300 4.46090372598375 1.0819999066703108 -3.0564974387004833
36 1 8 0.0300 2.96551533349039 2.0744565861315096 -3.4033277934691757
37 1 7 0.1400 3.1997152731204666 0.3538455116366046 -4.542442492382963
38 1 6 -0.4000 5.019884726879533 1.7439544883633953 -5.041357507617037
39 1 7 0.1400 3.8438286853597607 1.6631384158324831 -4.30450341783703
40 1 8 0.0300 2.6554246964158974 -0.10194647035166104 -3.7294735893701754
41 1 8 0.0300 3.5447266543424556 -0.25127306391972426 -5.359723139617421
42 1 8 0.0300 4.035675982801842 1.7615025933714152 -3.208373816448007
43 1 8 0.0300 3.107251636600629 2.4402289773305252 -4.629221003551054
44 1 7 0.1400 5.01989667163 1.743965203951993 -5.041367255597636
45 1 6 -0.4000 6.84610332837 0.2870347960480071 -5.232832744402365
46 1 7 0.1400 6.438575744328488 1.5050029936058373 -4.7007916388635
47 1 8 0.0300 4.407124814194831 2.275598518027171 -4.3294728321745435
48 1 8 0.0300 4.557067594399972 1.128664750514786 -5.789928273331239
49 1 8 0.0300 6.536204635100974 1.5229782603873518 -3.5880803153520207
50 1 8 0.0300 7.016264984555867 2.354851130996619 -5.14338658359167
51 1 7 0.1400 6.84612008001421 0.2869851548964533 -5.232826942353855
52 1 6 -0.4000 7.44567991998579 1.2514148451035467 -7.283373057646145
53 1 7 0.1400 6.473711257807836 1.2516562741936113 -6.28945663185573
54 1 8 0.0300 6.05506335432448 -0.2409338926157446 -4.72248613856206
55 1 8 0.0300 7.845213595076686 -0.10647708462204619 -5.220636198603172
56 1 8 0.0300 5.473084765834985 0.9582917620247906 -6.6902868784216
57 1 8 0.0300 6.401967731429259 2.2513892778109548 -5.7922204828269095
58 1 7 0.1400 7.445699034278727 1.2514720809343773 -7.283317538799745
59 1 6 -0.4000 6.9959009657212725 3.528927919065623 -7.607682461200255
60 1 7 0.1400 6.608816317972282 2.404319470779856 -6.887950348868646
61 1 8 0.0300 7.686421858436029 0.5146825642334418 -6.532244486421127
62 1 8 0.0300 8.050537002142683 1.3304803156937521 -8.167103560113958
63 1 8 0.0300 6.72645940762323 2.557504708206463 -5.787643397835466
64 1 8 0.0300 5.551472152944082 2.1195449834883795 -7.117697618860467
65 1 7 0.1400 6.995926961857447 3.528979404757861 -7.607654428270043
66 1 6 -0.4000 5.514073038142553 3.6194205952421385 -5.793745571729958
67 1 7 0.1400 5.836912022575148 4.221006298230572 -7.004721472435849
68 1 8 0.0300 7.044464323831857 3.4582256140800465 -8.683551740097379
69 1 8 0.0300 7.565086654231 2.8493925201063313 -7.00154560075895
70 1 8 0.0300 4.9880711296259275 4.172233391041128 -7.729339538717293
71 1 8 0.0300 6.146922369118486 5.286121226164742 -6.858842154752132
72 1 7 0.1400 5.513991849475339 3.6194636989616105 -5.7937678777168236
73 1 6 -0.4000 3.4336081505246607 4.306736301038389 -6.626832122283177
74 1 7 0.1400 4.389223732433329 4.56838478175024 -5.651674733881419
75 1 8 0.0300 6.507079122410862 3.965792226118576 -5.5513813689941385
76 1 8 0.0300 5.38740518053451 2.757829135167251 -6.4220279303394365
77 1 8 0.0300 4.7963214078682554 5.604942425943756 -5.739996491786633
78 1 8 0.0300 3.973888225937414 4.413067909385271 -4.624430806567879
79 1 7 0.1400 3.433684452984777 4.3067160464526895 -6.6268618225429075
80 1 6 -0.4000 2.494115547015223 4.53648395354731 -4.491738177457093
81 1 7 0.1400 3.2959389875202536 5.169756797507882 -5.434413983531888
82 1 8 0.0300 4.365953984298121 4.332557882395178 -7.1701138087334035
83 1 8 0.0300 2.7759956574112152 3.4646957400446885 -6.734547716575385
84 1 8 0.0300 4.318697843947689 5.375828661476735 -5.035064877511044
85 1 8 0.0300 2.830371961388739 6.12371775500862 -5.788056226120825
86 1 7 0.1400 2.4940656244678037 4.536498087645506 -4.491737216663608
87 1 6 -0.4000 0.8735343755321965 3.0671019123544943 -3.6496627833363933
88 1 7 0.1400 2.2418486692956456 3.2437028068844294 -3.8203118897913075
89 1 8 0.0300 3.3335353084568506 4.605382301467322 -5.166616920573482
90 1 8 0.0300 1.6925974296265158 5.247737917997295 -4.561991301092963
91 1 8 0.0300 2.6876988892628 2.4339689375815974 -4.4476312998681085
92 1 8 0.0300 2.770790236318384 3.291703523749201 -2.835540977418284
93 1 7 0.1400 0.8735573352746447 3.067015556660753 -3.649665569492285
94 1 6 -0.4000 -0.4385573352746447 4.179584443339247 -2.0575344305077152
95 1 7 0.1400 0.1759474004379015 4.321720668025787 -3.296394480480556
96 1 8 0.0300 1.7886320899254853 3.1349274874612134 -4.21794645343583
97 1 8 0.0300 0.661835303328289 2.18022869373502 -3.0822751915946305
98 1 8 0.0300 0.9281201267236894 5.147673151757805 -3.291957764497428
99 1 8 0.0300 -0.5766703194503572 4.501971447236217 -4.104437316167026
100 1 7 0.1400 -0.43852004457120997 4.179586959818959 -2.057511999517801
101 1 6 -0.4000 -2.38827995542879 3.7812130401810404 -3.2960880004821993
102 1 7 0.1400 -1.586020739197904 4.785264544794035 -2.766131656943428
103 1 8 0.0300 -0.0559156303322339 4.683051221924277 -1.1828380036841546
104 1 8 0.0300 -0.22992983456763194 3.1369392614079397 -2.2075949808610105
105 1 8 0.0300 -2.1467831030415647 5.421179444161277 -2.038712374782705
106 1 8 0.0300 -1.1539693572338856 5.428123253300314 -3.5735480824888963
107 1 7 0.1400 -2.3882844045860128 3.781096971083239 -3.2960466182377712
108 1 6 -0.4000 -2.0765155954139876 3.049303028916761 -5.50095338176223
109 1 7 0.1400 -2.44594631342533 4.144162797234618 -4.728039394109921
110 1 8 0.0300 -3.104570597128772 4.2320940527860875 -2.626380490478489
111 1 8 0.0300 -1.8902240277598659 2.8729864741432163 -3.012462086954519
112 1 8 0.0300 -3.4857563806687644 4.480845495824617 -4.959168761628113
113 1 8 0.0300 -1.734586648239905 4.9967215362251585 -4.865763841170482
114 1 7 0.1400 -2.0765465201400213 3.0492865881308986 -5.500915426725585
115 1 6 -0.4000 -0.3388534798599787 4.035313411869102 -6.726684573274416
116 1 7 0.1400 -1.6974177029825543 4.122042368306825 -6.44495005326209
117 1 8 0.0300 -3.0616266846519826 2.6171156036677226 -5.589019397539709
118 1 8 0.0300 -1.2997906529233725 2.508980390329153 -4.993107849624245
119 1 8 0.0300 -2.318380817324073 4.00875354932543 -7.366661208733848
120 1 8 0.0300 -1.946189640120296 5.088799719783587 -5.939628624210868
121 1 7 0.1400 -0.3388720485240513 4.035287883301706 -6.726671894102158
122 1 6 -0.4000 0.03407204852405124 3.8881121166982937 -9.036128105897843
123 1 7 0.1400 -0.555989756179894 4.665637136181188 -8.046241793886383
124 1 8 0.0300 -1.1102251850176634 4.138982642728581 -5.978889348378557
125 1 8 0.0300 0.38207946379298574 3.2437381539326746 -6.644046578226269
126 1 8 0.0300 -1.656979995481638 4.7696857431819755 -8.204277803528123
127 1 8 0.0300 -0.08572085070962321 5.67943798219658 -7.992278832827249
128 1 7 0.1400 0.034035409422504825 3.8881006795780584 -9.036190863772879
129 1 6 -0.4000 1.8709645905774952 2.4324993204219414 -9.00080913622712
130 1 7 0.1400 1.4271704201921713 3.6612420193850843 -9.476026048885723
131 1 8 0.0300 -0.6255895129125685 4.434250960841589 -9.693101688855107
132 1 8 0.0300 -0.3769829770591341 3.2543011332339056 -8.272966767567853
133 1 8 0.0300 1.450343077049999 3.7052263662472837 -10.592049975692516
134 1 8 0.0300 2.031913603520779 4.502321517741315 -9.053263752006716
135 1 7 0.1400 1.870981903455922 2.4324872122947796 -9.000855812455368
136 1 5 0.1450 1.8506000200059836 1.6976821632938501 -10.267668789492536
137 1 3 -0.6830 3.112956769032638 1.1174542537555967 -10.457600385546815
138 1 8 0.0300 1.1960251128353536 3.2553846090470238 -8.846949330416557
139 1 8 0.0300 2.588704867801093 2.1752966496819277 -8.241742671379239
140 1 8 0.0300 1.598007030637766 2.401484456009739 -11.097500166634838
141 1 8 0.0300 1.0815933558852204 0.8861760929987529 -10.20108314229988
142 1 4 0.4180 3.1212180965440783 0.15871278770522057 -10.203544187544631
143 2 1 -0.1800 87.30918403495399 0.301814587202359 -0.20426873150254266
144 2 6 -0.4000 88.85541596504602 -0.182814587202359 1.4476687315025427
145 2 7 0.1400 88.66438239745783 -0.3176878881083668 0.06286247474413087
146 2 2 0.0600 87.03036249317506 0.2992467743255998 -1.2649769638534791
147 2 2 0.0600 87.34224496168564 1.3269866664045318 0.24063820612367415
148 2 2 0.0600 86.58133578414814 -0.29956853821810003 0.3972312770247951
149 2 8 0.0300 88.72664108298395 -1.372084655229496 -0.24590817405699794
150 2 8 0.0300 89.49022965073706 0.24444291070796415 -0.43316502376100174
151 2 7 0.1400 88.85535398980684 -0.18278991702220637 1.4477203914737329
152 2 6 -0.4000 87.08204601019315 0.6049899170222064 2.762679608526267
153 2 7 0.1400 87.43845299680126 0.23869149989502914 1.4698561366218252
154 2 8 0.0300 89.14419113872022 -0.9645020468638597 0.7618514189534564
155 2 8 0.0300 89.47367033529298 0.03730295010026469 2.2976574637011224
156 2 8 0.0300 86.81760700208088 -0.6112108224962496 1.0954268465902266
157 2 8 0.0300 87.35620222886939 1.1041764868149342 0.7655639042417799
158 2 7 0.1400 87.08204265821419 0.6049475611718376 2.762682890606007
159 2 6 -0.4000 88.0579573417858 1.9520524388281624 4.4141171093939935
160 2 7 0.1400 86.87331482194463 1.7027209075612741 3.7307073584389046
161 2 8 0.0300 86.25914490819828 -0.06534787975245626 2.5665698749878523
162 2 8 0.0300 88.0861527174356 0.29805867483182424 2.537447013332037
163 2 8 0.0300 86.05151453197898 1.4017133005156277 4.424983747143743
164 2 8 0.0300 86.5543571976331 2.593256970176535 3.1331552225752204
165 2 7 0.1400 88.05799938616047 1.9520711320803477 4.414117685968235
166 2 6 -0.4000 87.13140061383953 0.6977288679196522 6.1640823140317655
167 2 7 0.1400 87.59500053714991 1.961846239791754 5.8181410166448035
168 2 8 0.0300 87.92756954414658 2.8488708932923514 3.827896529234427
169 2 8 0.0300 88.19678658471075 1.0077985090864068 3.9219425880785597
170 2 8 0.0300 86.79511476945382 2.735721452512105 5.91447851595977
171 2 8 0.0300 88.47859921074321 2.2540657463543066 6.439203126267112
172 2 7 0.1400 87.13143414159475 0.6977287050671979 6.164180070849161
173 2 6 -0.4000 85.02776585840525 1.601871294932802 6.665619929150839
174 2 7 0.1400 85.66808081233552 0.489790990987226 6.13095446612785
175 2 8 0.0300 87.76508914400425 -0.1613673595377505 6.323404094481637
176 2 8 0.0300 87.50933393731738 1.6836618725391466 6.359823965902214
177 2 8 0.0300 85.43608864601045 -0.43779128804723455 6.708666981471803
178 2 8 0.0300 85.39519688015694 0.3421784158126515 5.055965216316908
179 2 7 0.1400 85.02772503760839 1.6018025780477902 6.66567310998652
180 2 6 -0.4000 83.34167496239162 0.038197421952209654 7.120326890013479
181 2 7 0.1400 84.6924102705786 0.17010650396698368 6.819150660375357
182 2 8 0.0300 85.78556227174514 1.873849280282872 5.946930932040223
183 2 8 0.0300 84.32047947084085 2.3373099850729457 7.000309573180205
184 2 8 0.0300 84.95626092850429 -0.3521409428442307 5.867509218123421
185 2 8 0.0300 85.33329225435801 -0.2161248430671775 7.650987561116804
186 2 7 0.1400 83.34169406403046 0.0382706298548654 7.120288898723155
187 2 6 -0.4000 84.46210593596953 -1.5872706298548653 5.856711101276845
188 2 7 0.1400 84.15370250066795 -0.23298599431393185 5.914964401886688
189 2 8 0.0300 82.59099540201723 0.8118439394853667 7.065948734214274
190 2 8 0.0300 83.27556348209869 -0.717644692026842 7.88013610196723
191 2 8 0.0300 83.56949377351224 0.0963308466658821 5.021526333880749
192 2 8 0.0300 85.07810715383779 0.38997975557117504 6.0111242254515895
193 2 7 0.1400 84.46207497606824 -1.587266754568127 5.856631299268496
194 2 6 -0.4000 84.77512502393176 -3.6501332454318733 6.924768700731503
195 2 7 0.1400 85.43918350183542 -2.6127045226469208 6.280283648100286
196 2 8 0.0300 84.65308271602359 -1.048219826675999 4.941283576920748
197 2 8 0.0300 83.4658146387329 -1.6262345145322779 6.255499515520204
198 2 8 0.0300 85.9821038507669 -2.9710284145750325 5.372086266916216
199 2 8 0.0300 86.15572062436267 -2.0993980932757483 6.969448404603816
200 2 7 0.1400 84.77510181250845 -3.6502082201799504 6.92475536276369
201 2 6 -0.4000 82.97689818749156 -4.664991779820051 5.81524463723631
202 2 7 0.1400 84.34981301100521 -4.453947606328085 5.759046379153218
203 2 8 0.0300 85.7507805667315 -3.8391307849474696 7.345797205196714
204 2 8 0.0300 84.02501895447041 -3.1579201781868536 7.5148207742123585
205 2 8 0.0300 84.91662314624563 -5.416460393300492 5.7756718266166365
206 2 8 0.0300 84.63312342923348 -3.8656091519374596 4.850503551319232
207 2 7 0.1400 82.97694259952841 -4.664965711081725 5.815219404231801
208 2 6 -0.4000 81.05545740047158 -3.385434288918275 5.408980595768199
209 2 7 0.1400 81.51793995117696 -4.685584092609355 5.577246392218645
210 2 8 0.0300 83.56704303399948 -5.485491857544421 5.4364908468082485
211 2 8 0.0300 83.44997381093611 -3.7290971102384214 6.04660746569945
212 2 8 0.0300 81.32236668060403 -5.3135900819302115 4.674284281599079
213 2 8 0.0300 81.05874034175488 -5.166402279333267 6.477138935816018
214 2 7 0.1400 81.05547895593189 -3.3854715689801256 5.409061259688847
215 2 6 -0.4000 80.3525210440681 -1.5219284310198744 6.6449387403111535
216 2 7 0.1400 80.3868023119898 -2.0675834040054837 5.366784428373133
217 2 8 0.0300 81.64281406776014 -3.686919296858161 4.555197257771171
218 2 8 0.0300 81.22139303884695 -3.8508084157852887 6.362519772732746
219 2 8 0.0300 80.94882612562063 -1.4158826845684132 4.654466798942931
220 2 8 0.0300 79.35456392092041 -2.2504726418765464 4.975769811416886
221 2 7 0.1400 80.35252578897307 -1.5220032265660373 6.644980859335744
222 2 6 -0.4000 78.23927421102694 -2.3123967734339628 7.2804191406642556
223 2 7 0.1400 79.60344116056707 -2.4706041359669144 7.496317181930804
224 2 8 0.0300 81.31291573047474 -1.8303215833639381 6.260913220600261
225 2 8 0.0300 79.81781590095072 -0.7227398590794181 6.167055755323535
226 2 8 0.0300 79.94391922605536 -3.504800813547749 7.246331344327713
227 2 8 0.0300 79.87766533837444 -2.2290526592196462 8.55381942040933
228 2 7 0.1400 78.23921040431622 -2.312301709037553 7.280458353482351
229 2 6 -0.4000 77.96978959568378 -3.615698290962447 9.209941646517649
230 2 7 0.1400 78.09889277029441 -2.3094037424331963 8.752208183912808
231 2 8 0.0300 77.81697581740917 -1.4879421221493532 6.726322787826312
232 2 8 0.0300 78.44427935997695 -3.2412868908658488 6.782379790033099
233 2 8 0.0300 77.20714688250423 -1.6898112179353348 9.014649368172584
234 2 8 0.0300 79.02443114312182 -1.8275046997428055 9.155951955478498
235 2 7 0.1400 77.96982236360749 -3.6156941419574045 9.21004423876135
236 2 6 -0.4000 77.1747776363925 -5.641905858042596 8.34015576123865
237 2 7 0.1400 77.97466097851247 -4.540772667753999 8.056809089749752
238 2 8 0.0300 78.03752446684334 -2.556428642643543 9.014365861875202
239 2 8 0.0300 77.57935286607841 -3.96148866244597 10.148718155038704
240 2 8 0.0300 77.60648807995614 -3.982149163802132 7.162175367156447
241 2 8 0.0300 79.04044033505167 -4.842993859839235 7.899857778097097
242 2 7 0.1400 77.17473728221067 -5.641968652582091 8.34016307423315
243 2 6 -0.4000 77.21406271778933 -7.259831347417909 10.035836925766851
244 2 7 0.1400 78.00231844662643 -6.35099244267314 9.339232481926723
245 2 8 0.0300 77.63643782555502 -5.352519767548992 7.408514561526433
246 2 8 0.0300 76.10571703696367 -5.720632712418854 8.404635401180705
247 2 8 0.0300 78.83888741115908 -6.858227534252507 8.799931147373156
248 2 8 0.0300 78.4149806805468 -5.565607514493443 10.020948988462997
249 2 7 0.1400 77.21409332052305 -7.259857763994796 10.035802039449965
250 2 6 -0.4000 77.51150667947694 -5.874142236005205 11.902797960550036
251 2 7 0.1400 77.33267939430839 -5.869472597812093 10.524178362343775
252 2 8 0.0300 77.60829113255997 -7.492370564588351 9.058324222542877
253 2 8 0.0300 77.05670494516755 -8.046882752826095 10.7492230695984
254 2 8 0.0300 78.19285385374154 -5.388855176983023 9.99778706859502
255 2 8 0.0300 76.38136426691031 -5.353577025317377 10.240086323272058
256 2 7 0.1400 77.51148078225584 -5.8742204210548445 11.90283105921354
257 2 6 -0.4000 79.70871921774416 -5.754379578945156 12.71036894078646
258 2 7 0.1400 78.46653233676815 -5.131663642504129 12.752672784978992
259 2 8 0.0300 76.47706930892073 -5.909371258663288 12.208893671187164
260 2 8 0.0300 77.89142351149152 -6.6100036111893665 11.219153050486911
261 2 8 0.0300 78.05548556570638 -5.10019707194841 13.790955697742731
262 2 8 0.0300 78.51815002744188 -4.094409836815248 12.33638303421224
263 2 7 0.1400 79.70874009345926 -5.75432696616423 12.710289707907396
264 2 6 -0.4000 79.92145990654075 -8.08487303383577 12.843110292092604
265 2 7 0.1400 80.52724762634598 -6.9329723162392485 12.354501066500413
266 2 8 0.0300 79.68155548983373 -4.92515567722062 12.019889120626857
267 2 8 0.0300 78.9291610484002 -5.867369022795321 13.440102701719805
268 2 8 0.0300 80.63087840182399 -6.960735681702633 11.242533954616265
269 2 8 0.0300 81.5307984095527 -6.7724619437702405 12.822453249800207
270 2 7 0.1400 79.92143499442707 -8.08493686298299 12.843068856895314
271 2 6 -0.4000 81.01876500557293 -9.145663137017008 14.622131143104685
272 2 7 0.1400 81.15601300961771 -8.158364488804942 13.653112379290304
273 2 8 0.0300 80.01159677632853 -7.8307990936695395 11.797984244391266
274 2 8 0.0300 79.04041683176123 -8.586962536326027 13.196517891916471
275 2 8 0.0300 82.01032792467886 -8.37067722856949 12.965325837958083
276 2 8 0.0300 81.28836678524469 -7.149214367617871 14.117822515811344
277 2 7 0.1400 81.01882290324342 -9.145681712807715 14.62214020454898
278 2 5 0.1450 81.84240800751326 -8.245315857651201 15.43221298084325
279 2 3 -0.6830 82.22028535193041 -8.92736215194959 16.59767622136612
280 2 8 0.0300 80.30859289309784 -8.740481477808844 13.923713327742623
281 2 8 0.0300 81.09534794621132 -10.210468852499968 14.755924601788521
282 2 8 0.0300 81.25573112671992 -7.325488213732585 15.671980249305248
283 2 8 0.0300 82.76163137970231 -7.9773866133532065 14.851188616404636
284 2 4 0.4180 83.14217709675658 -9.287518287192285 16.53285979545102
285 3 1 -0.1800 176.08580233790903 0.7761409247452224 0.01774283613351524
286 3 6 -0.4000 176.77499766209095 -1.2811409247452223 -0.7867428361335153
287 3 7 0.1400 175.8141004196542 -0.7123635638579695 0.0650445805495225
288 3 2 0.0600 175.42407191653436 1.360741905247544 0.6682845665575063
289 3 2 0.0600 177.16935540742136 0.9028549794147303 0.2624248622400421
290 3 2 0.0600 175.94891572939844 1.0715170900353759 -1.0533509867358697
291 3 8 0.0300 174.79451783548637 -0.9764884178749067 -0.2537930200439384
292 3 8 0.0300 175.98839389440428 -1.1408397964710244 1.0799770427090813
293 3 7 0.1400 176.77502472454776 -1.281161976007039 -0.7867445147952539
294 3 6 -0.4000 178.02297527545224 -0.390638023992961 -2.5598554852047464
295 3 7 0.1400 176.81802864944115 -0.28154784802778376 -1.875168723267318
296 3 8 0.0300 175.82111410112321 -1.717358053936442 -0.5323737143547134
297 3 8 0.0300 177.68282967982307 -1.7835195229881058 -0.5098400941573726
298 3 8 0.0300 175.94365531870858 -0.46177030207023745 -2.546713320120401
299 3 8 0.0300 176.71788919733132 0.7202126393909308 -1.3870037757569869
300 3 7 0.1400 178.02303741480068 -0.3906482288582407 -2.559866883217686
301 3 6 -0.4000 178.88636258519932 1.7058482288582406 -1.9651331167823143
302 3 7 0.1400 177.74469679418627 0.9137977039520999 -1.9221425640243992
303 3 8 0.0300 177.5272628456815 -1.2657842171627556 -2.168380512332345
304 3 8 0.0300 178.91697999355688 -0.5000610738488875 -3.1447125852945543
305 3 8 0.0300 177.41350281575023 0.7233147015361917 -0.8723769833168122
306 3 8 0.0300 176.90778221678065 1.376287418817146 -2.5031195461588367
307 3 7 0.1400 178.88630387483875 1.7057679524142288 -1.9651460909341523
308 3 6 -0.4000 180.38849612516128 1.3770320475857714 -0.19605390906584774
309 3 7 0.1400 180.11676137557512 2.1808133462424992 -1.297275435279832
310 3 8 0.0300 178.81946424809655 1.8004982047777758 -3.0382144222085885
311 3 8 0.0300 178.2564672232406 1.0045063445061486 -1.4506687351857979
312 3 8 0.0300 180.94841048835852 2.1549541283906404 -2.042709573254939
313 3 8 0.0300 179.91980170269656 3.2382373446202886 -0.9891871769604124
314 3 7 0.1400 180.38848684819385 1.3769367897851525 -0.19602904830197032
315 3 6 -0.4000 179.76731315180615 -0.6247367897851527 0.8536290483019703
316 3 7 0.1400 180.85543628968932 0.09497577840255422 0.37342611620353844
317 3 8 0.0300 180.9191785457102 1.7815162666510878 -1.0443207251950828
318 3 8 0.0300 179.3847123787752 1.6987427965275672 0.008975118894080758
319 3 8 0.0300 181.39879845514903 -0.4631238074922528 -0.4273631253394291
320 3 8 0.0300 181.5649361671988 0.3564380086484549 1.1981105564404446
321 3 7 0.1400 179.7673590870589 -0.624695161263989 0.8536115224915382
322 3 6 -0.4000 177.7726409129411 -1.810104838736011 0.5215884775084618
323 3 7 0.1400 179.00502397648626 -1.513303652467183 -0.04914266805524892
324 3 8 0.0300 180.42068000983153 0.11210545262250937 0.4117816601643898
325 3 8 0.0300 179.42695021558117 -0.4990883924429581 1.8643012572002637
326 3 8 0.0300 178.8908164553503 -0.9944605364127689 -1.03186310797645
327 3 8 0.0300 179.62440692514429 -2.435854033360349 -0.1799958591725891
328 3 7 0.1400 177.77267715626814 -1.8101621229336184 0.5214923544772713
329 3 6 -0.4000 177.23212284373184 -3.9344378770663817 1.3519076455227288
330 3 7 0.1400 178.27440973684597 -3.160255531101795 0.8550447593667203
331 3 8 0.0300 178.21413262486953 -1.2950918070551194 -0.31799358283361745
332 3 8 0.0300 176.80428023435147 -1.51525452272946 0.879802149158038
333 3 8 0.0300 178.71474324126595 -3.6052982948414614 -0.07017107671056932
334 3 8 0.0300 179.0758020775052 -3.0177425391387067 1.622714847004942
335 3 7 0.1400 177.23211692569103 -3.934433829704345 1.3519258282277948
336 3 6 -0.4000 179.24508307430895 -5.063766170295655 1.7604741717722052
337 3 7 0.1400 178.6955292491672 -3.946533648818134 1.1421093229773809
338 3 8 0.0300 176.60789185472188 -3.5331651946039146 0.5681889187624966
339 3 8 0.0300 176.80950070061337 -4.594404780754447 2.0860803556068297
340 3 8 0.0300 178.88843203166587 -3.9467951072690415 0.04175962940549538
341 3 8 0.0300 179.0862288444529 -2.9999171213250655 1.5928065341076
342 3 7 0.1400 179.2450166570203 -5.063786305291236 1.7604941428699046
343 3 6 -0.4000 179.3609833429797 -7.282613694708763 1.0137058571300954
344 3 7 0.1400 180.10128291416578 -6.256937513510727 1.590366863462838
345 3 8 0.0300 179.42154691163503 -4.426902129392737 2.6138010136354897
346 3 8 0.0300 178.2970228518896 -5.031583891390663 1.2570860082785171
347 3 8 0.0300 180.4962531235496 -6.546739258807787 2.594356147330994
348 3 8 0.0300 180.94765488454823 -5.945460574189191 0.9281783676235997
349 3 7 0.1400 179.36103329542706 -7.28268236767443 1.013673695837301
350 3 6 -0.4000 179.44676670457292 -7.16251763232557 -1.3256736958373008
351 3 7 0.1400 179.83184166183173 -6.513765124935267 -0.15801344497366415
352 3 8 0.0300 179.9713115022905 -7.280329327822208 1.9038826451469586
353 3 8 0.0300 178.6379355961853 -8.062338997301891 0.8639597778830347
354 3 8 0.0300 180.94247115707535 -6.4171237601020215 -0.08629475216591087
355 3 8 0.0300 179.3599735545532 -5.502178952181875 -0.08126121746513998
356 3 7 0.1400 179.44679534906038 -7.162541194822584 -1.325635497329547
357 3 6 -0.4000 177.85280465093962 -8.600658805177416 -2.266564502670453
358 3 7 0.1400 179.21880352639164 -8.39118830760108 -2.1156930908360323
359 3 8 0.0300 180.30341906414887 -7.1295624838690665 -0.6698724186404328
360 3 8 0.0300 178.6239434640004 -6.4919000895816446 -1.163449544748985
361 3 8 0.0300 179.71085113106608 -9.241818914403717 -1.5843761181118978
362 3 8 0.0300 179.71580320515724 -8.226634888062199 -3.1045158714317083
363 3 7 0.1400 177.85280551740124 -8.600666694909888 -2.2666130549047163
364 3 6 -0.4000 177.50299448259875 -10.514733305090113 -0.9595869450952835
365 3 7 0.1400 178.48681292441384 -9.700942882163357 -1.5095318706079965
366 3 8 0.0300 178.35339091416273 -8.234933688591298 -3.1501121373254635
367 3 8 0.0300 176.8024906110798 -8.420216484808506 -2.1346080579032254
368 3 8 0.0300 179.14809325277986 -10.26769897140603 -2.2091581012643973
369 3 8 0.0300 179.10679680850868 -9.218704578810598 -0.7127111867385608
370 3 7 0.1400 177.50295305053783 -10.514696388896356 -0.9595619686172624
371 3 6 -0.4000 179.32244694946218 -11.942903611103644 -1.3390380313827375
372 3 7 0.1400 178.79719516926463 -10.694217409716519 -1.6512660536111765
373 3 8 0.0300 176.735614657809 -9.939410786122586 -1.454693533239814
374 3 8 0.0300 177.23563123120252 -11.199468302107734 -0.1767622038088632
375 3 8 0.0300 178.6225410665072 -10.582386844407486 -2.74897770475307
376 3 8 0.0300 179.46411203782694 -9.871583230017219 -1.2902232627712593
377 3 7 0.1400 179.32247337175184 -11.942924685256251 -1.3391701477889333
378 3 6 -0.4000 178.91772662824818 -13.28527531474375 -3.2176298522110667
379 3 7 0.1400 179.13281564573666 -11.975280553649327 -2.8050241803389957
380 3 8 0.0300 178.96450318816338 -11.080692823760076 -0.7975701434661113
381 3 8 0.0300 179.49364567679447 -12.86686269259454 -0.8193744181199121
382 3 8 0.0300 178.2675782149619 -11.315366222209818 -3.0577261066217867
383 3 8 0.0300 180.06891339422393 -11.557174796309326 -3.2530929038136693
384 3 7 0.1400 178.91765533310095 -13.285207214915784 -3.2176400658552797
385 3 6 -0.4000 177.24574466689907 -14.720992785084215 -2.4191599341447203
386 3 7 0.1400 178.30539117693695 -13.911332126681707 -2.02648717980626
387 3 8 0.0300 179.32515969131842 -12.290722206968605 -3.118358813838263
388 3 8 0.0300 178.6612131782842 -13.662682448903645 -4.189699153029898
389 3 8 0.0300 177.97011158216284 -13.096529922886042 -1.339707766881089
390 3 8 0.0300 179.11294005889096 -14.50977548620729 -1.534971820234874
391 3 7 0.1400 177.24583331666835 -14.720943699711247 -2.419017048817467
392 3 6 -0.4000 178.03696668333166 -16.828856300288752 -1.7669829511825328
393 3 7 0.1400 178.1471173976485 -15.466227006631112 -1.514591928755895
394 3 8 0.0300 176.78789271709556 -13.815789838337935 -2.0503655948614474
395 3 8 0.0300 176.81426487084474 -15.23458307348458 -3.257511097859632
396 3 8 0.0300 177.86657163029824 -15.21712040442968 -0.4623462477661777
397 3 8 0.0300 179.1817709890352 -15.096639447690837 -1.726143298657341
398 3 7 0.1400 178.036885526637 -16.828865396098635 -1.7670269793246818
399 3 6 -0.4000 176.03231447336302 -17.621134603901368 -0.8459730206753182
400 3 7 0.1400 177.0384100006707 -16.674935702674187 -0.687630261927159
401 3 8 0.0300 178.52949807820787 -15.942332838773126 -2.1362286841375475
402 3 8 0.0300 178.01407433528342 -17.71735353125874 -2.36970225111601
403 3 8 0.0300 176.63665667535838 -15.633506454229092 -0.732355937814638
404 3 8 0.0300 177.58908223080908 -16.82523969866569 0.2746720833590841
405 3 7 0.1400 176.0323424314212 -17.62116589640208 -0.8459912757713335
406 3 6 -0.4000 175.87045756857881 -16.105834103597918 0.9349912757713335
407 3 7 0.1400 175.85586667156502 -16.20734209543613 -0.4513983640187603
408 3 8 0.0300 176.57176865903338 -17.832949355976936 -1.7565318356667217
409 3 8 0.0300 175.92816116133585 -18.383874859932817 -0.09727884772350924
410 3 8 0.0300 176.67780620521046 -15.611615770438569 -0.9177743376018749
411 3 8 0.0300 174.87077682026666 -15.883586726407449 -0.8716809426418436
412 3 7 0.1400 175.87042053247603 -16.10575082857944 0.9349344478799911
413 3 6 -0.4000 174.27517946752397 -14.774849171420563 -0.15053444787999115
414 3 7 0.1400 174.86105766944533 -15.035683337430038 1.0828775961489017
415 3 8 0.0300 176.74949783890116 -16.067506219429934 1.5599763978316132
416 3 8 0.0300 175.883918935638 -16.682227152974505 0.029041606245820972
417 3 8 0.0300 175.37113906197908 -14.132239879107019 1.4971092832567234
418 3 8 0.0300 174.10727315913243 -15.413171864967925 1.81851903298455
419 3 7 0.1400 174.2751707648665 -14.77494612788122 -0.15054610171434907
420 3 5 0.1450 173.43254872209948 -15.851920829276251 -0.6752198914144492
421 3 3 -0.6830 172.23815850500137 -15.285130060014682 -1.1426203975975073
422 3 8 0.0300 175.34326175873028 -14.895949626420713 -0.11966273777495096
423 3 8 0.0300 173.8287221638566 -13.84825574915143 0.1648181141154847
424 3 8 0.0300 173.97853501611016 -16.381146501281044 -1.4934986671648396
425 3 8 0.0300 173.1981666917185 -16.563871735328807 0.15696877181368918
426 3 4 0.4180 171.50082923513352 -15.383053872118781 -0.48645389828565094
427 4 1 -0.1800 -0.21493015470884697 88.53345370078041 -0.5284016169915452
428 4 6 -0.4000 -0.7400698452911529 87.24274629921958 1.319001616991545
429 4 7 0.1400 0.3195141423498092 87.4920681219995 0.4315933671873326
430 4 2 0.0600 0.5213316803260408 88.85746558595693 -1.273911381203535
431 4 2 0.0600 -0.6004617460605757 89.37111427745292 0.10381919123805838
432 4 2 0.0600 -1.0976448721803431 88.05720899957814 -1.025626628566762
433 4 8 0.0300 0.6439273616768182 86.56759315826842 -0.0694755946934919
434 4 8 0.0300 1.168555628806968 87.87842574430955 1.0430787242953672
435 4 7 0.1400 -0.7402023853987943 87.24262083907588 1.318906107360664
436 4 6 -0.4000 0.5112023853987943 87.09357916092411 3.2952938926393363
437 4 7 0.1400 0.3474285682405233 87.83171301730431 2.1287050418102673
438 4 8 0.0300 -0.6585842849802659 87.29013611957366 0.24373273352587255
439 4 8 0.0300 -1.3893191186772906 86.51808829081955 1.7737127180151633
440 4 8 0.0300 1.277258361965262 87.83724621792906 1.5095387165044931
441 4 8 0.0300 0.03849816108327635 88.88326026862411 2.3537992038301407
442 4 7 0.1400 0.5112822953584844 87.09359324498594 3.295327842879989
443 4 6 -0.4000 0.9583177046415157 89.37640675501406 3.583872157120011
444 4 7 0.1400 0.021107672590926052 88.38043158303815 3.8333993352615496
445 4 8 0.0300 0.25223903364342387 86.18841002242017 3.8230180191628755
446 4 8 0.0300 1.3498801576363781 87.09937660575005 2.624604965589212
447 4 8 0.0300 -0.16310706984270584 88.25149501339145 4.927666802418393
448 4 8 0.0300 -0.9453776404366842 88.5925821778363 3.311139567685388
449 4 7 0.1400 0.9582416922954184 89.37639930887526 3.5838166544104464
450 4 6 -0.4000 2.3103583077045817 89.22820069112474 5.492783345589553
451 4 7 0.1400 2.085013720868577 89.96706311800321 4.336974048460054
452 4 8 0.0300 0.9841224685075631 89.42508453060012 2.5059127001509505
453 4 8 0.0300 0.3349928132674238 88.65006100017023 4.070789442251686
454 4 8 0.0300 2.9816111338030975 89.97515585001383 3.6706193480131164
455 4 8 0.0300 1.7859288197795122 91.01773917753721 4.578810852653781
456 4 7 0.1400 2.3103913779760448 89.22813359713508 5.492828259976939
457 4 6 -0.4000 2.0370086220239556 86.90026640286491 5.517971740023061
458 4 7 0.1400 2.8427316004574816 87.93634018828742 5.97617976394289
459 4 8 0.0300 2.4193824502537153 90.09419202122578 6.127635909761738
460 4 8 0.0300 1.566075881242781 89.22360980179486 4.718797913932009
461 4 8 0.0300 2.8764970088520627 87.97061001881558 7.092274059202712
462 4 8 0.0300 3.8819766221585987 87.85219914817466 5.570289298129526
463 4 7 0.1400 2.037011014851026 86.9002534202076 5.517916231674046
464 4 6 -0.4000 3.804188985148974 86.35974657979239 6.9598837683259545
465 4 7 0.1400 2.835056396820537 87.31914711632847 6.689836297065603
466 4 8 0.0300 0.9914070842726888 87.16657676551327 5.491434235821558
467 4 8 0.0300 2.3983266240572974 86.0938381368474 4.907756890758121
468 4 8 0.0300 2.138836002625391 87.45709923617589 7.552522436595128
469 4 8 0.0300 3.2996581669052536 88.30058660565423 6.420060975684814
470 4 7 0.1400 3.8042030011300754 86.35978241054498 6.959938515914082
471 4 6 -0.4000 5.5481969988699245 87.92561758945503 6.991261484085918
472 4 7 0.1400 4.264958442670627 87.69086481918902 6.510862748933567
473 4 8 0.0300 3.1584630957445388 85.79573666670984 6.304355284391075
474 4 8 0.0300 4.355398744311604 85.85470008741477 7.730797841316559
475 4 8 0.0300 4.231802161034706 87.71120603180081 5.394409482532523
476 4 8 0.0300 3.53538854969681 88.43232835752244 6.922950837317912
477 4 7 0.1400 5.548165203430731 87.92564968981266 6.991264763162962
478 4 6 -0.4000 6.88823479656927 88.25855031018735 5.097135236837038
479 4 7 0.1400 5.778455542623828 88.74224328355638 5.7805268632312465
480 4 8 0.0300 4.53054012155467 87.7704411900933 7.3157127780306785
481 4 8 0.0300 6.32083527912886 87.25496991730415 7.317330089238246
482 4 8 0.0300 4.855671802232427 88.69950910080208 5.1523350469095295
483 4 8 0.0300 5.944942435014561 89.7904921925842 6.134523105279169
484 4 7 0.1400 6.88829776487894 88.25855413067036 5.097095354251216
485 4 6 -0.4000 5.127302235121059 88.82444586932964 3.657304645748784
486 4 7 0.1400 6.085638612516891 89.35446879864168 4.5136107137894825
487 4 8 0.0300 7.930857051980477 88.44493093317213 5.305063670029249
488 4 8 0.0300 6.5360130843475295 87.24917367162011 4.996122126361826
489 4 8 0.0300 6.780288343617603 90.04649188199728 3.9783100476356763
490 4 8 0.0300 5.610083818620194 89.88910561427704 5.37376657953077
491 4 7 0.1400 5.1272618079100765 88.82445502678446 3.6573405659250033
492 4 6 -0.4000 3.4981381920899244 87.13914497321555 3.6620594340749966
493 4 7 0.1400 4.768606496811312 87.46470329562767 3.2010658707722426
494 4 8 0.0300 5.741229236746417 89.43361792740433 3.011676909803268
495 4 8 0.0300 4.530229455868475 89.2882783712488 4.419947460560503
496 4 8 0.0300 4.81984020123545 87.44821522650706 2.0852324373657805
497 4 8 0.0300 5.542547294818442 86.77616414956415 3.6238973803812202
498 4 7 0.1400 3.4980951304674286 87.13915553799875 3.66209850717225
499 4 6 -0.4000 3.987904869532571 85.57044446200125 1.9907014928277502
500 4 7 0.1400 3.883286430179456 86.93224892812067 2.249808764444179
501 4 8 0.0300 2.867965333057741 87.9823675918894 3.9005243249645676
502 4 8 0.0300 3.5610424156569187 86.31036354987323 4.3420179727755155
503 4 8 0.0300 3.1108634161196167 87.41723167954568 1.6047231746415938
504 4 8 0.0300 4.866573686478377 87.44818086758866 2.112632216022282
505 4 7 0.1400 3.9879417279487095 85.57039824768712 1.9906381175648826
506 4 6 -0.4000 6.25845827205129 85.43740175231288 2.5575618824351167
507 4 7 0.1400 5.102633324804969 86.18793640717608 2.7402075042616945
508 4 8 0.0300 2.994182647599455 85.63899897434244 2.4061544596331177
509 4 8 0.0300 4.211164892842558 84.81357248937765 1.2622596512343132
510 4 8 0.0300 4.809970567790994 86.24012069105156 3.8170576847294244
511 4 8 0.0300 5.221886654398201 87.22270986361649 2.331698584864218
512 4 7 0.1400 6.25845703305744 85.43738632211965 2.55761376679589
513 4 6 -0.4000 7.212142966942559 85.34981367788036 0.41818623320410997
514 4 7 0.1400 6.361183439084604 86.08710094710842 1.2335808398713228
515 4 8 0.0300 5.318879490090704 85.50033485420755 3.0850116460678594
516 4 8 0.0300 6.963428485852993 84.6684611202994 2.812404435284744
517 4 8 0.0300 5.333610342639574 86.15807940952264 0.8011035695602831
518 4 8 0.0300 6.764356959517341 87.11450970014081 1.4172636278899735
519 4 7 0.1400 7.212138146547455 85.34979759988363 0.4181949001060188
520 4 6 -0.4000 5.7596618534525446 83.62600240011636 -0.2245949001060188
521 4 7 0.1400 7.082885870184047 83.91419391125767 0.08943830586278417
522 4 8 0.0300 7.936394984923417 85.63886342641734 1.164391911622436
523 4 8 0.0300 6.400563347607521 86.01052485116888 0.17749831696735308
524 4 8 0.0300 7.436657625408916 83.32343468096491 0.9691144263918234
525 4 8 0.0300 7.756901864202818 83.72916680392727 -0.7842460818653234
526 4 7 0.1400 5.759684000071061 83.62599860731667 -0.22460966400301996
527 4 6 -0.4000 6.283715999928939 83.68220139268333 -2.5085903359969803
528 4 7 0.1400 5.567177708854502 84.3312512492312 -1.50964080717217
529 4 8 0.0300 4.938208613372456 83.60793035111351 0.47522512161866715
530 4 8 0.0300 6.542560934452393 82.89496658239484 -0.14815782195604976
531 4 8 0.0300 4.472909798567671 84.35229815494282 -1.7335063209889692
532 4 8 0.0300 5.940220494039748 85.37473845948684 -1.35526942882061
533 4 7 0.1400 6.283698347170092 83.68220153494137 -2.5086613603912697
534 4 6 -0.4000 7.162701652829909 85.54059846505864 -3.63473863960873
535 4 7 0.1400 5.978411850843357 84.89808871887294 -3.2923472101496247
536 4 8 0.0300 5.637671647311217 82.82536073591437 -2.6243780324495165
537 4 8 0.0300 7.2758542234405965 83.55414082459394 -2.1183074547527823
538 4 8 0.0300 5.398434292162093 84.59167957219425 -4.196626186051283
539 4 8 0.0300 5.3413062823039255 85.54351366166374 -2.637076168702227
540 4 7 0.1400 7.162686709710207 85.54061434390248 -3.634681009993916
541 4 6 -0.4000 9.505913290289795 85.52018565609752 -3.6913189900060837
542 4 7 0.1400 8.383088882138258 86.21495200757913 -4.126242046773702
543 4 8 0.0300 6.281542235481245 85.5632290534542 -4.257569435354076
544 4 8 0.0300 7.25764909895906 84.79183871720117 -2.8708314138781565
545 4 8 0.0300 8.33050635517024 86.25829449964405 -5.241292496860719
546 4 8 0.0300 8.360240634917478 87.25223464051236 -3.7074584546714697
547 4 7 0.1400 9.505898760817534 85.52016097992683 -3.69138534901754
548 4 6 -0.4000 9.738301239182466 87.63103902007316 -4.683614650982459
549 4 7 0.1400 9.206147872798317 86.96404819828803 -3.5861042691179352
550 4 8 0.0300 9.679137648871793 84.96757333375996 -2.7805877968856247
551 4 8 0.0300 9.863483459805854 85.13313740877624 -4.627064214025868
552 4 8 0.0300 9.637256098407988 87.33895831889342 -2.6261203633781878
553 4 8 0.0300 8.091176336985853 87.05312727811766 -3.558529065316304
554 4 7 0.1400 9.738378381161965 87.63098140868772 -4.683652713832536
555 4 6 -0.4000 10.357421618838035 89.57581859131227 -3.530947286167465
556 4 7 0.1400 9.721007838019604 89.10928319984066 -4.675462567012952
557 4 8 0.0300 9.813923728367367 87.12715482513127 -5.63516134449095
558 4 8 0.0300 10.004225840094916 87.11195258959057 -3.7819414443424004
559 4 8 0.0300 10.22727751986337 89.46751529738832 -5.6046244331764425
560 4 8 0.0300 8.643948604603196 89.41177214747596 -4.69280742996862
561 4 7 0.1400 10.357380434575603 89.57581389839663 -3.5310885014390796
562 4 5 0.1450 10.247241363074732 91.03138738498568 -3.6508558177985897
563 4 3 -0.6830 9.855763049997098 91.33435109035834 -4.962816458830462
564 4 8 0.0300 10.244575896175798 89.10643173240331 -2.570167319258245
565 4 8 0.0300 10.509673180234932 88.9741414682599 -4.4099077129000595
566 4 8 0.0300 9.50240073293087 91.4066295528092 -2.907776581664249
567 4 8 0.0300 11.25188036561632 91.48600620375976 -3.4549752312446858
568 4 4 0.4180 10.625819565424397 91.60918610160337 -5.5243114985609205
569 5 1 -0.1800 87.40520245871043 87.63894818624797 0.3549042447445133
570 5 6 -0.4000 88.93399754128957 89.37545181375202 0.3108957552554866
571 5 7 0.1400 88.54803435595649 88.2466394024675 -0.43017641376555926
572 5 2 0.0600 87.01246520523826 86.71681725908007 -0.09038442892191906
573 5 2 0.0600 87.783461443439 87.4989308524247 1.3976545919998604
574 5 2 0.0600 86.61307017632612 88.42918458042809 0.390679774339689
575 5 8 0.0300 88.26831169841137 88.52282260323545 -1.4580120399575438
576 5 8 0.0300 89.43470839589541 87.57148522342122 -0.4752760968545561
577 5 7 0.1400 88.93390782214472 89.37550168505653 0.31089686378278636
578 5 6 -0.4000 89.41989217785529 90.97489831494347 -1.3322968637827866
579 5 7 0.1400 89.04456722093478 90.8159293726399 -0.003217087360208204
580 5 8 0.0300 89.19558161013899 89.048960112615 1.305791044157838
581 5 8 0.0300 88.9245217237506 88.66910538717725 -0.49784609383686496
582 5 8 0.0300 89.79217581804636 91.26675436855862 0.6937902358292413
583 5 8 0.0300 88.03524954761778 91.25876568397824 0.18921689012358045
584 5 7 0.1400 89.41991783497166 90.97496068793323 -1.3322494848573627
585 5 6 -0.4000 88.85588216502835 89.82943931206675 -3.2979505151426376
586 5 7 0.1400 89.84710567076937 90.59602812914515 -2.695945077296081
587 5 8 0.0300 90.1756981994395 91.06089410295188 -0.5665285899693522
588 5 8 0.0300 88.39202025009455 90.83506297582956 -1.0547532053292061
589 5 8 0.0300 90.81026467093112 90.03590611757275 -2.6148952620002843
590 5 8 0.0300 90.0134589703649 91.55299879347771 -3.251274463625137
591 5 7 0.1400 88.85591210961658 89.82944223897145 -3.297884954930732
592 5 6 -0.4000 86.9458878903834 88.51055776102855 -3.6245150450692676
593 5 7 0.1400 88.17794413733289 88.84893239532656 -4.172359011191402
594 5 8 0.0300 89.48027834808752 90.57878510221728 -3.760020296102775
595 5 8 0.0300 88.47414634568675 89.98941348080336 -2.307020128994407
596 5 8 0.0300 88.06781337012171 89.30564385988811 -5.185900747999276
597 5 8 0.0300 88.8538978909645 87.95930007515189 -4.231501701796111
598 5 7 0.1400 86.94588316317214 88.510621354024 -3.6244933547550913
599 5 6 -0.4000 85.65571683682785 88.54897864597599 -5.581106645244909
600 5 7 0.1400 86.64551485221698 89.22931236791383 -4.881078848992528
601 5 8 0.0300 87.95986253105197 88.53100748654047 -3.2552410736314057
602 5 8 0.0300 86.27303404575675 87.741152107624 -3.2953427144124863
603 5 8 0.0300 87.59068353528764 89.30576814220824 -5.471664723459144
604 5 8 0.0300 86.30274442496761 90.25230754724673 -4.58469008863726
605 5 7 0.1400 85.65569739114139 88.54894975310954 -5.58114013111496
606 5 6 -0.4000 87.04310260885862 87.93605024689047 -7.3682598688850405
607 5 7 0.1400 86.91271286790383 88.8261036814966 -6.308355911443811
608 5 8 0.0300 85.638037700516 88.70909469354068 -4.513920035079787
609 5 8 0.0300 84.92522473042756 87.90729994851517 -6.037039484277124
610 5 8 0.0300 87.75943120001057 88.73429713245048 -5.585430864411524
611 5 8 0.0300 86.84031087064152 89.88189470620215 -6.671564202846463
612 5 7 0.1400 87.0430975264894 87.93610557112252 -7.368265574110888
613 5 6 -0.4000 88.9851024735106 89.17189442887748 -7.8107344258891125
614 5 7 0.1400 87.61048749575744 89.13819581460702 -8.015407497720686
615 5 8 0.0300 86.19614229716694 87.45720717100494 -7.835427389639686
616 5 8 0.0300 87.65081408650033 87.38726069093207 -6.6735722027755715
617 5 8 0.0300 87.35561279947309 89.10021088239532 -9.102411193261245
618 5 8 0.0300 87.10787432458702 90.01816685709572 -7.541183959136449
619 5 7 0.1400 88.98514406552863 89.17187872857184 -7.810765756677971
620 5 6 -0.4000 88.32125593447137 91.29192127142815 -8.558434243322028
621 5 7 0.1400 87.8709892739918 89.99801016424567 -8.322538119635364
622 5 8 0.0300 89.01143586499705 88.12729624384566 -8.081086258830526
623 5 8 0.0300 89.88250036584779 89.66093746391769 -7.48103522478955
624 5 8 0.0300 87.48348979914961 89.51923748093867 -9.254526249772244
625 5 8 0.0300 87.07829499582611 89.98175447770406 -7.533089873061573
626 5 7 0.1400 88.32118448697736 91.2919119158427 -8.558367773139357
627 5 6 -0.4000 88.70301551302265 93.25828808415729 -7.3410322268606425
628 5 7 0.1400 88.18618712563641 92.763945876396 -8.533134235758137
629 5 8 0.0300 88.50198772107444 90.81262060497136 -9.508371473060183
630 5 8 0.0300 88.56438513570244 90.77922847641189 -7.646689027421828
631 5 8 0.0300 88.72546386954953 93.17721650114751 -9.41990871903557
632 5 8 0.0300 87.09232396523512 92.98155016633982 -8.6224021432891
633 5 7 0.1400 88.7030506318684 93.25833853800934 -7.341071781527861
634 5 6 -0.4000 90.3301493681316 94.69386146199066 -8.227728218472139
635 5 7 0.1400 88.95981452856772 94.47934675788218 -8.134139387949093
636 5 8 0.0300 87.84912269037702 92.65159726397337 -7.601050813608376
637 5 8 0.0300 89.50851102988341 92.83151042345087 -6.773444872500504
638 5 8 0.0300 88.49328695326744 94.34430166960976 -9.140169131852293
639 5 8 0.0300 88.45369122291542 95.31820422285857 -7.5937558640246525
640 5 7 0.1400 90.33011136413717 94.6939046477209 -8.227660550887569
641 5 6 -0.4000 88.94128863586283 95.7050953522791 -9.822339449112432
642 5 7 0.1400 88.993889543119 95.26221920706787 -8.505644015628036
643 5 8 0.0300 90.39861793907761 93.86464467395747 -7.540236558650014
644 5 8 0.0300 91.12474549238078 94.87500492968184 -8.926880323279757
645 5 8 0.0300 88.23150325481703 94.47060043008227 -8.3054244877768
646 5 8 0.0300 88.8557929447481 96.10856139768953 -7.78697077562802
647 5 7 0.1400 88.94136182430188 95.70517114242519 -9.822307657976177
648 5 6 -0.4000 87.22183817569811 94.51302885757481 -10.878892342023823
649 5 7 0.1400 88.18212093176957 95.49911535207036 -11.074042165916255
650 5 8 0.0300 89.29398515085349 96.70022113007532 -9.597698415848528
651 5 8 0.0300 88.84532981750935 94.98204959669988 -9.034258113988464
652 5 8 0.0300 87.72001394615314 96.47392482056856 -11.36418804986221
653 5 8 0.0300 88.92876083815315 95.19093866745338 -11.848259823460952
654 5 7 0.1400 87.22183273418719 94.51303035226212 -10.878877767340843
655 5 6 -0.4000 85.47176726581282 94.43396964773788 -9.321522232659156
656 5 7 0.1400 86.63654031754686 95.1127435230963 -9.66087862951219
657 5 8 0.0300 88.2967813564206 94.50021646974896 -10.974993655587575
658 5 8 0.0300 86.6257033910023 93.83333479530103 -11.458354044716627
659 5 8 0.0300 87.39887397333911 95.05772757269767 -8.846138399470643
660 5 8 0.0300 86.42515554227656 96.18347245748534 -9.907278763128291
661 5 7 0.1400 85.47168858829505 94.43406874812653 -9.321557439298399
662 5 6 -0.4000 84.89311141170495 96.64453125187346 -8.798642560701602
663 5 7 0.1400 84.6261613870773 95.5954536935638 -9.670862120790888
664 5 8 0.0300 85.81496848555919 93.79457783992552 -10.120386138371334
665 5 8 0.0300 85.98570362675093 94.43358336002602 -8.378722721736729
666 5 8 0.0300 84.84099335100403 95.87488769126341 -10.730930452647378
667 5 8 0.0300 83.56535601411561 95.25164571173762 -9.579510972313225
668 5 7 0.1400 84.89317002461755 96.64450165745319 -8.79868048867837
669 5 6 -0.4000 82.69342997538246 97.18029834254682 -8.191719511321631
670 5 7 0.1400 83.70567597252176 97.4725168126232 -9.09867012024236
671 5 8 0.0300 85.8692027898816 97.06817496260523 -8.97972736557096
672 5 8 0.0300 84.78790781800845 95.81381747212814 -8.126346753015321
673 5 8 0.0300 84.00922649920743 98.54636876672183 -9.046900839511407
674 5 8 0.0300 83.39981344312358 97.2175186583775 -10.144270930514347
675 5 7 0.1400 82.69344480971307 97.1802738536807 -8.191747523354314
676 5 6 -0.4000 81.90575519028692 98.46732614631931 -9.985452476645685
677 5 7 0.1400 82.25886861284734 98.5197730030709 -8.641892564314064
678 5 8 0.0300 83.46903329774767 97.1205044855595 -7.443544930561028
679 5 8 0.0300 82.49009962296397 96.33274965179474 -8.819045269439492
680 5 8 0.0300 83.09799464074614 99.2352196637591 -8.463050217503024
681 5 8 0.0300 81.38371548403926 98.79829702561334 -8.002839851305026
682 5 7 0.1400 81.9057152472286 98.46735389839922 -9.98540394257591
683 5 6 -0.4000 79.81308475277139 99.45024610160077 -9.599196057424088
684 5 7 0.1400 80.60007612501978 98.84095306988655 -10.569762686518194
685 5 8 0.0300 82.77866426736071 98.50952560203528 -10.618727363635646
686 5 8 0.0300 82.0190598704916 98.48709061701604 -8.917737113309586
687 5 8 0.0300 80.78913415742066 99.52153426085134 -11.435237875584683
688 5 8 0.0300 80.13386297231234 97.89076395447665 -10.93258901025882
689 5 7 0.1400 79.81305743327202 99.4502019075951 -9.599111496884454
690 5 6 -0.4000 78.92754256672798 97.4239980924049 -8.821488503115546
691 5 7 0.1400 79.78875989227419 98.46573401155696 -8.49639775743451
692 5 8 0.0300 79.93953342459788 100.49258733198383 -9.34940476761976
693 5 8 0.0300 79.38923534519247 99.17568977478476 -10.546828187987764
694 5 8 0.0300 79.4655188041928 98.99391799379949 -7.56660322105651
695 5 8 0.0300 80.83970331895614 98.10105704306436 -8.376457678373994
696 5 7 0.1400 78.92761618422364 97.42403846700356 -8.821482974592625
697 5 6 -0.4000 76.74878381577636 98.23136153299643 -9.130117025407374
698 5 7 0.1400 77.61290805604742 97.67544190002214 -8.193721991754531
699 5 8 0.0300 79.81222340001294 97.52998869956059 -8.212252622431315
700 5 8 0.0300 79.00723260225156 97.47089145332352 -9.891349799787848
701 5 8 0.0300 77.76920940009656 98.35534199716474 -7.321204514706705
702 5 8 0.0300 77.2397459002452 96.68317029664837 -7.835945426542269
703 5 7 0.1400 76.74878159878168 98.23132077880771 -9.13011965483386
704 5 5 0.1450 77.36635328770016 98.59031008606568 -10.408752082985439
705 5 3 -0.6830 76.41635352182976 98.40018289258767 -11.422475464952312
706 5 8 0.0300 77.11785406721974 98.66176350636229 -8.21638086757767
707 5 8 0.0300 75.9004655074168 97.56990290945407 -9.10981666906548
708 5 8 0.0300 77.70861526466953 99.65278983263764 -10.366865005677015
709 5 8 0.0300 78.2372121019381 97.91025263825188 -10.591710530008418
710 5 4 0.4180 76.55041840121831 97.54027922119229 -11.89828034516614

Bonds

1 1 1 3
2 4 2 3
3 2 1 4
4 2 1 5
5 2 1 6
6 2 3 7
7 2 3 8
8 1 9 11
9 4 10 11
10 2 9 12
11 2 9 13
12 2 11 14
13 2 11 15
14 1 16 18
15 4 17 18
16 2 16 19
17 2 16 20
18 2 18 21
19 2 18 22
20 1 23 25
21 4 24 25
22 2 23 26
23 2 23 27
24 2 25 28
25 2 25 29
26 1 30 32
27 4 31 32
28 2 30 33
29 2 30 34
30 2 32 35
31 2 32 36
32 1 37 39
33 4 38 39
34 2 37 40
35 2 37 41
36 2 39 42
37 2 39 43
38 1 44 46
39 4 45 46
40 2 44 47
41 2 44 48
42 2 46 49
43 2 46 50
44 1 51 53
45 4 52 53
46 2 51 54
47 2 51 55
48 2 53 56
49 2 53 57
50 1 58 60
51 4 59 60
52 2 58 61
53 2 58 62
54 2 60 63
55 2 60 64
56 1 65 67
57 4 66 67
58 2 65 68
59 2 65 69
60 2 67 70
61 2 67 71
62 1 72 74
63 4 73 74
64 2 72 75
65 2 72 76
66 2 74 77
67 2 74 78
68 1 79 81
69 4 80 81
70 2 79 82
71 2 79 83
72 2 81 84
73 2 81 85
74 1 86 88
75 4 87 88
76 2 86 89
77 2 86 90
78 2 88 91
79 2 88 92
80 1 93 95
81 4 94 95
82 2 93 96
83 2 93 97
84 2 95 98
85 2 95 99
86 1 100 102
87 4 101 102
88 2 100 103
89 2 100 104
90 2 102 105
91 2 102 106
92 1 107 109
93 4 108 109
94 2 107 110
95 2 107 111
96 2 109 112
97 2 109 113
98 1 114 116
99 4 115 116
100 2 114 117
101 2 114 118
102 2 116 119
103 2 116 120
104 1 121 123
105 4 122 123
106 2 121 124
107 2 121 125
108 2 123 126
109 2 123 127
110 1 128 130
111 4 129 130
112 2 128 131
113 2 128 132
114 2 130 133
115 2 130 134
116 1 135 136
117 3 136 137
118 2 135 138
119 2 135 139
120 2 136 140
121 2 136 141
122 6 137 142
123 4 2 9
124 4 10 16
125 4 17 23
126 4 24 30
127 4 31 37
128 4 38 44
129 4 45 51
130 4 52 58
131 4 59 65
132 4 66 72
133 4 73 79
134 4 80 86
135 4 87 93
136 4 94 100
137 4 101 107
138 4 108 114
139 4 115 121
140 4 122 128
141 4 129 135
142 1 143 145
143 4 144 145
144 2 143 146
145 2 143 147
146 2 143 148
147 2 145 149
148 2 145 150
149 1 151 153
150 4 152 153
151 2 151 154
152 2 151 155
153 2 153 156
154 2 153 157
155 1 158 160
156 4 159 160
157 2 158 161
158 2 158 162
159 2 160 163
160 2 160 164
161 1 165 167
162 4 166 167
163 2 165 168
164 2 165 169
165 2 167 170
166 2 167 171
167 1 172 174
168 4 173 174
169 2 172 175
170 2 172 176
171 2 174 177
172 2 174 178
173 1 179 181
174 4 180 181
175 2 179 182
176 2 179 183
177 2 181 184
178 2 181 185
179 1 186 188
180 4 187 188
181 2 186 189
182 2 186 190
183 2 188 191
184 2 188 192
185 1 193 195
186 4 194 195
187 2 193 196
188 2 193 197
189 2 195 198
190 2 195 199
191 1 200 202
192 4 201 202
193 2 200 203
194 2 200 204
195 2 202 205
196 2 202 206
197 1 207 209
198 4 208 209
199 2 207 210
200 2 207 211
201 2 209 212
202 2 209 213
203 1 214 216
204 4 215 216
205 2 214 217
206 2 214 218
207 2 216 219
208 2 216 220
209 1 221 223
210 4 222 223
211 2 221 224
212 2 221 225
213 2 223 226
214 2 223 227
215 1 228 230
216 4 229 230
217 2 228 231
218 2 228 232
219 2 230 233
220 2 230 234
221 1 235 237
222 4 236 237
223 2 235 238
224 2 235 239
225 2 237 240
226 2 237 241
227 1 242 244
228 4 243 244
229 2 242 245
230 2 242 246
231 2 244 247
232 2 244 248
233 1 249 251
234 4 250 251
235 2 249 252
236 2 249 253
237 2 251 254
238 2 251 255
239 1 256 258
240 4 257 258
241 2 256 259
242 2 256 260
243 2 258 261
244 2 258 262
245 1 263 265
246 4 264 265
247 2 263 266
248 2 263 267
249 2 265 268
250 2 265 269
251 1 270 272
252 4 271 272
253 2 270 273
254 2 270 274
255 2 272 275
256 2 272 276
257 1 277 278
258 3 278 279
259 2 277 280
260 2 277 281
261 2 278 282
262 2 278 283
263 6 279 284
264 4 144 151
265 4 152 158
266 4 159 165
267 4 166 172
268 4 173 179
269 4 180 186
270 4 187 193
271 4 194 200
272 4 201 207
273 4 208 214
274 4 215 221
275 4 222 228
276 4 229 235
277 4 236 242
278 4 243 249
279 4 250 256
280 4 257 263
281 4 264 270
282 4 271 277
283 1 285 287
284 4 286 287
285 2 285 288
286 2 285 289
287 2 285 290
288 2 287 291
289 2 287 292
290 1 293 295
291 4 294 295
292 2 293 296
293 2 293 297
294 2 295 298
295 2 295 299
296 1 300 302
297 4 301 302
298 2 300 303
299 2 300 304
300 2 302 305
301 2 302 306
302 1 307 309
303 4 308 309
304 2 307 310
305 2 307 311
306 2 309 312
307 2 309 313
308 1 314 316
309 4 315 316
310 2 314 317
311 2 314 318
312 2 316 319
313 2 316 320
314 1 321 323
315 4 322 323
316 2 321 324
317 2 321 325
318 2 323 326
319 2 323 327
320 1 328 330
321 4 329 330
322 2 328 331
323 2 328 332
324 2 330 333
325 2 330 334
326 1 335 337
327 4 336 337
328 2 335 338
329 2 335 339
330 2 337 340
331 2 337 341
332 1 342 344
333 4 343 344
334 2 342 345
335 2 342 346
336 2 344 347
337 2 344 348
338 1 349 351
339 4 350 351
340 2 349 352
341 2 349 353
342 2 351 354
343 2 351 355
344 1 356 358
345 4 357 358
346 2 356 359
347 2 356 360
348 2 358 361
349 2 358 362
350 1 363 365
351 4 364 365
352 2 363 366
353 2 363 367
354 2 365 368
355 2 365 369
356 1 370 372
357 4 371 372
358 2 370 373
359 2 370 374
360 2 372 375
361 2 372 376
362 1 377 379
363 4 378 379
364 2 377 380
365 2 377 381
366 2 379 382
367 2 379 383
368 1 384 386
369 4 385 386
370 2 384 387
371 2 384 388
372 2 386 389
373 2 386 390
374 1 391 393
375 4 392 393
376 2 391 394
377 2 391 395
378 2 393 396
379 2 393 397
380 1 398 400
381 4 399 400
382 2 398 401
383 2 398 402
384 2 400 403
385 2 400 404
386 1 405 407
387 4 406 407
388 2 405 408
389 2 405 409
390 2 407 410
391 2 407 411
392 1 412 414
393 4 413 414
394 2 412 415
395 2 412 416
396 2 414 417
397 2 414 418
398 1 419 420
399 3 420 421
400 2 419 422
401 2 419 423
402 2 420 424
403 2 420 425
404 6 421 426
405 4 286 293
406 4 294 300
407 4 301 307
408 4 308 314
409 4 315 321
410 4 322 328
411 4 329 335
412 4 336 342
413 4 343 349
414 4 350 356
415 4 357 363
416 4 364 370
417 4 371 377
418 4 378 384
419 4 385 391
420 4 392 398
421 4 399 405
422 4 406 412
423 4 413 419
424 1 427 429
425 4 428 429
426 2 427 430
427 2 427 431
428 2 427 432
429 2 429 433
430 2 429 434
431 1 435 437
432 4 436 437
433 2 435 438
434 2 435 439
435 2 437 440
436 2 437 441
437 1 442 444
438 4 443 444
439 2 442 445
440 2 442 446
441 2 444 447
442 2 444 448
443 1 449 451
444 4 450 451
445 2 449 452
446 2 449 453
447 2 451 454
448 2 451 455
449 1 456 458
450 4 457 458
451 2 456 459
452 2 456 460
453 2 458 461
454 2 458 462
455 1 463 465
456 4 464 465
457 2 463 466
458 2 463 467
459 2 465 468
460 2 465 469
461 1 470 472
462 4 471 472
463 2 470 473
464 2 470 474
465 2 472 475
466 2 472 476
467 1 477 479
468 4 478 479
469 2 477 480
470 2 477 481
471 2 479 482
472 2 479 483
473 1 484 486
474 4 485 486
475 2 484 487
476 2 484 488
477 2 486 489
478 2 486 490
479 1 491 493
480 4 492 493
481 2 491 494
482 2 491 495
483 2 493 496
484 2 493 497
485 1 498 500
486 4 499 500
487 2 498 501
488 2 498 502
489 2 500 503
490 2 500 504
491 1 505 507
492 4 506 507
493 2 505 508
494 2 505 509
495 2 507 510
496 2 507 511
497 1 512 514
498 4 513 514
499 2 512 515
500 2 512 516
501 2 514 517
502 2 514 518
503 1 519 521
504 4 520 521
505 2 519 522
506 2 519 523
507 2 521 524
508 2 521 525
509 1 526 528
510 4 527 528
511 2 526 529
512 2 526 530
513 2 528 531
514 2 528 532
515 1 533 535
516 4 534 535
517 2 533 536
518 2 533 537
519 2 535 538
520 2 535 539
521 1 540 542
522 4 541 542
523 2 540 543
524 2 540 544
525 2 542 545
526 2 542 546
527 1 547 549
528 4 548 549
529 2 547 550
530 2 547 551
531 2 549 552
532 2 549 553
533 1 554 556
534 4 555 556
535 2 554 557
536 2 554 558
537 2 556 559
538 2 556 560
539 1 561 562
540 3 562 563
541 2 561 564
542 2 561 565
543 2 562 566
544 2 562 567
545 6 563 568
546 4 428 435
547 4 436 442
548 4 443 449
549 4 450 456
550 4 457 463
551 4 464 470
552 4 471 477
553 4 478 484
554 4 485 491
555 4 492 498
556 4 499 505
557 4 506 512
558 4 513 519
559 4 520 526
560 4 527 533
561 4 534 540
562 4 541 547
563 4 548 554
564 4 555 561
565 1 569 571
566 4 570 571
567 2 569 572
568 2 569 573
569 2 569 574
570 2 571 575
571 2 571 576
572 1 577 579
573 4 578 579
574 2 577 580
575 2 577 581
576 2 579 582
577 2 579 583
578 1 584 586
579 4 585 586
580 2 584 587
581 2 584 588
582 2 586 589
583 2 586 590
584 1 591 593
585 4 592 593
586 2 591 594
587 2 591 595
588 2 593 596
589 2 593 597
590 1 598 600
591 4 599 600
592 2 598 601
593 2 598 602
594 2 600 603
595 2 600 604
596 1 605 607
597 4 606 607
598 2 605 608
599 2 605 609
600 2 607 610
601 2 607 611
602 1 612 614
603 4 613 614
604 2 612 615
605 2 612 616
606 2 614 617
607 2 614 618
608 1 619 621
609 4 620 621
610 2 619 622
611 2 619 623
612 2 621 624
613 2 621 625
614 1 626 628
615 4 627 628
616 2 626 629
617 2 626 630
618 2 628 631
619 2 628 632
620 1 633 635
621 4 634 635
622 2 633 636
623 2 633 637
624 2 635 638
625 2 635 639
626 1 640 642
627 4 641 642
628 2 640 643
629 2 640 644
630 2 642 645
631 2 642 646
632 1 647 649
633 4 648 649
634 2 647 650
635 2 647 651
636 2 649 652
637 2 649 653
638 1 654 656
639 4 655 656
640 2 654 657
641 2 654 658
642 2 656 659
643 2 656 660
644 1 661 663
645 4 662 663
646 2 661 664
647 2 661 665
648 2 663 666
649 2 663 667
650 1 668 670
651 4 669 670
652 2 668 671
653 2 668 672
654 2 670 673
655 2 670 674
656 1 675 677
657 4 676 677
658 2 675 678
659 2 675 679
660 2 677 680
661 2 677 681
662 1 682 684
663 4 683 684
664 2 682 685
665 2 682 686
666 2 684 687
667 2 684 688
668 1 689 691
669 4 690 691
670 2 689 692
671 2 689 693
672 2 691 694
673 2 691 695
674 1 696 698
675 4 697 698
676 2 696 699
677 2 696 700
678 2 698 701
679 2 698 702
680 1 703 704
681 3 704 705
682 2 703 706
683 2 703 707
684 2 704 708
685 2 704 709
686 6 705 710
687 4 570 577
688 4 578 584
689 4 585 591
690 4 592 598
691 4 599 605
692 4 606 612
693 4 613 619
694 4 620 626
695 4 627 633
696 4 634 640
697 4 641 647
698 4 648 654
699 4 655 661
700 4 662 668
701 4 669 675
702 4 676 682
703 4 683 689
704 4 690 696
705 4 697 703

Angles

1 2 1 3 7
2 2 1 3 8
3 2 143 145 149
4 2 143 145 150
5 2 285 287 291
6 2 285 287 292
7 2 427 429 433
8 2 427 429 434
9 2 569 571 575
10 2 569 571 576
11 2 3 1 4
12 2 3 1 5
13 2 3 1 6
14 2 145 143 146
15 2 145 143 147
16 2 145 143 148
17 2 287 285 288
18 2 287 285 289
19 2 287 285 290
20 2 429 427 430
21 2 429 427 431
22 2 429 427 432
23 2 571 569 572
24 2 571 569 573
25 2 571 569 574
26 2 9 11 14
27 2 9 11 15
28 2 11 9 12
29 2 11 9 13
30 2 16 18 21
31 2 16 18 22
32 2 18 16 19
33 2 18 16 20
34 2 23 25 28
35 2 23 25 29
36 2 25 23 26
37 2 25 23 27
38 2 30 32 35
39 2 30 32 36
40 2 32 30 33
41 2 32 30 34
42 2 37 39 42
43 2 37 39 43
44 2 39 37 40
45 2 39 37 41
46 2 44 46 49
47 2 44 46 50
48 2 46 44 47
49 2 46 44 48
50 2 51 53 56
51 2 51 53 57
52 2 53 51 54
53 2 53 51 55
54 2 58 60 63
55 2 58 60 64
56 2 60 58 61
57 2 60 58 62
58 2 65 67 70
59 2 65 67 71
60 2 67 65 68
61 2 67 65 69
62 2 72 74 77
63 2 72 74 78
64 2 74 72 75
65 2 74 72 76
66 2 79 81 84
67 2 79 81 85
68 2 81 79 82
69 2 81 79 83
70 2 86 88 91
71 2 86 88 92
72 2 88 86 89
73 2 88 86 90
74 2 93 95 98
75 2 93 95 99
76 2 95 93 96
77 2 95 93 97
78 2 100 102 105
79 2 100 102 106
80 2 102 100 103
81 2 102 100 104
82 2 107 109 112
83 2 107 109 113
84 2 109 107 110
85 2 109 107 111
86 2 114 116 119
87 2 114 116 120
88 2 116 114 117
89 2 116 114 118
90 2 121 123 126
91 2 121 123 127
92 2 123 121 124
93 2 123 121 125
94 2 128 130 133
95 2 128 130 134
96 2 130 128 131
97 2 130 128 132
98 2 151 153 156
99 2 151 153 157
100 2 153 151 154
101 2 153 151 155
102 2 158 160 163
103 2 158 160 164
104 2 160 158 161
105 2 160 158 162
106 2 165 167 170
107 2 165 167 171
108 2 167 165 168
109 2 167 165 169
110 2 172 174 177
111 2 172 174 178
112 2 174 172 175
113 2 174 172 176
114 2 179 181 184
115 2 179 181 185
116 2 181 179 182
117 2 181 179 183
118 2 186 188 191
119 2 186 188 192
120 2 188 186 189
121 2 188 186 190
122 2 193 195 198
123 2 193 195 199
124 2 195 193 196
125 2 195 193 197
126 2 200 202 205
127 2 200 202 206
128 2 202 200 203
129 2 202 200 204
130 2 207 209 212
131 2 207 209 213
132 2 209 207 210
133 2 209 207 211
134 2 214 216 219
135 2 214 216 220
136 2 216 214 217
137 2 216 214 218
138 2 221 223 226
139 2 221 223 227
140 2 223 221 224
141 2 223 221 225
142 2 228 230 233
143 2 228 230 234
144 2 230 228 231
145 2 230 228 232
146 2 235 237 240
147 2 235 237 241
148 2 237 235 238
149 2 237 235 239
150 2 242 244 247
151 2 242 244 248
152 2 244 242 245
153 2 244 242 246
154 2 249 251 254
155 2 249 251 255
156 2 251 249 252
157 2 251 249 253
158 2 256 258 261
159 2 256 258 262
160 2 258 256 259
161 2 258 256 260
162 2 263 265 268
163 2 263 265 269
164 2 265 263 266
165 2 265 263 267
166 2 270 272 275
167 2 270 272 276
168 2 272 270 273
169 2 272 270 274
170 2 293 295 298
171 2 293 295 299
172 2 295 293 296
173 2 295 293 297
174 2 300 302 305
175 2 300 302 306
176 2 302 300 303
177 2 302 300 304
178 2 307 309 312
179 2 307 309 313
180 2 309 307 310
181 2 309 307 311
182 2 314 316 319
183 2 314 316 320
184 2 316 314 317
185 2 316 314 318
186 2 321 323 326
187 2 321 323 327
188 2 323 321 324
189 2 323 321 325
190 2 328 330 333
191 2 328 330 334
192 2 330 328 331
193 2 330 328 332
194 2 335 337 340
195 2 335 337 341
196 2 337 335 338
197 2 337 335 339
198 2 342 344 347
199 2 342 344 348
200 2 344 342 345
201 2 344 342 346
202 2 349 351 354
203 2 349 351 355
204 2 351 349 352
205 2 351 349 353
206 2 356 358 361
207 2 356 358 362
208 2 358 356 359
209 2 358 356 360
210 2 363 365 368
211 2 363 365 369
212 2 365 363 366
213 2 365 363 367
214 2 370 372 375
215 2 370 372 376
216 2 372 370 373
217 2 372 370 374
218 2 377 379 382
219 2 377 379 383
220 2 379 377 380
221 2 379 377 381
222 2 384 386 389
223 2 384 386 390
224 2 386 384 387
225 2 386 384 388
226 2 391 393 396
227 2 391 393 397
228 2 393 391 394
229 2 393 391 395
230 2 398 400 403
231 2 398 400 404
232 2 400 398 401
233 2 400 398 402
234 2 405 407 410
235 2 405 407 411
236 2 407 405 408
237 2 407 405 409
238 2 412 414 417
239 2 412 414 418
240 2 414 412 415
241 2 414 412 416
242 2 435 437 440
243 2 435 437 441
244 2 437 435 438
245 2 437 435 439
246 2 442 444 447
247 2 442 444 448
248 2 444 442 445
249 2 444 442 446
250 2 449 451 454
251 2 449 451 455
252 2 451 449 452
253 2 451 449 453
254 2 456 458 461
255 2 456 458 462
256 2 458 456 459
257 2 458 456 460
258 2 463 465 468
259 2 463 465 469
260 2 465 463 466
261 2 465 463 467
262 2 470 472 475
263 2 470 472 476
264 2 472 470 473
265 2 472 470 474
266 2 477 479 482
267 2 477 479 483
268 2 479 477 480
269 2 479 477 481
270 2 484 486 489
271 2 484 486 490
272 2 486 484 487
273 2 486 484 488
274 2 491 493 496
275 2 491 493 497
276 2 493 491 494
277 2 493 491 495
278 2 498 500 503
279 2 498 500 504
280 2 500 498 501
281 2 500 498 502
282 2 505 507 510
283 2 505 507 511
284 2 507 505 508
285 2 507 505 509
286 2 512 514 517
287 2 512 514 518
288 2 514 512 515
289 2 514 512 516
290 2 519 521 524
291 2 519 521 525
292 2 521 519 522
293 2 521 519 523
294 2 526 528 531
295 2 526 528 532
296 2 528 526 529
297 2 528 526 530
298 2 533 535 538
299 2 533 535 539
300 2 535 533 536
301 2 535 533 537
302 2 540 542 545
303 2 540 542 546
304 2 542 540 543
305 2 542 540 544
306 2 547 549 552
307 2 547 549 553
308 2 549 547 550
309 2 549 547 551
310 2 554 556 559
311 2 554 556 560
312 2 556 554 557
313 2 556 554 558
314 2 577 579 582
315 2 577 579 583
316 2 579 577 580
317 2 579 577 581
318 2 584 586 589
319 2 584 586 590
320 2 586 584 587
321 2 586 584 588
322 2 591 593 596
323 2 591 593 597
324 2 593 591 594
325 2 593 591 595
326 2 598 600 603
327 2 598 600 604
328 2 600 598 601
329 2 600 598 602
330 2 605 607 610
331 2 605 607 611
332 2 607 605 608
333 2 607 605 609
334 2 612 614 617
335 2 612 614 618
336 2 614 612 615
337 2 614 612 616
338 2 619 621 624
339 2 619 621 625
340 2 621 619 622
341 2 621 619 623
342 2 626 628 631
343 2 626 628 632
344 2 628 626 629
345 2 628 626 630
346 2 633 635 638
347 2 633 635 639
348 2 635 633 636
349 2 635 633 637
350 2 640 642 645
351 2 640 642 646
352 2 642 640 643
353 2 642 640 644
354 2 647 649 652
355 2 647 649 653
356 2 649 647 650
357 2 649 647 651
358 2 654 656 659
359 2 654 656 660
360 2 656 654 657
361 2 656 654 658
362 2 661 663 666
363 2 661 663 667
364 2 663 661 664
365 2 663 661 665
366 2 668 670 673
367 2 668 670 674
368 2 670 668 671
369 2 670 668 672
370 2 675 677 680
371 2 675 677 681
372 2 677 675 678
373 2 677 675 679
374 2 682 684 687
375 2 682 684 688
376 2 684 682 685
377 2 684 682 686
378 2 689 691 694
379 2 689 691 695
380 2 691 689 692
381 2 691 689 693
382 2 696 698 701
383 2 696 698 702
384 2 698 696 699
385 2 698 696 700
386 2 135 136 140
387 2 135 136 141
388 2 277 278 282
389 2 277 278 283
390 2 419 420 424
391 2 419 420 425
392 2 561 562 566
393 2 561 562 567
394 2 703 704 708
395 2 703 704 709
396 2 136 135 138
397 2 136 135 139
398 2 278 277 280
399 2 278 277 281
400 2 420 419 422
401 2 420 419 423
402 2 562 561 564
403 2 562 561 565
404 2 704 703 706
405 2 704 703 707
406 3 135 136 137
407 3 277 278 279
408 3 419 420 421
409 3 561 562 563
410 3 703 704 705
411 4 1 3 2
412 4 143 145 144
413 4 285 287 286
414 4 427 429 428
415 4 569 571 570
416 4 9 11 10
417 4 2 9 11
418 4 16 18 17
419 4 10 16 18
420 4 23 25 24
421 4 17 23 25
422 4 30 32 31
423 4 24 30 32
424 4 37 39 38
425 4 31 37 39
426 4 44 46 45
427 4 38 44 46
428 4 51 53 52
429 4 45 51 53
430 4 58 60 59
431 4 52 58 60
432 4 65 67 66
433 4 59 65 67
434 4 72 74 73
435 4 66 72 74
436 4 79 81 80
437 4 73 79 81
438 4 86 88 87
439 4 80 86 88
440 4 93 95 94
441 4 87 93 95
442 4 100 102 101
443 4 94 100 102
444 4 107 109 108
445 4 101 107 109
446 4 114 116 115
447 4 108 114 116
448 4 121 123 122
449 4 115 121 123
450 4 128 130 129
451 4 122 128 130
452 4 151 153 152
453 4 144 151 153
454 4 158 160 159
455 4 152 158 160
456 4 165 167 166
457 4 159 165 167
458 4 172 174 173
459 4 166 172 174
460 4 179 181 180
461 4 173 179 181
462 4 186 188 187
463 4 180 186 188
464 4 193 195 194
465 4 187 193 195
466 4 200 202 201
467 4 194 200 202
468 4 207 209 208
469 4 201 207 209
470 4 214 216 215
471 4 208 214 216
472 4 221 223 222
473 4 215 221 223
474 4 228 230 229
475 4 222 228 230
476 4 235 237 236
477 4 229 235 237
478 4 242 244 243
479 4 236 242 244
480 4 249 251 250
481 4 243 249 251
482 4 256 258 257
483 4 250 256 258
484 4 263 265 264
485 4 257 263 265
486 4 270 272 271
487 4 264 270 272
488 4 293 295 294
489 4 286 293 295
490 4 300 302 301
491 4 294 300 302
492 4 307 309 308
493 4 301 307 309
494 4 314 316 315
495 4 308 314 316
496 4 321 323 322
497 4 315 321 323
498 4 328 330 329
499 4 322 328 330
500 4 335 337 336
501 4 329 335 337
502 4 342 344 343
503 4 336 342 344
504 4 349 351 350
505 4 343 349 351
506 4 356 358 357
507 4 350 356 358
508 4 363 365 364
509 4 357 363 365
510 4 370 372 371
511 4 364 370 372
512 4 377 379 378
513 4 371 377 379
514 4 384 386 385
515 4 378 384 386
516 4 391 393 392
517 4 385 391 393
518 4 398 400 399
519 4 392 398 400
520 4 405 407 406
521 4 399 405 407
522 4 412 414 413
523 4 406 412 414
524 4 435 437 436
525 4 428 435 437
526 4 442 444 443
527 4 436 442 444
528 4 449 451 450
529 4 443 449 451
530 4 456 458 457
531 4 450 456 458
532 4 463 465 464
533 4 457 463 465
534 4 470 472 471
535 4 464 470 472
536 4 477 479 478
537 4 471 477 479
538 4 484 486 485
539 4 478 484 486
540 4 491 493 492
541 4 485 491 493
542 4 498 500 499
543 4 492 498 500
544 4 505 507 506
545 4 499 505 507
546 4 512 514 513
547 4 506 512 514
548 4 519 521 520
549 4 513 519 521
550 4 526 528 527
551 4 520 526 528
552 4 533 535 534
553 4 527 533 535
554 4 540 542 541
555 4 534 540 542
556 4 547 549 548
557 4 541 547 549
558 4 554 556 555
559 4 548 554 556
560 4 577 579 578
561 4 570 577 579
562 4 584 586 585
563 4 578 584 586
564 4 591 593 592
565 4 585 591 593
566 4 598 600 599
567 4 592 598 600
568 4 605 607 606
569 4 599 605 607
570 4 612 614 613
571 4 606 612 614
572 4 619 621 620
573 4 613 619 621
574 4 626 628 627
575 4 620 626 628
576 4 633 635 634
577 4 627 633 635
578 4 640 642 641
579 4 634 640 642
580 4 647 649 648
581 4 641 647 649
582 4 654 656 655
583 4 648 654 656
584 4 661 663 662
585 4 655 661 663
586 4 668 670 669
587 4 662 668 670
588 4 675 677 676
589 4 669 675 677
590 4 682 684 683
591 4 676 682 684
592 4 689 691 690
593 4 683 689 691
594 4 696 698 697
595 4 690 696 698
596 4 129 135 136
597 4 271 277 278
598 4 413 419 420
599 4 555 561 562
600 4 697 703 704
601 6 136 137 142
602 6 278 279 284
603 6 420 421 426
604 6 562 563 568
605 6 704 705 710
606 7 3 2 9
607 7 11 10 16
608 7 18 17 23
609 7 25 24 30
610 7 32 31 37
611 7 39 38 44
612 7 46 45 51
613 7 53 52 58
614 7 60 59 65
615 7 67 66 72
616 7 74 73 79
617 7 81 80 86
618 7 88 87 93
619 7 95 94 100
620 7 102 101 107
621 7 109 108 114
622 7 116 115 121
623 7 123 122 128
624 7 130 129 135
625 7 145 144 151
626 7 153 152 158
627 7 160 159 165
628 7 167 166 172
629 7 174 173 179
630 7 181 180 186
631 7 188 187 193
632 7 195 194 200
633 7 202 201 207
634 7 209 208 214
635 7 216 215 221
636 7 223 222 228
637 7 230 229 235
638 7 237 236 242
639 7 244 243 249
640 7 251 250 256
641 7 258 257 263
642 7 265 264 270
643 7 272 271 277
644 7 287 286 293
645 7 295 294 300
646 7 302 301 307
647 7 309 308 314
648 7 316 315 321
649 7 323 322 328
650 7 330 329 335
651 7 337 336 342
652 7 344 343 349
653 7 351 350 356
654 7 358 357 363
655 7 365 364 370
656 7 372 371 377
657 7 379 378 384
658 7 386 385 391
659 7 393 392 398
660 7 400 399 405
661 7 407 406 412
662 7 414 413 419
663 7 429 428 435
664 7 437 436 442
665 7 444 443 449
666 7 451 450 456
667 7 458 457 463
668 7 465 464 470
669 7 472 471 477
670 7 479 478 484
671 7 486 485 491
672 7 493 492 498
673 7 500 499 505
674 7 507 506 512
675 7 514 513 519
676 7 521 520 526
677 7 528 527 533
678 7 535 534 540
679 7 542 541 547
680 7 549 548 554
681 7 556 555 561
682 7 571 570 577
683 7 579 578 584
684 7 586 585 591
685 7 593 592 598
686 7 600 599 605
687 7 607 606 612
688 7 614 613 619
689 7 621 620 626
690 7 628 627 633
691 7 635 634 640
692 7 642 641 647
693 7 649 648 654
694 7 656 655 661
695 7 663 662 668
696 7 670 669 675
697 7 677 676 682
698 7 684 683 689
699 7 691 690 696
700 7 698 697 703
701 8 4 1 5
702 8 4 1 6
703 8 5 1 6
704 8 146 143 147
705 8 146 143 148
706 8 147 143 148
707 8 288 285 289
708 8 288 285 290
709 8 289 285 290
710 8 430 427 431
711 8 430 427 432
712 8 431 427 432
713 8 572 569 573
714 8 572 569 574
715 8 573 569 574
716 8 7 3 8
717 8 12 9 13
718 8 14 11 15
719 8 19 16 20
720 8 21 18 22
721 8 26 23 27
722 8 28 25 29
723 8 33 30 34
724 8 35 32 36
725 8 40 37 41
726 8 42 39 43
727 8 47 44 48
728 8 49 46 50
729 8 54 51 55
730 8 56 53 57
731 8 61 58 62
732 8 63 60 64
733 8 68 65 69
734 8 70 67 71
735 8 75 72 76
736 8 77 74 78
737 8 82 79 83
738 8 84 81 85
739 8 89 86 90
740 8 91 88 92
741 8 96 93 97
742 8 98 95 99
743 8 103 100 104
744 8 105 102 106
745 8 110 107 111
746 8 112 109 113
747 8 117 114 118
748 8 119 116 120
749 8 124 121 125
750 8 126 123 127
751 8 131 128 132
752 8 133 130 134
753 8 138 135 139
754 8 149 145 150
755 8 154 151 155
756 8 156 153 157
757 8 161 158 162
758 8 163 160 164
759 8 168 165 169
760 8 170 167 171
761 8 175 172 176
762 8 177 174 178
763 8 182 179 183
764 8 184 181 185
765 8 189 186 190
766 8 191 188 192
767 8 196 193 197
768 8 198 195 199
769 8 203 200 204
770 8 205 202 206
771 8 210 207 211
772 8 212 209 213
773 8 217 214 218
774 8 219 216 220
775 8 224 221 225
776 8 226 223 227
777 8 231 228 232
778 8 233 230 234
779 8 238 235 239
780 8 240 237 241
781 8 245 242 246
782 8 247 244 248
783 8 252 249 253
784 8 254 251 255
785 8 259 256 260
786 8 261 258 262
787 8 266 263 267
788 8 268 265 269
789 8 273 270 274
790 8 275 272 276
791 8 280 277 281
792 8 291 287 292
793 8 296 293 297
794 8 298 295 299
795 8 303 300 304
796 8 305 302 306
797 8 310 307 311
798 8 312 309 313
799 8 317 314 318
800 8 319 316 320
801 8 324 321 325
802 8 326 323 327
803 8 331 328 332
804 8 333 330 334
805 8 338 335 339
806 8 340 337 341
807 8 345 342 346
808 8 347 344 348
809 8 352 349 353
810 8 354 351 355
811 8 359 356 360
812 8 361 358 362
813 8 366 363 367
814 8 368 365 369
815 8 373 370 374
816 8 375 372 376
817 8 380 377 381
818 8 382 379 383
819 8 387 384 388
820 8 389 386 390
821 8 394 391 395
822 8 396 393 397
823 8 401 398 402
824 8 403 400 404
825 8 408 405 409
826 8 410 407 411
827 8 415 412 416
828 8 417 414 418
829 8 422 419 423
830 8 433 429 434
831 8 438 435 439
832 8 440 437 441
833 8 445 442 446
834 8 447 444 448
835 8 452 449 453
836 8 454 451 455
837 8 459 456 460
838 8 461 458 462
839 8 466 463 467
840 8 468 465 469
841 8 473 470 474
842 8 475 472 476
843 8 480 477 481
844 8 482 479 483
845 8 487 484 488
846 8 489 486 490
847 8 494 491 495
848 8 496 493 497
849 8 501 498 502
850 8 503 500 504
851 8 508 505 509
852 8 510 507 511
853 8 515 512 516
854 8 517 514 518
855 8 522 519 523
856 8 524 521 525
857 8 529 526 530
858 8 531 528 532
859 8 536 533 537
860 8 538 535 539
861 8 543 540 544
862 8 545 542 546
863 8 550 547 551
864 8 552 549 553
865 8 557 554 558
866 8 559 556 560
867 8 564 561 565
868 8 575 571 576
869 8 580 577 581
870 8 582 579 583
871 8 587 584 588
872 8 589 586 590
873 8 594 591 595
874 8 596 593 597
875 8 601 598 602
876 8 603 600 604
877 8 608 605 609
878 8 610 607 611
879 8 615 612 616
880 8 617 614 618
881 8 622 619 623
882 8 624 621 625
883 8 629 626 630
884 8 631 628 632
885 8 636 633 637
886 8 638 635 639
887 8 643 640 644
888 8 645 642 646
889 8 650 647 651
890 8 652 649 653
891 8 657 654 658
892 8 659 656 660
893 8 664 661 665
894 8 666 663 667
895 8 671 668 672
896 8 673 670 674
897 8 678 675 679
898 8 680 677 681
899 8 685 682 686
900 8 687 684 688
901 8 692 689 693
902 8 694 691 695
903 8 699 696 700
904 8 701 698 702
905 8 706 703 707
906 8 140 136 141
907 8 282 278 283
908 8 424 420 425
909 8 566 562 567
910 8 708 704 709
911 9 137 136 140
912 9 137 136 141
913 9 279 278 282
914 9 279 278 283
915 9 421 420 424
916 9 421 420 425
917 9 563 562 566
918 9 563 562 567
919 9 705 704 708
920 9 705 704 709
921 10 2 3 7
922 10 2 3 8
923 10 2 9 12
924 10 2 9 13
925 10 10 11 14
926 10 10 11 15
927 10 10 16 19
928 10 10 16 20
929 10 17 18 21
930 10 17 18 22
931 10 17 23 26
932 10 17 23 27
933 10 24 25 28
934 10 24 25 29
935 10 24 30 33
936 10 24 30 34
937 10 31 32 35
938 10 31 32 36
939 10 31 37 40
940 10 31 37 41
941 10 38 39 42
942 10 38 39 43
943 10 38 44 47
944 10 38 44 48
945 10 45 46 49
946 10 45 46 50
947 10 45 51 54
948 10 45 51 55
949 10 52 53 56
950 10 52 53 57
951 10 52 58 61
952 10 52 58 62
953 10 59 60 63
954 10 59 60 64
955 10 59 65 68
956 10 59 65 69
957 10 66 67 70
958 10 66 67 71
959 10 66 72 75
960 10 66 72 76
961 10 73 74 77
962 10 73 74 78
963 10 73 79 82
964 10 73 79 83
965 10 80 81 84
966 10 80 81 85
967 10 80 86 89
968 10 80 86 90
969 10 87 88 91
970 10 87 88 92
971 10 87 93 96
972 10 87 93 97
973 10 94 95 98
974 10 94 95 99
975 10 94 100 103
976 10 94 100 104
977 10 101 102 105
978 10 101 102 106
979 10 101 107 110
980 10 101 107 111
981 10 108 109 112
982 10 108 109 113
983 10 108 114 117
984 10 108 114 118
985 10 115 116 119
986 10 115 116 120
987 10 115 121 124
988 10 115 121 125
989 10 122 123 126
990 10 122 123 127
991 10 122 128 131
992 10 122 128 132
993 10 129 130 133
994 10 129 130 134
995 10 129 135 138
996 10 129 135 139
997 10 144 145 149
998 10 144 145 150
999 10 144 151 154
1000 10 144 151 155
1001 10 152 153 156
1002 10 152 153 157
1003 10 152 158 161
1004 10 152 158 162
1005 10 159 160 163
1006 10 159 160 164
1007 10 159 165 168
1008 10 159 165 169
1009 10 166 167 170
1010 10 166 167 171
1011 10 166 172 175
1012 10 166 172 176
1013 10 173 174 177
1014 10 173 174 178
1015 10 173 179 182
1016 10 173 179 183
1017 10 180 181 184
1018 10 180 181 185
1019 10 180 186 189
1020 10 180 186 190
1021 10 187 188 191
1022 10 187 188 192
1023 10 187 193 196
1024 10 187 193 197
1025 10 194 195 198
1026 10 194 195 199
1027 10 194 200 203
1028 10 194 200 204
1029 10 201 202 205
1030 10 201 202 206
1031 10 201 207 210
1032 10 201 207 211
1033 10 208 209 212
1034 10 208 209 213
1035 10 208 214 217
1036 10 208 214 218
1037 10 215 216 219
1038 10 215 216 220
1039 10 215 221 224
1040 10 215 221 225
1041 10 222 223 226
1042 10 222 223 227
1043 10 222 228 231
1044 10 222 228 232
1045 10 229 230 233
1046 10 229 230 234
1047 10 229 235 238
1048 10 229 235 239
1049 10 236 237 240
1050 10 236 237 241
1051 10 236 242 245
1052 10 236 242 246
1053 10 243 244 247
1054 10 243 244 248
1055 10 243 249 252
1056 10 243 249 253
1057 10 250 251 254
1058 10 250 251 255
1059 10 250 256 259
1060 10 250 256 260
1061 10 257 258 261
1062 10 257 258 262
1063 10 257 263 266
1064 10 257 263 267
1065 10 264 265 268
1066 10 264 265 269
1067 10 264 270 273
1068 10 264 270 274
1069 10 271 272 275
1070 10 271 272 276
1071 10 271 277 280
1072 10 271 277 281
1073 10 286 287 291
1074 10 286 287 292
1075 10 286 293 296
1076 10 286 293 297
1077 10 294 295 298
1078 10 294 295 299
1079 10 294 300 303
1080 10 294 300 304
1081 10 301 302 305
1082 10 301 302 306
1083 10 301 307 310
1084 10 301 307 311
1085 10 308 309 312
1086 10 308 309 313
1087 10 308 314 317
1088 10 308 314 318
1089 10 315 316 319
1090 10 315 316 320
1091 10 315 321 324
1092 10 315 321 325
1093 10 322 323 326
1094 10 322 323 327
1095 10 322 328 331
1096 10 322 328 332
1097 10 329 330 333
1098 10 329 330 334
1099 10 329 335 338
1100 10 329 335 339
1101 10 336 337 340
1102 10 336 337 341
1103 10 336 342 345
1104 10 336 342 346
1105 10 343 344 347
1106 10 343 344 348
1107 10 343 349 352
1108 10 343 349 353
1109 10 350 351 354
1110 10 350 351 355
1111 10 350 356 359
1112 10 350 356 360
1113 10 357 358 361
1114 10 357 358 362
1115 10 357 363 366
1116 10 357 363 367
1117 10 364 365 368
1118 10 364 365 369
1119 10 364 370 373
1120 10 364 370 374
1121 10 371 372 375
1122 10 371 372 376
1123 10 371 377 380
1124 10 371 377 381
1125 10 378 379 382
1126 10 378 379 383
1127 10 378 384 387
1128 10 378 384 388
1129 10 385 386 389
1130 10 385 386 390
1131 10 385 391 394
1132 10 385 391 395
1133 10 392 393 396
1134 10 392 393 397
1135 10 392 398 401
1136 10 392 398 402
1137 10 399 400 403
1138 10 399 400 404
1139 10 399 405 408
1140 10 399 405 409
1141 10 406 407 410
1142 10 406 407 411
1143 10 406 412 415
1144 10 406 412 416
1145 10 413 414 417
1146 10 413 414 418
1147 10 413 419 422
1148 10 413 419 423
1149 10 428 429 433
1150 10 428 429 434
1151 10 428 435 438
1152 10 428 435 439
1153 10 436 437 440
1154 10 436 437 441
1155 10 436 442 445
1156 10 436 442 446
1157 10 443 444 447
1158 10 443 444 448
1159 10 443 449 452
1160 10 443 449 453
1161 10 450 451 454
1162 10 450 451 455
1163 10 450 456 459
1164 10 450 456 460
1165 10 457 458 461
1166 10 457 458 462
1167 10 457 463 466
1168 10 457 463 467
1169 10 464 465 468
1170 10 464 465 469
1171 10 464 470 473
1172 10 464 470 474
1173 10 471 472 475
1174 10 471 472 476
1175 10 471 477 480
1176 10 471 477 481
1177 10 478 479 482
1178 10 478 479 483
1179 10 478 484 487
1180 10 478 484 488
1181 10 485 486 489
1182 10 485 486 490
1183 10 485 491 494
1184 10 485 491 495
1185 10 492 493 496
1186 10 492 493 497
1187 10 492 498 501
1188 10 492 498 502
1189 10 499 500 503
1190 10 499 500 504
1191 10 499 505 508
1192 10 499 505 509
1193 10 506 507 510
1194 10 506 507 511
1195 10 506 512 515
1196 10 506 512 516
1197 10 513 514 517
1198 10 513 514 518
1199 10 513 519 522
1200 10 513 519 523
1201 10 520 521 524
1202 10 520 521 525
1203 10 520 526 529
1204 10 520 526 530
1205 10 527 528 531
1206 10 527 528 532
1207 10 527 533 536
1208 10 527 533 537
1209 10 534 535 538
1210 10 534 535 539
1211 10 534 540 543
1212 10 534 540 544
1213 10 541 542 545
1214 10 541 542 546
1215 10 541 547 550
1216 10 541 547 551
1217 10 548 549 552
1218 10 548 549 553
1219 10 548 554 557
1220 10 548 554 558
1221 10 555 556 559
1222 10 555 556 560
1223 10 555 561 564
1224 10 555 561 565
1225 10 570 571 575
1226 10 570 571 576
1227 10 570 577 580
1228 10 570 577 581
1229 10 578 579 582
1230 10 578 579 583
1231 10 578 584 587
1232 10 578 584 588
1233 10 585 586 589
1234 10 585 586 590
1235 10 585 591 594
1236 10 585 591 595
1237 10 592 593 596
1238 10 592 593 597
1239 10 592 598 601
1240 10 592 598 602
1241 10 599 600 603
1242 10 599 600 604
1243 10 599 605 608
1244 10 599 605 609
1245 10 606 607 610
1246 10 606 607 611
1247 10 606 612 615
1248 10 606 612 616
1249 10 613 614 617
1250 10 613 614 618
1251 10 613 619 622
1252 10 613 619 623
1253 10 620 621 624
1254 10 620 621 625
1255 10 620 626 629
1256 10 620 626 630
1257 10 627 628 631
1258 10 627 628 632
1259 10 627 633 636
1260 10 627 633 637
1261 10 634 635 638
1262 10 634 635 639
1263 10 634 640 643
1264 10 634 640 644
1265 10 641 642 645
1266 10 641 642 646
1267 10 641 647 650
1268 10 641 647 651
1269 10 648 649 652
1270 10 648 649 653
1271 10 648 654 657
1272 10 648 654 658
1273 10 655 656 659
1274 10 655 656 660
1275 10 655 661 664
1276 10 655 661 665
1277 10 662 663 666
1278 10 662 663 667
1279 10 662 668 671
1280 10 662 668 672
1281 10 669 670 673
1282 10 669 670 674
1283 10 669 675 678
1284 10 669 675 679
1285 10 676 677 680
1286 10 676 677 681
1287 10 676 682 685
1288 10 676 682 686
1289 10 683 684 687
1290 10 683 684 688
1291 10 683 689 692
1292 10 683 689 693
1293 10 690 691 694
1294 10 690 691 695
1295 10 690 696 699
1296 10 690 696 700
1297 10 697 698 701
1298 10 697 698 702
1299 10 697 703 706
1300 10 697 703 707

Dihedrals

1 8 3 2 9 11
2 8 11 10 16 18
3 8 9 11 10 16
4 8 18 17 23 25
5 8 16 18 17 23
6 8 25 24 30 32
7 8 23 25 24 30
8 8 32 31 37 39
9 8 30 32 31 37
10 8 39 38 44 46
11 8 37 39 38 44
12 8 46 45 51 53
13 8 44 46 45 51
14 8 53 52 58 60
15 8 51 53 52 58
16 8 60 59 65 67
17 8 58 60 59 65
18 8 67 66 72 74
19 8 65 67 66 72
20 8 74 73 79 81
21 8 72 74 73 79
22 8 81 80 86 88
23 8 79 81 80 86
24 8 88 87 93 95
25 8 86 88 87 93
26 8 95 94 100 102
27 8 93 95 94 100
28 8 102 101 107 109
29 8 100 102 101 107
30 8 109 108 114 116
31 8 107 109 108 114
32 8 116 115 121 123
33 8 114 116 115 121
34 8 123 122 128 130
35 8 121 123 122 128
36 8 128 130 129 135
37 8 145 144 151 153
38 8 153 152 158 160
39 8 151 153 152 158
40 8 160 159 165 167
41 8 158 160 159 165
42 8 167 166 172 174
43 8 165 167 166 172
44 8 174 173 179 181
45 8 172 174 173 179
46 8 181 180 186 188
47 8 179 181 180 186
48 8 188 187 193 195
49 8 186 188 187 193
50 8 195 194 200 202
51 8 193 195 194 200
52 8 202 201 207 209
53 8 200 202 201 207
54 8 209 208 214 216
55 8 207 209 208 214
56 8 216 215 221 223
57 8 214 216 215 221
58 8 223 222 228 230
59 8 221 223 222 228
60 8 230 229 235 237
61 8 228 230 229 235
62 8 237 236 242 244
63 8 235 237 236 242
64 8 244 243 249 251
65 8 242 244 243 249
66 8 251 250 256 258
67 8 249 251 250 256
68 8 258 257 263 265
69 8 256 258 257 263
70 8 265 264 270 272
71 8 263 265 264 270
72 8 270 272 271 277
73 8 287 286 293 295
74 8 295 294 300 302
75 8 293 295 294 300
76 8 302 301 307 309
77 8 300 302 301 307
78 8 309 308 314 316
79 8 307 309 308 314
80 8 316 315 321 323
81 8 314 316 315 321
82 8 323 322 328 330
83 8 321 323 322 328
84 8 330 329 335 337
85 8 328 330 329 335
86 8 337 336 342 344
87 8 335 337 336 342
88 8 344 343 349 351
89 8 342 344 343 349
90 8 351 350 356 358
91 8 349 351 350 356
92 8 358 357 363 365
93 8 356 358 357 363
94 8 365 364 370 372
95 8 363 365 364 370
96 8 372 371 377 379
97 8 370 372 371 377
98 8 379 378 384 386
99 8 377 379 378 384
100 8 386 385 391 393
101 8 384 386 385 391
102 8 393 392 398 400
103 8 391 393 392 398
104 8 400 399 405 407
105 8 398 400 399 405
106 8 407 406 412 414
107 8 405 407 406 412
108 8 412 414 413 419
109 8 429 428 435 437
110 8 437 436 442 444
111 8 435 437 436 442
112 8 444 443 449 451
113 8 442 444 443 449
114 8 451 450 456 458
115 8 449 451 450 456
116 8 458 457 463 465
117 8 456 458 457 463
118 8 465 464 470 472
119 8 463 465 464 470
120 8 472 471 477 479
121 8 470 472 471 477
122 8 479 478 484 486
123 8 477 479 478 484
124 8 486 485 491 493
125 8 484 486 485 491
126 8 493 492 498 500
127 8 491 493 492 498
128 8 500 499 505 507
129 8 498 500 499 505
130 8 507 506 512 514
131 8 505 507 506 512
132 8 514 513 519 521
133 8 512 514 513 519
134 8 521 520 526 528
135 8 519 521 520 526
136 8 528 527 533 535
137 8 526 528 527 533
138 8 535 534 540 542
139 8 533 535 534 540
140 8 542 541 547 549
141 8 540 542 541 547
142 8 549 548 554 556
143 8 547 549 548 554
144 8 554 556 555 561
145 8 571 570 577 579
146 8 579 578 584 586
147 8 577 579 578 584
148 8 586 585 591 593
149 8 584 586 585 591
150 8 593 592 598 600
151 8 591 593 592 598
152 8 600 599 605 607
153 8 598 600 599 605
154 8 607 606 612 614
155 8 605 607 606 612
156 8 614 613 619 621
157 8 612 614 613 619
158 8 621 620 626 628
159 8 619 621 620 626
160 8 628 627 633 635
161 8 626 628 627 633
162 8 635 634 640 642
163 8 633 635 634 640
164 8 642 641 647 649
165 8 640 642 641 647
166 8 649 648 654 656
167 8 647 649 648 654
168 8 656 655 661 663
169 8 654 656 655 661
170 8 663 662 668 670
171 8 661 663 662 668
172 8 670 669 675 677
173 8 668 670 669 675
174 8 677 676 682 684
175 8 675 677 676 682
176 8 684 683 689 691
177 8 682 684 683 689
178 8 691 690 696 698
179 8 689 691 690 696
180 8 696 698 697 703
181 8 1 3 2 9
182 8 143 145 144 151
183 8 285 287 286 293
184 8 427 429 428 435
185 8 569 571 570 577
186 8 130 129 135 136
187 8 272 271 277 278
188 8 414 413 419 420
189 8 556 555 561 562
190 8 698 697 703 704
191 10 4 1 3 7
192 10 4 1 3 8
193 10 5 1 3 7
194 10 5 1 3 8
195 10 6 1 3 7
196 10 6 1 3 8
197 10 146 143 145 149
198 10 146 143 145 150
199 10 147 143 145 149
200 10 147 143 145 150
201 10 148 143 145 149
202 10 148 143 145 150
203 10 288 285 287 291
204 10 288 285 287 292
205 10 289 285 287 291
206 10 289 285 287 292
207 10 290 285 287 291
208 10 290 285 287 292
209 10 430 427 429 433
210 10 430 427 429 434
211 10 431 427 429 433
212 10 431 427 429 434
213 10 432 427 429 433
214 10 432 427 429 434
215 10 572 569 571 575
216 10 572 569 571 576
217 10 573 569 571 575
218 10 573 569 571 576
219 10 574 569 571 575
220 10 574 569 571 576
221 10 12 9 11 14
222 10 12 9 11 15
223 10 13 9 11 14
224 10 13 9 11 15
225 10 19 16 18 21
226 10 19 16 18 22
227 10 20 16 18 21
228 10 20 16 18 22
229 10 26 23 25 28
230 10 26 23 25 29
231 10 27 23 25 28
232 10 27 23 25 29
233 10 33 30 32 35
234 10 33 30 32 36
235 10 34 30 32 35
236 10 34 30 32 36
237 10 40 37 39 42
238 10 40 37 39 43
239 10 41 37 39 42
240 10 41 37 39 43
241 10 47 44 46 49
242 10 47 44 46 50
243 10 48 44 46 49
244 10 48 44 46 50
245 10 54 51 53 56
246 10 54 51 53 57
247 10 55 51 53 56
248 10 55 51 53 57
249 10 61 58 60 63
250 10 61 58 60 64
251 10 62 58 60 63
252 10 62 58 60 64
253 10 68 65 67 70
254 10 68 65 67 71
255 10 69 65 67 70
256 10 69 65 67 71
257 10 75 72 74 77
258 10 75 72 74 78
259 10 76 72 74 77
260 10 76 72 74 78
261 10 82 79 81 84
262 10 82 79 81 85
263 10 83 79 81 84
264 10 83 79 81 85
265 10 89 86 88 91
266 10 89 86 88 92
267 10 90 86 88 91
268 10 90 86 88 92
269 10 96 93 95 98
270 10 96 93 95 99
271 10 97 93 95 98
272 10 97 93 95 99
273 10 103 100 102 105
274 10 103 100 102 106
275 10 104 100 102 105
276 10 104 100 102 106
277 10 110 107 109 112
278 10 110 107 109 113
279 10 111 107 109 112
280 10 111 107 109 113
281 10 117 114 116 119
282 10 117 114 116 120
283 10 118 114 116 119
284 10 118 114 116 120
285 10 124 121 123 126
286 10 124 121 123 127
287 10 125 121 123 126
288 10 125 121 123 127
289 10 131 128 130 133
290 10 131 128 130 134
291 10 132 128 130 133
292 10 132 128 130 134
293 10 154 151 153 156
294 10 154 151 153 157
295 10 155 151 153 156
296 10 155 151 153 157
297 10 161 158 160 163
298 10 161 158 160 164
299 10 162 158 160 163
300 10 162 158 160 164
301 10 168 165 167 170
302 10 168 165 167 171
303 10 169 165 167 170
304 10 169 165 167 171
305 10 175 172 174 177
306 10 175 172 174 178
307 10 176 172 174 177
308 10 176 172 174 178
309 10 182 179 181 184
310 10 182 179 181 185
311 10 183 179 181 184
312 10 183 179 181 185
313 10 189 186 188 191
314 10 189 186 188 192
315 10 190 186 188 191
316 10 190 186 188 192
317 10 196 193 195 198
318 10 196 193 195 199
319 10 197 193 195 198
320 10 197 193 195 199
321 10 203 200 202 205
322 10 203 200 202 206
323 10 204 200 202 205
324 10 204 200 202 206
325 10 210 207 209 212
326 10 210 207 209 213
327 10 211 207 209 212
328 10 211 207 209 213
329 10 217 214 216 219
330 10 217 214 216 220
331 10 218 214 216 219
332 10 218 214 216 220
333 10 224 221 223 226
334 10 224 221 223 227
335 10 225 221 223 226
336 10 225 221 223 227
337 10 231 228 230 233
338 10 231 228 230 234
339 10 232 228 230 233
340 10 232 228 230 234
341 10 238 235 237 240
342 10 238 235 237 241
343 10 239 235 237 240
344 10 239 235 237 241
345 10 245 242 244 247
346 10 245 242 244 248
347 10 246 242 244 247
348 10 246 242 244 248
349 10 252 249 251 254
350 10 252 249 251 255
351 10 253 249 251 254
352 10 253 249 251 255
353 10 259 256 258 261
354 10 259 256 258 262
355 10 260 256 258 261
356 10 260 256 258 262
357 10 266 263 265 268
358 10 266 263 265 269
359 10 267 263 265 268
360 10 267 263 265 269
361 10 273 270 272 275
362 10 273 270 272 276
363 10 274 270 272 275
364 10 274 270 272 276
365 10 296 293 295 298
366 10 296 293 295 299
367 10 297 293 295 298
368 10 297 293 295 299
369 10 303 300 302 305
370 10 303 300 302 306
371 10 304 300 302 305
372 10 304 300 302 306
373 10 310 307 309 312
374 10 310 307 309 313
375 10 311 307 309 312
376 10 311 307 309 313
377 10 317 314 316 319
378 10 317 314 316 320
379 10 318 314 316 319
380 10 318 314 316 320
381 10 324 321 323 326
382 10 324 321 323 327
383 10 325 321 323 326
384 10 325 321 323 327
385 10 331 328 330 333
386 10 331 328 330 334
387 10 332 328 330 333
388 10 332 328 330 334
389 10 338 335 337 340
390 10 338 335 337 341
391 10 339 335 337 340
392 10 339 335 337 341
393 10 345 342 344 347
394 10 345 342 344 348
395 10 346 342 344 347
396 10 346 342 344 348
397 10 352 349 351 354
398 10 352 349 351 355
399 10 353 349 351 354
400 10 353 349 351 355
401 10 359 356 358 361
402 10 359 356 358 362
403 10 360 356 358 361
404 10 360 356 358 362
405 10 366 363 365 368
406 10 366 363 365 369
407 10 367 363 365 368
408 10 367 363 365 369
409 10 373 370 372 375
410 10 373 370 372 376
411 10 374 370 372 375
412 10 374 370 372 376
413 10 380 377 379 382
414 10 380 377 379 383
415 10 381 377 379 382
416 10 381 377 379 383
417 10 387 384 386 389
418 10 387 384 386 390
419 10 388 384 386 389
420 10 388 384 386 390
421 10 394 391 393 396
422 10 394 391 393 397
423 10 395 391 393 396
424 10 395 391 393 397
425 10 401 398 400 403
426 10 401 398 400 404
427 10 402 398 400 403
428 10 402 398 400 404
429 10 408 405 407 410
430 10 408 405 407 411
431 10 409 405 407 410
432 10 409 405 407 411
433 10 415 412 414 417
434 10 415 412 414 418
435 10 416 412 414 417
436 10 416 412 414 418
437 10 438 435 437 440
438 10 438 435 437 441
439 10 439 435 437 440
440 10 439 435 437 441
441 10 445 442 444 447
442 10 445 442 444 448
443 10 446 442 444 447
444 10 446 442 444 448
445 10 452 449 451 454
446 10 452 449 451 455
447 10 453 449 451 454
448 10 453 449 451 455
449 10 459 456 458 461
450 10 459 456 458 462
451 10 460 456 458 461
452 10 460 456 458 462
453 10 466 463 465 468
454 10 466 463 465 469
455 10 467 463 465 468
456 10 467 463 465 469
457 10 473 470 472 475
458 10 473 470 472 476
459 10 474 470 472 475
460 10 474 470 472 476
461 10 480 477 479 482
462 10 480 477 479 483
463 10 481 477 479 482
464 10 481 477 479 483
465 10 487 484 486 489
466 10 487 484 486 490
467 10 488 484 486 489
468 10 488 484 486 490
469 10 494 491 493 496
470 10 494 491 493 497
471 10 495 491 493 496
472 10 495 491 493 497
473 10 501 498 500 503
474 10 501 498 500 504
475 10 502 498 500 503
476 10 502 498 500 504
477 10 508 505 507 510
478 10 508 505 507 511
479 10 509 505 507 510
480 10 509 505 507 511
481 10 515 512 514 517
482 10 515 512 514 518
483 10 516 512 514 517
484 10 516 512 514 518
485 10 522 519 521 524
486 10 522 519 521 525
487 10 523 519 521 524
488 10 523 519 521 525
489 10 529 526 528 531
490 10 529 526 528 532
491 10 530 526 528 531
492 10 530 526 528 532
493 10 536 533 535 538
494 10 536 533 535 539
495 10 537 533 535 538
496 10 537 533 535 539
497 10 543 540 542 545
498 10 543 540 542 546
499 10 544 540 542 545
500 10 544 540 542 546
501 10 550 547 549 552
502 10 550 547 549 553
503 10 551 547 549 552
504 10 551 547 549 553
505 10 557 554 556 559
506 10 557 554 556 560
507 10 558 554 556 559
508 10 558 554 556 560
509 10 580 577 579 582
510 10 580 577 579 583
511 10 581 577 579 582
512 10 581 577 579 583
513 10 587 584 586 589
514 10 587 584 586 590
515 10 588 584 586 589
516 10 588 584 586 590
517 10 594 591 593 596
518 10 594 591 593 597
519 10 595 591 593 596
520 10 595 591 593 597
521 10 601 598 600 603
522 10 601 598 600 604
523 10 602 598 600 603
524 10 602 598 600 604
525 10 608 605 607 610
526 10 608 605 607 611
527 10 609 605 607 610
528 10 609 605 607 611
529 10 615 612 614 617
530 10 615 612 614 618
531 10 616 612 614 617
532 10 616 612 614 618
533 10 622 619 621 624
534 10 622 619 621 625
535 10 623 619 621 624
536 10 623 619 621 625
537 10 629 626 628 631
538 10 629 626 628 632
539 10 630 626 628 631
540 10 630 626 628 632
541 10 636 633 635 638
542 10 636 633 635 639
543 10 637 633 635 638
544 10 637 633 635 639
545 10 643 640 642 645
546 10 643 640 642 646
547 10 644 640 642 645
548 10 644 640 642 646
549 10 650 647 649 652
550 10 650 647 649 653
551 10 651 647 649 652
552 10 651 647 649 653
553 10 657 654 656 659
554 10 657 654 656 660
555 10 658 654 656 659
556 10 658 654 656 660
557 10 664 661 663 666
558 10 664 661 663 667
559 10 665 661 663 666
560 10 665 661 663 667
561 10 671 668 670 673
562 10 671 668 670 674
563 10 672 668 670 673
564 10 672 668 670 674
565 10 678 675 677 680
566 10 678 675 677 681
567 10 679 675 677 680
568 10 679 675 677 681
569 10 685 682 684 687
570 10 685 682 684 688
571 10 686 682 684 687
572 10 686 682 684 688
573 10 692 689 691 694
574 10 692 689 691 695
575 10 693 689 691 694
576 10 693 689 691 695
577 10 699 696 698 701
578 10 699 696 698 702
579 10 700 696 698 701
580 10 700 696 698 702
581 10 138 135 136 140
582 10 138 135 136 141
583 10 139 135 136 140
584 10 139 135 136 141
585 10 280 277 278 282
586 10 280 277 278 283
587 10 281 277 278 282
588 10 281 277 278 283
589 10 422 419 420 424
590 10 422 419 420 425
591 10 423 419 420 424
592 10 423 419 420 425
593 10 564 561 562 566
594 10 564 561 562 567
595 10 565 561 562 566
596 10 565 561 562 567
597 10 706 703 704 708
598 10 706 703 704 709
599 10 707 703 704 708
600 10 707 703 704 709
601 11 137 136 135 138
602 11 137 136 135 139
603 11 279 278 277 280
604 11 279 278 277 281
605 11 421 420 419 422
606 11 421 420 419 423
607 11 563 562 561 564
608 11 563 562 561 565
609 11 705 704 703 706
610 11 705 704 703 707
611 12 2 3 1 4
612 12 2 3 1 5
613 12 2 3 1 6
614 12 144 145 143 146
615 12 144 145 143 147
616 12 144 145 143 148
617 12 286 287 285 288
618 12 286 287 285 289
619 12 286 287 285 290
620 12 428 429 427 430
621 12 428 429 427 431
622 12 428 429 427 432
623 12 570 571 569 572
624 12 570 571 569 573
625 12 570 571 569 574
626 12 10 11 9 12
627 12 10 11 9 13
628 12 2 9 11 14
629 12 2 9 11 15
630 12 17 18 16 19
631 12 17 18 16 20
632 12 10 16 18 21
633 12 10 16 18 22
634 12 24 25 23 26
635 12 24 25 23 27
636 12 17 23 25 28
637 12 17 23 25 29
638 12 31 32 30 33
639 12 31 32 30 34
640 12 24 30 32 35
641 12 24 30 32 36
642 12 38 39 37 40
643 12 38 39 37 41
644 12 31 37 39 42
645 12 31 37 39 43
646 12 45 46 44 47
647 12 45 46 44 48
648 12 38 44 46 49
649 12 38 44 46 50
650 12 52 53 51 54
651 12 52 53 51 55
652 12 45 51 53 56
653 12 45 51 53 57
654 12 59 60 58 61
655 12 59 60 58 62
656 12 52 58 60 63
657 12 52 58 60 64
658 12 66 67 65 68
659 12 66 67 65 69
660 12 59 65 67 70
661 12 59 65 67 71
662 12 73 74 72 75
663 12 73 74 72 76
664 12 66 72 74 77
665 12 66 72 74 78
666 12 80 81 79 82
667 12 80 81 79 83
668 12 73 79 81 84
669 12 73 79 81 85
670 12 87 88 86 89
671 12 87 88 86 90
672 12 80 86 88 91
673 12 80 86 88 92
674 12 94 95 93 96
675 12 94 95 93 97
676 12 87 93 95 98
677 12 87 93 95 99
678 12 101 102 100 103
679 12 101 102 100 104
680 12 94 100 102 105
681 12 94 100 102 106
682 12 108 109 107 110
683 12 108 109 107 111
684 12 101 107 109 112
685 12 101 107 109 113
686 12 115 116 114 117
687 12 115 116 114 118
688 12 108 114 116 119
689 12 108 114 116 120
690 12 122 123 121 124
691 12 122 123 121 125
692 12 115 121 123 126
693 12 115 121 123 127
694 12 129 130 128 131
695 12 129 130 128 132
696 12 122 128 130 133
697 12 122 128 130 134
698 12 152 153 151 154
699 12 152 153 151 155
700 12 144 151 153 156
701 12 144 151 153 157
702 12 159 160 158 161
703 12 159 160 158 162
704 12 152 158 160 163
705 12 152 158 160 164
706 12 166 167 165 168
707 12 166 167 165 169
708 12 159 165 167 170
709 12 159 165 167 171
710 12 173 174 172 175
711 12 173 174 172 176
712 12 166 172 174 177
713 12 166 172 174 178
714 12 180 181 179 182
715 12 180 181 179 183
716 12 173 179 181 184
717 12 173 179 181 185
718 12 187 188 186 189
719 12 187 188 186 190
720 12 180 186 188 191
721 12 180 186 188 192
722 12 194 195 193 196
723 12 194 195 193 197
724 12 187 193 195 198
725 12 187 193 195 199
726 12 201 202 200 203
727 12 201 202 200 204
728 12 194 200 202 205
729 12 194 200 202 206
730 12 208 209 207 210
731 12 208 209 207 211
732 12 201 207 209 212
733 12 201 207 209 213
734 12 215 216 214 217
735 12 215 216 214 218
736 12 208 214 216 219
737 12 208 214 216 220
738 12 222 223 221 224
739 12 222 223 221 225
740 12 215 221 223 226
741 12 215 221 223 227
742 12 229 230 228 231
743 12 229 230 228 232
744 12 222 228 230 233
745 12 222 228 230 234
746 12 236 237 235 238
747 12 236 237 235 239
748 12 229 235 237 240
749 12 229 235 237 241
750 12 243 244 242 245
751 12 243 244 242 246
752 12 236 242 244 247
753 12 236 242 244 248
754 12 250 251 249 252
755 12 250 251 249 253
756 12 243 249 251 254
757 12 243 249 251 255
758 12 257 258 256 259
759 12 257 258 256 260
760 12 250 256 258 261
761 12 250 256 258 262
762 12 264 265 263 266
763 12 264 265 263 267
764 12 257 263 265 268
765 12 257 263 265 269
766 12 271 272 270 273
767 12 271 272 270 274
768 12 264 270 272 275
769 12 264 270 272 276
770 12 294 295 293 296
771 12 294 295 293 297
772 12 286 293 295 298
773 12 286 293 295 299
774 12 301 302 300 303
775 12 301 302 300 304
776 12 294 300 302 305
777 12 294 300 302 306
778 12 308 309 307 310
779 12 308 309 307 311
780 12 301 307 309 312
781 12 301 307 309 313
782 12 315 316 314 317
783 12 315 316 314 318
784 12 308 314 316 319
785 12 308 314 316 320
786 12 322 323 321 324
787 12 322 323 321 325
788 12 315 321 323 326
789 12 315 321 323 327
790 12 329 330 328 331
791 12 329 330 328 332
792 12 322 328 330 333
793 12 322 328 330 334
794 12 336 337 335 338
795 12 336 337 335 339
796 12 329 335 337 340
797 12 329 335 337 341
798 12 343 344 342 345
799 12 343 344 342 346
800 12 336 342 344 347
801 12 336 342 344 348
802 12 350 351 349 352
803 12 350 351 349 353
804 12 343 349 351 354
805 12 343 349 351 355
806 12 357 358 356 359
807 12 357 358 356 360
808 12 350 356 358 361
809 12 350 356 358 362
810 12 364 365 363 366
811 12 364 365 363 367
812 12 357 363 365 368
813 12 357 363 365 369
814 12 371 372 370 373
815 12 371 372 370 374
816 12 364 370 372 375
817 12 364 370 372 376
818 12 378 379 377 380
819 12 378 379 377 381
820 12 371 377 379 382
821 12 371 377 379 383
822 12 385 386 384 387
823 12 385 386 384 388
824 12 378 384 386 389
825 12 378 384 386 390
826 12 392 393 391 394
827 12 392 393 391 395
828 12 385 391 393 396
829 12 385 391 393 397
830 12 399 400 398 401
831 12 399 400 398 402
832 12 392 398 400 403
833 12 392 398 400 404
834 12 406 407 405 408
835 12 406 407 405 409
836 12 399 405 407 410
837 12 399 405 407 411
838 12 413 414 412 415
839 12 413 414 412 416
840 12 406 412 414 417
841 12 406 412 414 418
842 12 436 437 435 438
843 12 436 437 435 439
844 12 428 435 437 440
845 12 428 435 437 441
846 12 443 444 442 445
847 12 443 444 442 446
848 12 436 442 444 447
849 12 436 442 444 448
850 12 450 451 449 452
851 12 450 451 449 453
852 12 443 449 451 454
853 12 443 449 451 455
854 12 457 458 456 459
855 12 457 458 456 460
856 12 450 456 458 461
857 12 450 456 458 462
858 12 464 465 463 466
859 12 464 465 463 467
860 12 457 463 465 468
861 12 457 463 465 469
862 12 471 472 470 473
863 12 471 472 470 474
864 12 464 470 472 475
865 12 464 470 472 476
866 12 478 479 477 480
867 12 478 479 477 481
868 12 471 477 479 482
869 12 471 477 479 483
870 12 485 486 484 487
871 12 485 486 484 488
872 12 478 484 486 489
873 12 478 484 486 490
874 12 492 493 491 494
875 12 492 493 491 495
876 12 485 491 493 496
877 12 485 491 493 497
878 12 499 500 498 501
879 12 499 500 498 502
880 12 492 498 500 503
881 12 492 498 500 504
882 12 506 507 505 508
883 12 506 507 505 509
884 12 499 505 507 510
885 12 499 505 507 511
886 12 513 514 512 515
887 12 513 514 512 516
888 12 506 512 514 517
889 12 506 512 514 518
890 12 520 521 519 522
891 12 520 521 519 523
892 12 513 519 521 524
893 12 513 519 521 525
894 12 527 528 526 529
895 12 527 528 526 530
896 12 520 526 528 531
897 12 520 526 528 532
898 12 534 535 533 536
899 12 534 535 533 537
900 12 527 533 535 538
901 12 527 533 535 539
902 12 541 542 540 543
903 12 541 542 540 544
904 12 534 540 542 545
905 12 534 540 542 546
906 12 548 549 547 550
907 12 548 549 547 551
908 12 541 547 549 552
909 12 541 547 549 553
910 12 555 556 554 557
911 12 555 556 554 558
912 12 548 554 556 559
913 12 548 554 556 560
914 12 578 579 577 580
915 12 578 579 577 581
916 12 570 577 579 582
917 12 570 577 579 583
918 12 585 586 584 587
919 12 585 586 584 588
920 12 578 584 586 589
921 12 578 584 586 590
922 12 592 593 591 594
923 12 592 593 591 595
924 12 585 591 593 596
925 12 585 591 593 597
926 12 599 600 598 601
927 12 599 600 598 602
928 12 592 598 600 603
929 12 592 598 600 604
930 12 606 607 605 608
931 12 606 607 605 609
932 12 599 605 607 610
933 12 599 605 607 611
934 12 613 614 612 615
935 12 613 614 612 616
936 12 606 612 614 617
937 12 606 612 614 618
938 12 620 621 619 622
939 12 620 621 619 623
940 12 613 619 621 624
941 12 613 619 621 625
942 12 627 628 626 629
943 12 627 628 626 630
944 12 620 626 628 631
945 12 620 626 628 632
946 12 634 635 633 636
947 12 634 635 633 637
948 12 627 633 635 638
949 12 627 633 635 639
950 12 641 642 640 643
951 12 641 642 640 644
952 12 634 640 642 645
953 12 634 640 642 646
954 12 648 649 647 650
955 12 648 649 647 651
956 12 641 647 649 652
957 12 641 647 649 653
958 12 655 656 654 657
959 12 655 656 654 658
960 12 648 654 656 659
961 12 648 654 656 660
962 12 662 663 661 664
963 12 662 663 661 665
964 12 655 661 663 666
965 12 655 661 663 667
966 12 669 670 668 671
967 12 669 670 668 672
968 12 662 668 670 673
969 12 662 668 670 674
970 12 676 677 675 678
971 12 676 677 675 679
972 12 669 675 677 680
973 12 669 675 677 681
974 12 683 684 682 685
975 12 683 684 682 686
976 12 676 682 684 687
977 12 676 682 684 688
978 12 690 691 689 692
979 12 690 691 689 693
980 12 683 689 691 694
981 12 683 689 691 695
982 12 697 698 696 699
983 12 697 698 696 700
984 12 690 696 698 701
985 12 690 696 698 702
986 12 129 135 136 140
987 12 129 135 136 141
988 12 271 277 278 282
989 12 271 277 278 283
990 12 413 419 420 424
991 12 413 419 420 425
992 12 555 561 562 566
993 12 555 561 562 567
994 12 697 703 704 708
995 12 697 703 704 709
996 15 140 136 137 142
997 15 141 136 137 142
998 15 282 278 279 284
999 15 283 278 279 284
1000 15 424 420 421 426
1001 15 425 420 421 426
1002 15 566 562 563 568
1003 15 567 562 563 568
1004 15 708 704 705 710
1005 15 709 704 705 710
1006 16 135 136 137 142
1007 16 277 278 279 284
1008 16 419 420 421 426
1009 16 561 562 563 568
1010 16 703 704 705 710
1011 20 129 135 136 137
1012 20 271 277 278 279
1013 20 413 419 420 421
1014 20 555 561 562 563
1015 20 697 703 704 705
1016 21 2 9 11 10
1017 21 10 16 18 17
1018 21 17 23 25 24
1019 21 24 30 32 31
1020 21 31 37 39 38
1021 21 38 44 46 45
1022 21 45 51 53 52
1023 21 52 58 60 59
1024 21 59 65 67 66
1025 21 66 72 74 73
1026 21 73 79 81 80
1027 21 80 86 88 87
1028 21 87 93 95 94
1029 21 94 100 102 101
1030 21 101 107 109 108
1031 21 108 114 116 115
1032 21 115 121 123 122
1033 21 122 128 130 129
1034 21 144 151 153 152
1035 21 152 158 160 159
1036 21 159 165 167 166
1037 21 166 172 174 173
1038 21 173 179 181 180
1039 21 180 186 188 187
1040 21 187 193 195 194
1041 21 194 200 202 201
1042 21 201 207 209 208
1043 21 208 214 216 215
1044 21 215 221 223 222
1045 21 222 228 230 229
1046 21 229 235 237 236
1047 21 236 242 244 243
1048 21 243 249 251 250
1049 21 250 256 258 257
1050 21 257 263 265 264
1051 21 264 270 272 271
1052 21 286 293 295 294
1053 21 294 300 302 301
1054 21 301 307 309 308
1055 21 308 314 316 315
1056 21 315 321 323 322
1057 21 322 328 330 329
1058 21 329 335 337 336
1059 21 336 342 344 343
1060 21 343 349 351 350
1061 21 350 356 358 357
1062 21 357 363 365 364
1063 21 364 370 372 371
1064 21 371 377 379 378
1065 21 378 384 386 385
1066 21 385 391 393 392
1067 21 392 398 400 399
1068 21 399 405 407 406
1069 21 406 412 414 413
1070 21 428 435 437 436
1071 21 436 442 444 443
1072 21 443 449 451 450
1073 21 450 456 458 457
1074 21 457 463 465 464
1075 21 464 470 472 471
1076 21 471 477 479 478
1077 21 478 484 486 485
1078 21 485 491 493 492
1079 21 492 498 500 499
1080 21 499 505 507 506
1081 21 506 512 514 513
1082 21 513 519 521 520
1083 21 520 526 528 527
1084 21 527 533 535 534
1085 21 534 540 542 541
1086 21 541 547 549 548
1087 21 548 554 556 555
1088 21 570 577 579 578
1089 21 578 584 586 585
1090 21 585 591 593 592
1091 21 592 598 600 599
1092 21 599 605 607 606
1093 21 606 612 614 613
1094 21 613 619 621 620
1095 21 620 626 628 627
1096 21 627 633 635 634
1097 21 634 640 642 641
1098 21 641 647 649 648
1099 21 648 654 656 655
1100 21 655 661 663 662
1101 21 662 668 670 669
1102 21 669 675 677 676
1103 21 676 682 684 683
1104 21 683 689 691 690
1105 21 690 696 698 697

