LAMMPS Bead-Spring Polymer Data File

1000 atoms
980 bonds

1 atom types
1 bond types

-7.5 7.5 xlo xhi
-7.5 7.5 ylo yhi
-7.5 7.5 zlo zhi

Masses

1 1.000  # A

Atoms  # molecular

1 1 1 -5.248 0.746 -1.613
2 1 1 -5.391 -0.214 -1.369
3 1 1 -5.776 -0.316 -0.452
4 1 1 -6.389 -0.744 0.212
5 1 1 -6.528 -1.377 0.973
6 1 1 -6.366 -1.683 1.912
7 1 1 -6.980 -2.112 2.575
8 1 1 -7.315 -2.254 1.644
9 1 1 -8.059 -1.744 1.212
10 1 1 -8.642 -2.499 1.512
11 1 1 -8.638 -2.969 0.629
12 1 1 -9.221 -3.724 0.928
13 1 1 -10.052 -4.275 0.851
14 1 1 -9.555 -4.254 1.718
15 1 1 -10.372 -4.152 2.287
16 1 1 -10.417 -3.928 3.260
17 1 1 -11.233 -3.826 3.828
18 1 1 -11.027 -4.663 4.335
19 1 1 -10.530 -4.642 5.203
20 1 1 -9.855 -5.357 5.388
21 1 1 -10.249 -6.030 4.762
22 1 1 -10.392 -6.989 5.006
23 1 1 -10.142 -6.438 5.802
24 1 1 -9.223 -6.826 5.726
25 1 1 -8.702 -7.091 4.915
26 1 1 -8.027 -7.806 5.100
27 1 1 -7.530 -7.785 5.968
28 1 1 -8.481 -7.479 6.007
29 1 1 -8.274 -8.316 6.514
30 1 1 -8.113 -8.622 7.453
31 1 1 -8.829 -7.989 7.748
32 1 1 -9.213 -8.091 8.666
33 1 1 -8.963 -7.540 9.462
34 1 1 -8.622 -6.948 8.732
35 1 1 -8.957 -7.091 7.801
36 1 1 -8.051 -7.152 7.382
37 1 1 -8.221 -6.397 8.015
38 1 1 -7.971 -5.846 8.811
39 1 1 -8.913 -6.071 9.060
40 1 1 -9.629 -5.438 9.355
41 1 1 -9.118 -4.642 9.030
42 1 1 -8.869 -4.091 9.826
43 1 1 -8.174 -3.418 10.080
44 1 1 -7.968 -4.254 10.587
45 1 1 -7.390 -4.765 11.224
46 1 1 -7.823 -5.642 11.019
47 1 1 -7.962 -6.275 11.781
48 1 1 -8.170 -5.316 11.972
49 1 1 -8.009 -5.622 12.910
50 1 1 -8.152 -6.581 13.154
51 2 1 0.866 1.397 0.223
52 2 1 -0.086 1.376 -0.081
53 2 1 -1.037 1.682 -0.042
54 2 1 -1.667 1.866 -0.796
55 2 1 -1.457 1.070 -1.364
56 2 1 -0.879 0.560 -0.727
57 2 1 -1.273 -0.114 -1.353
58 2 1 -0.894 -1.032 -1.469
59 2 1 -1.037 -1.991 -1.225
60 2 1 -0.119 -2.379 -1.301
61 2 1 -0.119 -3.379 -1.301
62 2 1 -0.119 -4.379 -1.301
63 2 1 0.459 -4.889 -0.664
64 2 1 1.329 -5.073 -0.207
65 2 1 1.329 -4.073 -0.207
66 2 1 1.284 -3.848 0.766
67 2 1 0.851 -4.726 0.561
68 2 1 0.418 -5.603 0.356
69 2 1 1.093 -6.318 0.541
70 2 1 1.471 -7.236 0.424
71 2 1 1.677 -8.073 0.931
72 2 1 0.735 -8.297 1.180
73 2 1 1.410 -9.012 1.365
74 2 1 1.660 -8.460 2.161
75 2 1 1.660 -7.460 2.161
76 2 1 2.157 -7.440 3.028
77 2 1 1.441 -6.807 3.324
78 2 1 1.475 -5.889 2.930
79 2 1 0.533 -6.114 3.178
80 2 1 0.390 -7.073 3.422
81 2 1 0.055 -7.216 2.491
82 2 1 -0.267 -6.501 1.870
83 2 1 -0.267 -5.501 1.870
84 2 1 -0.263 -5.971 0.987
85 2 1 -0.657 -6.644 0.361
86 2 1 -0.652 -7.114 -0.522
87 2 1 0.328 -6.971 -0.390
88 2 1 0.971 -7.563 -0.877
89 2 1 0.648 -6.848 -1.499
90 2 1 -0.068 -6.216 -1.203
91 2 1 0.274 -5.624 -1.933
92 2 1 -0.061 -5.767 -2.864
93 2 1 0.450 -4.971 -3.189
94 2 1 0.279 -4.216 -2.556
95 2 1 -0.043 -3.501 -3.177
96 2 1 -0.994 -3.195 -3.138
97 2 1 -1.329 -3.338 -4.069
98 2 1 -0.646 -3.073 -4.749
99 2 1 -0.396 -2.522 -3.953
100 2 1 0.510 -2.583 -4.372
101 3 1 -0.077 -2.771 1.188
102 3 1 0.607 -2.506 0.508
103 3 1 0.948 -1.914 -0.222
104 3 1 1.623 -2.628 -0.037
105 3 1 1.628 -3.098 -0.920
106 3 1 1.293 -3.241 -1.852
107 3 1 1.634 -2.649 -2.582
108 3 1 1.004 -2.465 -3.336
109 3 1 0.465 -1.628 -3.432
110 3 1 0.081 -1.730 -2.514
111 3 1 1.062 -1.587 -2.382
112 3 1 0.923 -2.220 -1.620
113 3 1 0.753 -1.465 -0.987
114 3 1 1.659 -1.526 -1.406
115 3 1 1.451 -0.567 -1.215
116 3 1 1.612 -0.873 -0.276
117 3 1 2.518 -0.934 -0.695
118 3 1 3.015 -0.914 0.172
119 3 1 3.593 -1.424 0.809
120 3 1 4.235 -2.016 0.322
121 3 1 4.732 -1.996 1.190
122 3 1 5.595 -1.526 1.000
123 3 1 6.092 -1.506 1.867
124 3 1 5.478 -1.934 2.531
125 3 1 5.856 -2.853 2.414
126 3 1 6.531 -3.567 2.599
127 3 1 6.693 -3.873 3.537
128 3 1 6.554 -4.506 4.299
129 3 1 6.554 -5.506 4.299
130 3 1 7.075 -5.771 3.488
131 3 1 6.753 -5.057 2.867
132 3 1 5.936 -4.955 3.435
133 3 1 5.543 -5.628 2.810
134 3 1 5.762 -5.567 1.836
135 3 1 5.762 -6.567 1.836
136 3 1 6.742 -6.424 1.968
137 3 1 7.084 -5.832 1.238
138 3 1 6.876 -4.873 1.429
139 3 1 5.924 -4.567 1.468
140 3 1 5.929 -5.036 0.585
141 3 1 5.185 -4.526 0.154
142 3 1 4.555 -4.343 -0.601
143 3 1 4.559 -4.812 -1.484
144 3 1 3.617 -5.036 -1.235
145 3 1 2.800 -4.934 -0.667
146 3 1 3.495 -4.261 -0.414
147 3 1 3.744 -3.710 0.383
148 3 1 4.462 -3.363 0.987
149 3 1 4.959 -3.343 1.854
150 3 1 4.142 -3.241 2.423
151 4 1 0.739 1.865 2.700
152 4 1 0.739 2.865 2.700
153 4 1 0.739 3.865 2.700
154 4 1 1.657 3.477 2.624
155 4 1 2.638 3.620 2.756
156 4 1 3.333 4.294 3.010
157 4 1 3.162 5.049 3.643
158 4 1 3.880 5.396 4.247
159 4 1 4.129 5.947 5.043
160 4 1 3.546 5.192 5.343
161 4 1 4.188 4.600 4.855
162 4 1 4.766 4.090 5.492
163 4 1 5.016 4.641 6.289
164 4 1 5.934 4.253 6.212
165 4 1 5.321 3.824 6.876
166 4 1 4.368 3.804 6.572
167 4 1 4.225 2.845 6.816
168 4 1 4.432 2.008 7.323
169 4 1 4.810 1.090 7.206
170 4 1 5.452 0.498 6.719
171 4 1 5.659 -0.339 7.226
172 4 1 5.516 -1.298 7.470
173 4 1 4.800 -0.665 7.766
174 4 1 5.297 -0.645 8.633
175 4 1 5.458 -0.951 9.571
176 4 1 5.458 0.049 9.571
177 4 1 5.969 0.845 9.247
178 4 1 6.490 0.579 8.436
179 4 1 6.987 0.600 9.303
180 4 1 7.198 -0.196 8.735
181 4 1 7.719 -0.461 7.924
182 4 1 6.888 -1.012 7.847
183 4 1 7.099 -1.808 7.280
184 4 1 7.133 -0.890 6.885
185 4 1 8.052 -1.278 6.809
186 4 1 7.934 -0.890 5.895
187 4 1 8.576 -1.482 5.408
188 4 1 9.270 -0.808 5.662
189 4 1 9.476 -1.645 6.169
190 4 1 9.431 -1.421 7.142
191 4 1 9.223 -0.461 7.333
192 4 1 8.479 0.049 6.902
193 4 1 9.173 0.722 7.156
194 4 1 8.851 1.437 6.534
195 4 1 7.908 1.212 6.783
196 4 1 8.127 1.273 5.809
197 4 1 8.162 2.192 5.415
198 4 1 8.504 2.784 4.685
199 4 1 7.984 3.212 5.424
200 4 1 7.814 3.967 6.057
201 5 1 -2.826 3.842 -1.132
202 5 1 -3.034 4.801 -0.941
203 5 1 -3.357 5.515 -1.562
204 5 1 -2.662 6.189 -1.308
205 5 1 -2.413 6.740 -0.512
206 5 1 -3.129 7.373 -0.216
207 5 1 -3.522 6.699 -0.842
208 5 1 -4.152 6.883 -1.597
209 5 1 -4.295 5.924 -1.353
210 5 1 -5.037 5.577 -1.927
211 5 1 -5.470 4.699 -2.132
212 5 1 -5.613 3.740 -1.888
213 5 1 -5.997 3.638 -0.971
214 5 1 -5.127 3.454 -0.513
215 5 1 -5.092 4.373 -0.908
216 5 1 -5.909 4.475 -0.339
217 5 1 -5.039 4.291 0.118
218 5 1 -5.177 3.658 0.880
219 5 1 -5.610 2.781 0.674
220 5 1 -5.089 2.515 -0.137
221 5 1 -4.395 3.189 0.117
222 5 1 -3.525 3.005 0.574
223 5 1 -3.520 2.536 -0.309
224 5 1 -4.103 1.781 -0.009
225 5 1 -4.242 1.148 0.753
226 5 1 -4.958 1.781 1.048
227 5 1 -4.264 2.454 1.302
228 5 1 -4.102 2.148 2.240
229 5 1 -3.196 2.087 1.821
230 5 1 -3.405 3.046 2.012
231 5 1 -3.244 2.740 2.951
232 5 1 -2.549 3.413 3.204
233 5 1 -2.388 3.107 4.142
234 5 1 -3.104 3.740 4.438
235 5 1 -3.920 3.842 5.006
236 5 1 -4.129 4.801 5.197
237 5 1 -3.445 5.066 4.517
238 5 1 -3.564 5.454 3.603
239 5 1 -3.899 5.311 2.671
240 5 1 -4.529 5.495 1.917
241 5 1 -4.237 6.373 2.297
242 5 1 -3.895 6.964 1.567
243 5 1 -3.891 6.495 0.684
244 5 1 -3.685 5.658 1.191
245 5 1 -2.766 5.270 1.115
246 5 1 -2.255 6.066 0.790
247 5 1 -2.590 5.924 -0.141
248 5 1 -3.532 5.699 0.107
249 5 1 -4.484 6.005 0.147
250 5 1 -4.877 5.332 -0.479
251 6 1 -4.774 2.614 4.398
252 6 1 -5.357 1.859 4.697
253 6 1 -6.308 2.165 4.736
254 6 1 -6.922 1.737 5.400
255 6 1 -7.873 2.043 5.439
256 6 1 -8.016 1.084 5.683
257 6 1 -7.341 0.369 5.868
258 6 1 -7.122 0.430 4.894
259 6 1 -6.611 1.226 4.569
260 6 1 -7.241 1.410 3.814
261 6 1 -7.985 1.920 3.383
262 6 1 -8.568 1.165 3.683
263 6 1 -9.284 1.798 3.978
264 6 1 -10.237 1.777 3.674
265 6 1 -10.850 1.349 4.337
266 6 1 -11.681 0.798 4.260
267 6 1 -11.800 1.186 3.346
268 6 1 -12.541 0.839 2.772
269 6 1 -12.935 0.165 2.146
270 6 1 -12.716 0.226 1.173
271 6 1 -13.667 0.533 1.212
272 6 1 -14.411 1.043 0.781
273 6 1 -13.549 1.512 0.591
274 6 1 -12.568 1.655 0.723
275 6 1 -12.057 2.451 0.398
276 6 1 -12.227 3.206 1.031
277 6 1 -12.611 3.104 1.949
278 6 1 -13.428 3.206 2.517
279 6 1 -14.259 2.655 2.440
280 6 1 -14.581 3.369 1.819
281 6 1 -14.547 4.288 1.425
282 6 1 -14.036 5.084 1.100
283 6 1 -14.154 5.471 0.186
284 6 1 -14.489 5.328 -0.746
285 6 1 -15.029 6.165 -0.841
286 6 1 -15.568 7.002 -0.936
287 6 1 -14.662 6.941 -1.355
288 6 1 -13.681 7.084 -1.223
289 6 1 -13.431 7.635 -0.427
290 6 1 -13.396 8.553 -0.821
291 6 1 -13.567 9.308 -0.188
292 6 1 -12.586 9.451 -0.056
293 6 1 -11.716 9.267 0.401
294 6 1 -11.219 9.288 1.269
295 6 1 -10.927 10.165 1.649
296 6 1 -10.927 11.165 1.649
297 6 1 -10.585 11.757 0.919
298 6 1 -9.902 12.022 0.239
299 6 1 -9.207 12.696 0.493
300 6 1 -8.301 12.635 0.074
301 7 1 2.437 -1.719 -4.432
302 7 1 2.437 -0.719 -4.432
303 7 1 2.687 -0.168 -3.636
304 7 1 1.734 -0.189 -3.940
305 7 1 0.792 -0.413 -3.692
306 7 1 1.011 -0.352 -4.665
307 7 1 0.803 0.607 -4.474
308 7 1 -0.149 0.913 -4.435
309 7 1 0.070 0.975 -5.409
310 7 1 -0.671 0.628 -5.983
311 7 1 0.235 0.567 -6.402
312 7 1 -0.159 -0.107 -7.027
313 7 1 0.048 -0.944 -6.520
314 7 1 -0.091 -1.576 -5.758
315 7 1 -0.229 -2.209 -4.996
316 7 1 -0.225 -2.678 -5.879
317 7 1 -0.548 -1.964 -6.500
318 7 1 -0.026 -2.229 -7.311
319 7 1 -0.026 -3.229 -7.311
320 7 1 -0.169 -4.189 -7.067
321 7 1 0.812 -4.046 -6.935
322 7 1 0.292 -3.617 -6.196
323 7 1 0.453 -3.923 -5.258
324 7 1 1.170 -3.576 -4.654
325 7 1 1.170 -4.576 -4.654
326 7 1 1.381 -5.372 -5.221
327 7 1 0.637 -4.862 -5.653
328 7 1 0.053 -5.617 -5.353
329 7 1 -0.065 -5.229 -6.267
330 7 1 0.313 -6.148 -6.384
331 7 1 0.313 -7.148 -6.384
332 7 1 -0.317 -6.964 -7.139
333 7 1 -0.639 -6.250 -7.760
334 7 1 -0.118 -6.515 -8.571
335 7 1 0.260 -7.433 -8.687
336 7 1 -0.323 -8.189 -8.388
337 7 1 0.394 -7.842 -7.784
338 7 1 1.036 -8.433 -8.271
339 7 1 1.942 -8.495 -8.690
340 7 1 1.799 -9.454 -8.446
341 7 1 1.961 -9.760 -7.507
342 7 1 1.347 -10.189 -6.844
343 7 1 1.925 -10.699 -6.207
344 7 1 2.831 -10.760 -6.626
345 7 1 2.831 -9.760 -6.626
346 7 1 2.831 -8.760 -6.626
347 7 1 3.548 -8.413 -6.021
348 7 1 4.243 -7.740 -5.768
349 7 1 4.034 -6.780 -5.577
350 7 1 4.718 -6.515 -6.257
351 8 1 -3.992 -3.032 1.234
352 8 1 -4.425 -3.910 1.029
353 8 1 -5.039 -4.338 1.692
354 8 1 -4.542 -4.318 2.559
355 8 1 -5.358 -4.216 3.128
356 8 1 -6.311 -4.236 2.824
357 8 1 -6.519 -3.277 3.015
358 8 1 -5.657 -2.808 2.825
359 8 1 -6.177 -2.379 3.564
360 8 1 -6.993 -2.277 4.132
361 8 1 -7.532 -1.440 4.037
362 8 1 -6.552 -1.298 4.169
363 8 1 -6.041 -0.502 3.844
364 8 1 -6.211 0.253 4.477
365 8 1 -6.841 0.437 3.723
366 8 1 -6.984 -0.522 3.967
367 8 1 -7.319 -0.665 3.035
368 8 1 -8.271 -0.685 2.731
369 8 1 -8.854 -1.440 3.031
370 8 1 -8.648 -2.277 3.538
371 8 1 -9.465 -2.175 4.106
372 8 1 -9.303 -2.481 5.044
373 8 1 -8.586 -2.134 5.649
374 8 1 -9.169 -2.889 5.948
375 8 1 -8.920 -2.338 6.744
376 8 1 -8.423 -2.318 7.612
377 8 1 -7.739 -2.053 6.932
378 8 1 -7.520 -1.991 5.958
379 8 1 -7.639 -1.604 5.044
380 8 1 -6.720 -1.991 4.968
381 8 1 -6.859 -2.624 5.729
382 8 1 -6.281 -3.134 6.366
383 8 1 -5.784 -3.114 7.234
384 8 1 -6.303 -2.685 7.973
385 8 1 -7.047 -2.175 7.542
386 8 1 -7.218 -1.420 8.175
387 8 1 -7.011 -2.257 8.682
388 8 1 -7.594 -3.012 8.982
389 8 1 -6.877 -2.665 9.586
390 8 1 -7.397 -2.236 10.325
391 8 1 -8.349 -2.257 10.021
392 8 1 -9.091 -2.604 9.447
393 8 1 -9.261 -1.849 10.080
394 8 1 -9.100 -2.155 11.018
395 8 1 -10.042 -2.379 11.267
396 8 1 -9.881 -2.685 12.205
397 8 1 -10.833 -2.706 11.901
398 8 1 -10.972 -3.338 12.663
399 8 1 -11.803 -3.889 12.586
400 8 1 -11.942 -4.522 13.348
401 9 1 5.054 -2.886 -5.102
402 9 1 4.102 -2.907 -5.406
403 9 1 3.360 -3.254 -5.980
404 9 1 2.927 -4.131 -6.185
405 9 1 2.809 -3.743 -7.099
406 9 1 2.486 -3.029 -7.721
407 9 1 1.770 -2.396 -7.425
408 9 1 1.627 -3.356 -7.181
409 9 1 1.108 -2.927 -6.442
410 9 1 1.685 -3.437 -5.805
411 9 1 1.515 -2.682 -5.172
412 9 1 0.771 -2.172 -5.603
413 9 1 1.466 -1.498 -5.350
414 9 1 1.685 -1.437 -6.323
415 9 1 2.591 -1.498 -6.742
416 9 1 3.274 -1.233 -7.422
417 9 1 4.136 -0.764 -7.612
418 9 1 4.298 -1.070 -6.673
419 9 1 5.279 -0.927 -6.541
420 9 1 4.759 -0.498 -5.802
421 9 1 4.550 0.461 -5.611
422 9 1 4.712 0.155 -4.673
423 9 1 5.003 1.032 -4.293
424 9 1 4.051 1.012 -4.596
425 9 1 3.307 1.522 -5.028
426 9 1 3.262 1.746 -4.054
427 9 1 2.320 1.522 -3.806
428 9 1 1.690 1.706 -4.561
429 9 1 1.694 1.236 -5.444
430 9 1 1.359 1.093 -6.375
431 9 1 0.643 1.726 -6.079
432 9 1 0.893 2.277 -5.283
433 9 1 0.723 3.032 -4.650
434 9 1 0.929 2.195 -4.143
435 9 1 0.410 2.624 -3.404
436 9 1 1.280 2.440 -2.946
437 9 1 1.441 2.134 -2.008
438 9 1 1.047 1.461 -2.634
439 9 1 0.434 1.032 -1.971
440 9 1 -0.397 0.481 -2.048
441 9 1 -0.732 0.338 -2.979
442 9 1 -1.683 0.644 -2.940
443 9 1 -1.473 -0.151 -3.507
444 9 1 -2.415 -0.376 -3.259
445 9 1 -3.232 -0.274 -2.691
446 9 1 -3.567 -0.417 -3.622
447 9 1 -4.283 0.216 -3.326
448 9 1 -4.998 0.849 -3.031
449 9 1 -4.998 1.849 -3.031
450 9 1 -5.117 2.236 -3.945
451 10 1 5.034 0.383 0.061
452 10 1 5.034 -0.617 0.061
453 10 1 5.253 -0.556 -0.912
454 10 1 4.714 0.281 -1.008
455 10 1 3.763 0.587 -0.968
456 10 1 3.018 1.097 -1.400
457 10 1 3.229 0.301 -1.967
458 10 1 3.571 0.893 -2.697
459 10 1 4.551 1.036 -2.565
460 10 1 4.433 1.423 -3.479
461 10 1 4.725 2.301 -3.099
462 10 1 4.759 3.219 -3.493
463 10 1 5.740 3.362 -3.361
464 10 1 5.740 4.362 -3.361
465 10 1 6.646 4.301 -3.780
466 10 1 7.516 4.117 -3.322
467 10 1 8.497 4.260 -3.191
468 10 1 9.416 3.872 -3.267
469 10 1 10.397 4.015 -3.135
470 10 1 11.303 3.954 -3.553
471 10 1 12.020 4.301 -2.949
472 10 1 12.939 3.913 -3.025
473 10 1 13.581 3.321 -3.512
474 10 1 14.562 3.464 -3.380
475 10 1 14.443 3.852 -4.294
476 10 1 13.491 3.832 -4.598
477 10 1 12.548 3.607 -4.350
478 10 1 12.410 2.974 -3.588
479 10 1 11.890 3.403 -2.849
480 10 1 12.097 2.566 -2.342
481 10 1 11.762 2.423 -3.273
482 10 1 11.148 1.995 -2.610
483 10 1 10.332 2.097 -2.042
484 10 1 10.581 2.648 -1.245
485 10 1 11.276 3.321 -0.992
486 10 1 10.459 3.423 -0.424
487 10 1 10.666 2.587 0.084
488 10 1 11.044 1.668 -0.033
489 10 1 11.686 1.077 -0.520
490 10 1 12.604 0.689 -0.596
491 10 1 12.171 -0.189 -0.802
492 10 1 11.558 -0.617 -0.139
493 10 1 11.807 -0.066 0.658
494 10 1 12.502 0.607 0.911
495 10 1 12.536 1.525 0.517
496 10 1 13.517 1.668 0.649
497 10 1 14.014 1.689 1.517
498 10 1 14.698 1.954 0.836
499 10 1 14.947 2.505 1.633
500 10 1 14.334 2.077 2.296
501 11 1 2.570 5.137 -1.655
502 11 1 2.570 4.137 -1.655
503 11 1 3.254 4.402 -2.335
504 11 1 3.971 4.749 -1.731
505 11 1 4.889 4.361 -1.807
506 11 1 5.752 4.830 -1.997
507 11 1 6.001 5.381 -1.200
508 11 1 5.831 6.137 -0.567
509 11 1 5.248 5.381 -0.268
510 11 1 4.306 5.157 -0.020
511 11 1 4.167 4.524 0.742
512 11 1 3.997 5.279 1.375
513 11 1 3.827 6.035 2.009
514 11 1 3.504 6.749 1.388
515 11 1 3.754 7.300 2.184
516 11 1 4.265 8.096 1.859
517 11 1 4.948 8.361 1.179
518 11 1 5.459 9.157 0.854
519 11 1 5.493 10.075 0.460
520 11 1 6.015 9.810 -0.351
521 11 1 6.357 10.402 -1.081
522 11 1 6.238 10.790 -1.996
523 11 1 6.932 11.463 -1.742
524 11 1 7.311 10.545 -1.859
525 11 1 6.877 9.667 -2.064
526 11 1 7.796 9.279 -2.140
527 11 1 7.402 8.606 -2.766
528 11 1 7.564 8.300 -1.827
529 11 1 7.130 7.422 -2.033
530 11 1 7.772 6.830 -2.520
531 11 1 6.941 6.279 -2.597
532 11 1 6.422 6.708 -1.858
533 11 1 5.706 7.341 -1.563
534 11 1 6.423 7.688 -0.958
535 11 1 6.215 8.647 -0.767
536 11 1 6.712 8.667 0.100
537 11 1 7.289 8.157 0.737
538 11 1 7.119 8.912 1.371
539 11 1 7.803 9.177 0.690
540 11 1 8.181 8.259 0.574
541 11 1 8.181 7.259 0.574
542 11 1 7.567 6.830 1.237
543 11 1 8.145 6.320 1.874
544 11 1 9.064 5.932 1.798
545 11 1 8.670 5.259 1.172
546 11 1 7.728 5.035 1.421
547 11 1 8.225 5.055 2.288
548 11 1 9.095 4.871 2.745
549 11 1 9.789 5.545 2.999
550 11 1 9.619 6.300 3.632
551 12 1 3.877 -4.878 1.681
552 12 1 4.038 -5.184 2.619
553 12 1 3.096 -5.409 2.868
554 12 1 2.355 -5.756 2.293
555 12 1 2.876 -6.021 1.482
556 12 1 2.911 -5.103 1.088
557 12 1 3.553 -5.695 0.601
558 12 1 3.557 -6.164 -0.282
559 12 1 2.816 -6.511 -0.856
560 12 1 2.232 -7.266 -0.557
561 12 1 2.874 -7.858 -1.044
562 12 1 3.093 -7.797 -2.018
563 12 1 4.012 -8.184 -2.094
564 12 1 4.016 -8.654 -2.977
565 12 1 3.694 -7.939 -3.598
566 12 1 3.728 -7.021 -3.993
567 12 1 4.239 -6.225 -4.317
568 12 1 4.914 -6.939 -4.132
569 12 1 5.206 -6.062 -3.752
570 12 1 4.389 -5.960 -3.184
571 12 1 4.639 -5.409 -2.388
572 12 1 3.697 -5.633 -2.139
573 12 1 3.558 -6.266 -1.377
574 12 1 4.539 -6.123 -1.245
575 12 1 5.233 -5.450 -0.992
576 12 1 5.395 -5.756 -0.053
577 12 1 4.875 -5.327 0.686
578 12 1 4.732 -6.286 0.930
579 12 1 4.118 -6.715 1.593
580 12 1 4.329 -7.511 1.025
581 12 1 3.376 -7.531 0.721
582 12 1 4.060 -7.266 0.041
583 12 1 4.571 -6.470 -0.284
584 12 1 4.362 -5.511 -0.093
585 12 1 4.192 -4.756 0.540
586 12 1 4.909 -4.409 1.145
587 12 1 5.070 -4.715 2.083
588 12 1 5.787 -4.368 2.688
589 12 1 5.617 -3.613 3.321
590 12 1 5.078 -2.776 3.225
591 12 1 4.495 -3.531 3.525
592 12 1 4.745 -2.980 4.321
593 12 1 5.036 -2.103 4.701
594 12 1 4.085 -1.797 4.741
595 12 1 3.750 -1.939 3.809
596 12 1 3.750 -2.939 3.809
597 12 1 3.366 -3.042 4.727
598 12 1 3.616 -2.490 5.523
599 12 1 3.232 -2.593 6.441
600 12 1 3.523 -1.715 6.821
601 13 1 -2.905 -1.903 1.715
602 13 1 -3.535 -1.719 0.961
603 13 1 -3.743 -0.760 1.152
604 13 1 -3.026 -0.413 1.756
605 13 1 -3.071 -0.188 2.730
606 13 1 -3.902 -0.739 2.653
607 13 1 -4.844 -0.964 2.901
608 13 1 -5.474 -0.780 2.146
609 13 1 -5.439 0.138 1.752
610 13 1 -6.392 0.118 1.448
611 13 1 -5.750 -0.474 0.961
612 13 1 -5.715 0.444 0.567
613 13 1 -4.797 0.057 0.491
614 13 1 -4.578 0.118 -0.483
615 13 1 -4.578 1.118 -0.483
616 13 1 -4.900 1.832 -1.104
617 13 1 -4.681 1.893 -2.078
618 13 1 -5.634 1.873 -2.382
619 13 1 -5.956 2.587 -3.003
620 13 1 -6.698 2.240 -3.577
621 13 1 -6.487 1.444 -4.145
622 13 1 -5.617 1.261 -3.688
623 13 1 -4.975 0.669 -4.175
624 13 1 -4.940 1.587 -4.569
625 13 1 -4.034 1.526 -4.988
626 13 1 -3.116 1.138 -5.064
627 13 1 -3.116 0.138 -5.064
628 13 1 -3.161 0.363 -4.091
629 13 1 -2.783 -0.556 -4.207
630 13 1 -2.926 -1.515 -3.963
631 13 1 -3.359 -2.392 -4.168
632 13 1 -3.681 -1.678 -4.790
633 13 1 -3.800 -1.290 -5.704
634 13 1 -4.383 -2.045 -5.404
635 13 1 -4.177 -2.882 -4.897
636 13 1 -3.535 -3.474 -5.384
637 13 1 -3.156 -4.392 -5.501
638 13 1 -2.815 -3.801 -6.231
639 13 1 -3.208 -4.474 -6.857
640 13 1 -3.327 -4.086 -7.771
641 13 1 -3.323 -4.556 -8.654
642 13 1 -3.466 -5.515 -8.410
643 13 1 -2.944 -5.780 -9.221
644 13 1 -3.686 -6.127 -9.795
645 13 1 -4.070 -6.229 -8.878
646 13 1 -4.463 -6.903 -9.503
647 13 1 -4.244 -6.841 -10.477
648 13 1 -4.986 -7.188 -11.051
649 13 1 -5.802 -7.086 -10.483
650 13 1 -5.768 -6.168 -10.877
651 14 1 2.865 0.993 2.858
652 14 1 1.912 0.973 2.554
653 14 1 0.960 0.952 2.250
654 14 1 1.481 0.687 1.439
655 14 1 2.344 1.156 1.250
656 14 1 2.378 2.075 0.856
657 14 1 2.597 2.136 -0.118
658 14 1 3.314 2.483 0.486
659 14 1 4.009 3.156 0.740
660 14 1 4.387 2.238 0.623
661 14 1 5.081 2.912 0.877
662 14 1 4.759 3.626 0.256
663 14 1 5.280 3.360 -0.555
664 14 1 4.847 2.483 -0.761
665 14 1 4.103 2.993 -1.192
666 14 1 3.719 2.891 -0.274
667 14 1 3.719 3.891 -0.274
668 14 1 4.581 4.360 -0.464
669 14 1 5.562 4.503 -0.332
670 14 1 5.769 3.667 0.175
671 14 1 6.687 3.279 0.099
672 14 1 6.937 3.830 0.896
673 14 1 6.354 3.075 1.195
674 14 1 6.851 3.095 2.062
675 14 1 6.237 2.667 2.726
676 14 1 5.654 1.912 3.025
677 14 1 5.658 1.442 2.142
678 14 1 6.036 0.524 2.025
679 14 1 5.453 -0.231 2.325
680 14 1 4.823 -0.048 1.570
681 14 1 3.871 -0.068 1.266
682 14 1 3.871 0.932 1.266
683 14 1 4.120 1.483 2.062
684 14 1 3.376 1.993 1.631
685 14 1 3.626 2.544 2.427
686 14 1 2.684 2.320 2.676
687 14 1 1.731 2.299 2.372
688 14 1 1.736 1.830 1.489
689 14 1 1.413 2.544 0.868
690 14 1 0.461 2.524 0.564
691 14 1 0.667 1.687 1.071
692 14 1 0.147 2.116 1.810
693 14 1 0.182 3.034 1.416
694 14 1 1.044 3.503 1.226
695 14 1 1.950 3.442 0.808
696 14 1 2.112 3.136 1.746
697 14 1 2.974 3.605 1.556
698 14 1 2.652 4.320 0.935
699 14 1 2.481 5.075 1.568
700 14 1 2.978 5.095 2.436
701 15 1 -0.271 -0.540 -2.803
702 15 1 -1.213 -0.764 -2.555
703 15 1 -1.647 -1.642 -2.760
704 15 1 -2.478 -2.193 -2.837
705 15 1 -1.836 -2.785 -3.324
706 15 1 -2.419 -3.540 -3.025
707 15 1 -3.160 -3.887 -3.599
708 15 1 -2.950 -4.683 -4.167
709 15 1 -2.088 -4.213 -4.356
710 15 1 -2.410 -3.499 -4.977
711 15 1 -2.160 -2.948 -4.181
712 15 1 -1.477 -2.683 -4.861
713 15 1 -1.258 -2.621 -5.835
714 15 1 -0.880 -3.540 -5.952
715 15 1 -1.215 -3.683 -6.883
716 15 1 -0.996 -3.621 -7.857
717 15 1 -1.318 -2.907 -8.478
718 15 1 -2.269 -2.601 -8.439
719 15 1 -2.809 -1.764 -8.534
720 15 1 -3.242 -2.642 -8.739
721 15 1 -2.864 -3.560 -8.856
722 15 1 -2.180 -3.295 -9.536
723 15 1 -2.503 -2.581 -10.157
724 15 1 -1.981 -2.846 -10.968
725 15 1 -1.471 -2.050 -11.293
726 15 1 -0.829 -2.642 -11.780
727 15 1 0.090 -3.030 -11.856
728 15 1 0.960 -3.213 -11.399
729 15 1 0.441 -2.785 -10.660
730 15 1 -0.390 -3.336 -10.737
731 15 1 0.107 -3.315 -9.870
732 15 1 0.062 -3.091 -8.896
733 15 1 0.062 -4.091 -8.896
734 15 1 -0.372 -4.968 -9.101
735 15 1 -1.116 -4.458 -9.533
736 15 1 -0.594 -4.723 -10.344
737 15 1 0.387 -4.581 -10.212
738 15 1 1.029 -5.172 -10.699
739 15 1 0.415 -5.601 -10.036
740 15 1 0.576 -5.907 -9.098
741 15 1 1.294 -5.560 -8.493
742 15 1 1.635 -4.968 -9.223
743 15 1 1.670 -4.050 -9.617
744 15 1 1.625 -3.825 -8.644
745 15 1 1.302 -3.111 -9.265
746 15 1 1.302 -2.111 -9.265
747 15 1 1.813 -1.315 -9.590
748 15 1 2.105 -0.438 -9.209
749 15 1 2.626 -0.703 -10.020
750 15 1 2.508 -0.315 -10.935
751 16 1 -2.629 3.698 2.195
752 16 1 -1.648 3.841 2.327
753 16 1 -0.953 4.514 2.580
754 16 1 -0.456 4.535 3.448
755 16 1 -1.040 3.780 3.747
756 16 1 -0.397 3.188 3.260
757 16 1 -0.236 2.882 4.198
758 16 1 -0.819 2.127 4.497
759 16 1 -0.145 1.412 4.682
760 16 1 -1.087 1.188 4.931
761 16 1 -1.481 0.514 4.305
762 16 1 -2.196 1.147 4.600
763 16 1 -3.148 1.453 4.640
764 16 1 -2.986 1.147 5.578
765 16 1 -2.292 1.821 5.832
766 16 1 -2.831 2.657 5.736
767 16 1 -2.334 2.678 6.604
768 16 1 -2.042 3.555 6.984
769 16 1 -1.061 3.698 7.116
770 16 1 -0.812 4.249 7.912
771 16 1 0.169 4.392 8.044
772 16 1 0.864 5.065 8.298
773 16 1 0.047 5.168 8.866
774 16 1 -0.784 4.617 8.789
775 16 1 -0.577 3.780 9.296
776 16 1 -0.286 4.657 9.677
777 16 1 -1.002 5.290 9.972
778 16 1 -0.284 5.637 10.577
779 16 1 0.634 5.249 10.501
780 16 1 1.497 5.719 10.311
781 16 1 2.172 5.004 10.496
782 16 1 1.837 4.861 9.565
783 16 1 2.479 4.270 9.077
784 16 1 2.336 3.310 9.321
785 16 1 1.706 3.494 8.567
786 16 1 1.925 3.555 7.593
787 16 1 1.295 3.739 6.838
788 16 1 1.299 3.270 5.955
789 16 1 2.170 3.086 6.413
790 16 1 2.331 2.780 7.351
791 16 1 3.048 3.127 7.955
792 16 1 3.258 2.331 7.388
793 16 1 2.675 1.576 7.687
794 16 1 3.197 1.310 6.876
795 16 1 4.103 1.249 6.457
796 16 1 4.745 0.657 5.970
797 16 1 4.745 -0.343 5.970
798 16 1 4.115 -0.159 5.215
799 16 1 3.173 -0.383 5.464
800 16 1 3.551 -1.302 5.347
801 17 1 -1.085 1.120 -3.626
802 17 1 -0.574 1.915 -3.951
803 17 1 -0.897 2.630 -4.572
804 17 1 -1.613 3.262 -4.277
805 17 1 -1.271 3.854 -5.007
806 17 1 -0.554 4.201 -4.402
807 17 1 -0.393 3.895 -3.464
808 17 1 -0.932 4.732 -3.559
809 17 1 -0.435 4.752 -2.692
810 17 1 0.062 4.773 -1.824
811 17 1 -0.077 4.140 -1.063
812 17 1 -0.690 3.711 -0.399
813 17 1 -0.690 4.711 -0.399
814 17 1 -1.632 4.487 -0.151
815 17 1 -2.066 3.609 -0.356
816 17 1 -2.450 3.507 0.561
817 17 1 -3.194 4.018 0.130
818 17 1 -3.713 4.446 0.869
819 17 1 -4.098 4.344 1.787
820 17 1 -4.842 4.854 1.356
821 17 1 -5.164 5.569 0.735
822 17 1 -6.117 5.548 0.431
823 17 1 -6.636 5.977 1.170
824 17 1 -5.766 5.793 1.627
825 17 1 -5.766 6.793 1.627
826 17 1 -5.255 7.589 1.302
827 17 1 -4.572 7.854 0.622
828 17 1 -3.653 7.466 0.546
829 17 1 -2.672 7.609 0.678
830 17 1 -1.810 8.079 0.488
831 17 1 -1.855 8.303 1.462
832 17 1 -2.239 8.201 2.380
833 17 1 -2.822 7.446 2.679
834 17 1 -2.661 7.140 3.617
835 17 1 -3.055 6.466 2.991
836 17 1 -2.149 6.405 2.573
837 17 1 -2.267 6.793 1.659
838 17 1 -1.286 6.936 1.791
839 17 1 -1.080 6.099 2.298
840 17 1 -0.788 6.977 2.678
841 17 1 -0.277 7.773 2.353
842 17 1 -0.907 7.956 1.599
843 17 1 -0.697 7.160 1.031
844 17 1 -1.090 6.487 0.405
845 17 1 -0.880 5.691 -0.162
846 17 1 -1.215 5.548 -1.094
847 17 1 -1.180 6.466 -1.488
848 17 1 -0.970 5.671 -2.055
849 17 1 -1.292 6.385 -2.676
850 17 1 -1.288 5.915 -3.559
851 18 1 -2.943 0.939 -1.700
852 18 1 -2.446 0.959 -0.832
853 18 1 -2.491 1.184 0.141
854 18 1 -2.813 1.898 -0.480
855 18 1 -2.302 2.694 -0.805
856 18 1 -2.083 2.755 -1.779
857 18 1 -3.026 2.530 -1.530
858 18 1 -3.767 2.184 -2.104
859 18 1 -3.763 1.714 -2.987
860 18 1 -3.556 0.877 -2.480
861 18 1 -2.650 0.816 -2.899
862 18 1 -2.616 1.735 -3.293
863 18 1 -1.974 1.143 -3.780
864 18 1 -1.632 1.735 -4.510
865 18 1 -1.967 1.592 -5.442
866 18 1 -1.748 1.653 -6.416
867 18 1 -2.378 1.837 -7.170
868 18 1 -2.811 0.959 -7.376
869 18 1 -1.941 0.775 -6.918
870 18 1 -1.266 0.061 -6.733
871 18 1 -2.007 -0.286 -7.308
872 18 1 -1.324 -0.021 -7.988
873 18 1 -1.659 -0.163 -8.919
874 18 1 -2.375 0.469 -8.624
875 18 1 -3.326 0.775 -8.584
876 18 1 -4.067 0.428 -9.158
877 18 1 -5.010 0.204 -8.910
878 18 1 -5.180 0.959 -8.277
879 18 1 -4.602 0.449 -7.640
880 18 1 -4.310 1.326 -7.259
881 18 1 -4.519 2.286 -7.068
882 18 1 -4.022 2.306 -6.201
883 18 1 -3.500 2.041 -7.012
884 18 1 -3.835 1.898 -7.943
885 18 1 -2.929 1.837 -8.362
886 18 1 -1.948 1.979 -8.230
887 18 1 -1.437 2.775 -8.555
888 18 1 -1.188 3.326 -7.759
889 18 1 -0.282 3.265 -8.177
890 18 1 0.436 3.612 -7.573
891 18 1 0.470 4.530 -7.967
892 18 1 -0.346 4.633 -7.399
893 18 1 0.348 5.306 -7.145
894 18 1 0.229 5.694 -8.059
895 18 1 -0.164 5.020 -8.685
896 18 1 -0.794 5.204 -9.440
897 18 1 -0.937 4.245 -9.196
898 18 1 -1.321 4.143 -8.278
899 18 1 -2.065 4.653 -8.709
900 18 1 -2.208 3.694 -8.465
901 19 1 4.799 -3.237 -4.132
902 19 1 5.705 -3.298 -4.551
903 19 1 5.915 -4.094 -5.119
904 19 1 5.797 -3.706 -6.033
905 19 1 6.715 -4.094 -6.109
906 19 1 7.057 -3.502 -6.839
907 19 1 6.722 -3.645 -7.770
908 19 1 7.244 -3.910 -8.581
909 19 1 6.413 -4.461 -8.658
910 19 1 5.669 -3.951 -9.090
911 19 1 5.275 -4.624 -9.715
912 19 1 5.494 -4.563 -10.689
913 19 1 4.750 -4.053 -11.120
914 19 1 4.541 -3.094 -10.929
915 19 1 3.589 -3.114 -11.233
916 19 1 4.110 -3.380 -12.044
917 19 1 3.775 -3.522 -12.975
918 19 1 4.297 -3.788 -13.786
919 19 1 4.331 -2.869 -14.181
920 19 1 4.581 -2.318 -13.384
921 19 1 5.451 -2.502 -12.927
922 19 1 6.432 -2.359 -12.795
923 19 1 7.115 -2.094 -13.475
924 19 1 7.326 -2.890 -14.043
925 19 1 6.375 -2.584 -14.003
926 19 1 5.659 -1.951 -13.708
927 19 1 5.450 -0.992 -13.517
928 19 1 4.499 -0.686 -13.478
929 19 1 4.177 0.029 -14.099
930 19 1 5.039 0.498 -14.288
931 19 1 5.901 0.967 -14.478
932 19 1 6.243 1.559 -15.208
933 19 1 7.105 2.029 -15.398
934 19 1 7.447 2.620 -16.128
935 19 1 7.739 3.498 -15.747
936 19 1 7.773 4.416 -16.141
937 19 1 8.416 3.825 -16.629
938 19 1 9.058 3.233 -17.116
939 19 1 9.062 2.763 -17.999
940 19 1 9.932 2.580 -17.542
941 19 1 10.454 2.314 -18.353
942 19 1 10.488 3.233 -18.747
943 19 1 11.182 3.906 -18.493
944 19 1 10.643 4.743 -18.589
945 19 1 11.506 5.212 -18.778
946 19 1 11.667 4.906 -17.840
947 19 1 10.725 4.682 -17.592
948 19 1 10.291 3.804 -17.797
949 19 1 9.661 3.988 -18.552
950 19 1 8.710 4.294 -18.512
951 20 1 -1.656 0.883 1.319
952 20 1 -2.176 1.311 2.058
953 20 1 -2.141 2.230 1.664
954 20 1 -1.620 1.965 0.853
955 20 1 -1.620 2.965 0.853
956 20 1 -0.749 2.781 1.310
957 20 1 -0.958 3.740 1.501
958 20 1 -0.797 3.434 2.440
959 20 1 -0.940 2.475 2.684
960 20 1 -1.771 1.924 2.606
961 20 1 -1.193 1.414 3.243
962 20 1 -0.212 1.556 3.375
963 20 1 -0.547 1.414 2.444
964 20 1 -0.543 0.944 1.561
965 20 1 0.035 0.434 2.198
966 20 1 -0.108 -0.525 2.442
967 20 1 -0.852 -0.015 2.011
968 20 1 -1.668 0.087 2.579
969 20 1 -1.462 -0.750 3.086
970 20 1 -2.404 -0.974 3.335
971 20 1 -2.547 -1.933 3.579
972 20 1 -2.386 -2.240 4.517
973 20 1 -1.744 -2.831 4.030
974 20 1 -0.838 -2.893 3.611
975 20 1 -1.579 -3.240 3.037
976 20 1 -1.902 -2.525 2.416
977 20 1 -1.185 -2.178 3.020
978 20 1 -1.507 -1.464 2.399
979 20 1 -1.166 -0.872 1.669
980 20 1 -1.161 -1.342 0.786
981 20 1 -0.583 -1.852 1.423
982 20 1 0.134 -1.505 2.027
983 20 1 1.004 -1.689 2.485
984 20 1 0.959 -1.464 3.458
985 20 1 0.959 -0.464 3.458
986 20 1 1.642 -0.199 2.778
987 20 1 2.359 0.148 3.382
988 20 1 1.644 0.781 3.678
989 20 1 1.259 0.679 4.595
990 20 1 0.630 0.862 3.841
991 20 1 -0.313 0.638 4.089
992 20 1 -0.102 -0.158 3.521
993 20 1 -1.053 0.148 3.561
994 20 1 -0.892 -0.158 4.499
995 20 1 -0.686 -0.995 5.006
996 20 1 -0.686 -1.995 5.006
997 20 1 -0.467 -1.933 4.032
998 20 1 -0.260 -2.770 4.540
999 20 1 -0.399 -3.403 5.302
1000 20 1 -1.012 -3.831 5.965

Bonds

1 1 1 2
2 1 2 3
3 1 3 4
4 1 4 5
5 1 5 6
6 1 6 7
7 1 7 8
8 1 8 9
9 1 9 10
10 1 10 11
11 1 11 12
12 1 12 13
13 1 13 14
14 1 14 15
15 1 15 16
16 1 16 17
17 1 17 18
18 1 18 19
19 1 19 20
20 1 20 21
21 1 21 22
22 1 22 23
23 1 23 24
24 1 24 25
25 1 25 26
26 1 26 27
27 1 27 28
28 1 28 29
29 1 29 30
30 1 30 31
31 1 31 32
32 1 32 33
33 1 33 34
34 1 34 35
35 1 35 36
36 1 36 37
37 1 37 38
38 1 38 39
39 1 39 40
40 1 40 41
41 1 41 42
42 1 42 43
43 1 43 44
44 1 44 45
45 1 45 46
46 1 46 47
47 1 47 48
48 1 48 49
49 1 49 50
50 1 51 52
51 1 52 53
52 1 53 54
53 1 54 55
54 1 55 56
55 1 56 57
56 1 57 58
57 1 58 59
58 1 59 60
59 1 60 61
60 1 61 62
61 1 62 63
62 1 63 64
63 1 64 65
64 1 65 66
65 1 66 67
66 1 67 68
67 1 68 69
68 1 69 70
69 1 70 71
70 1 71 72
71 1 72 73
72 1 73 74
73 1 74 75
74 1 75 76
75 1 76 77
76 1 77 78
77 1 78 79
78 1 79 80
79 1 80 81
80 1 81 82
81 1 82 83
82 1 83 84
83 1 84 85
84 1 85 86
85 1 86 87
86 1 87 88
87 1 88 89
88 1 89 90
89 1 90 91
90 1 91 92
91 1 92 93
92 1 93 94
93 1 94 95
94 1 95 96
95 1 96 97
96 1 97 98
97 1 98 99
98 1 99 100
99 1 101 102
100 1 102 103
101 1 103 104
102 1 104 105
103 1 105 106
104 1 106 107
105 1 107 108
106 1 108 109
107 1 109 110
108 1 110 111
109 1 111 112
110 1 112 113
111 1 113 114
112 1 114 115
113 1 115 116
114 1 116 117
115 1 117 118
116 1 118 119
117 1 119 120
118 1 120 121
119 1 121 122
120 1 122 123
121 1 123 124
122 1 124 125
123 1 125 126
124 1 126 127
125 1 127 128
126 1 128 129
127 1 129 130
128 1 130 131
129 1 131 132
130 1 132 133
131 1 133 134
132 1 134 135
133 1 135 136
134 1 136 137
135 1 137 138
136 1 138 139
137 1 139 140
138 1 140 141
139 1 141 142
140 1 142 143
141 1 143 144
142 1 144 145
143 1 145 146
144 1 146 147
145 1 147 148
146 1 148 149
147 1 149 150
148 1 151 152
149 1 152 153
150 1 153 154
151 1 154 155
152 1 155 156
153 1 156 157
154 1 157 158
155 1 158 159
156 1 159 160
157 1 160 161
158 1 161 162
159 1 162 163
160 1 163 164
161 1 164 165
162 1 165 166
163 1 166 167
164 1 167 168
165 1 168 169
166 1 169 170
167 1 170 171
168 1 171 172
169 1 172 173
170 1 173 174
171 1 174 175
172 1 175 176
173 1 176 177
174 1 177 178
175 1 178 179
176 1 179 180
177 1 180 181
178 1 181 182
179 1 182 183
180 1 183 184
181 1 184 185
182 1 185 186
183 1 186 187
184 1 187 188
185 1 188 189
186 1 189 190
187 1 190 191
188 1 191 192
189 1 192 193
190 1 193 194
191 1 194 195
192 1 195 196
193 1 196 197
194 1 197 198
195 1 198 199
196 1 199 200
197 1 201 202
198 1 202 203
199 1 203 204
200 1 204 205
201 1 205 206
202 1 206 207
203 1 207 208
204 1 208 209
205 1 209 210
206 1 210 211
207 1 211 212
208 1 212 213
209 1 213 214
210 1 214 215
211 1 215 216
212 1 216 217
213 1 217 218
214 1 218 219
215 1 219 220
216 1 220 221
217 1 221 222
218 1 222 223
219 1 223 224
220 1 224 225
221 1 225 226
222 1 226 227
223 1 227 228
224 1 228 229
225 1 229 230
226 1 230 231
227 1 231 232
228 1 232 233
229 1 233 234
230 1 234 235
231 1 235 236
232 1 236 237
233 1 237 238
234 1 238 239
235 1 239 240
236 1 240 241
237 1 241 242
238 1 242 243
239 1 243 244
240 1 244 245
241 1 245 246
242 1 246 247
243 1 247 248
244 1 248 249
245 1 249 250
246 1 251 252
247 1 252 253
248 1 253 254
249 1 254 255
250 1 255 256
251 1 256 257
252 1 257 258
253 1 258 259
254 1 259 260
255 1 260 261
256 1 261 262
257 1 262 263
258 1 263 264
259 1 264 265
260 1 265 266
261 1 266 267
262 1 267 268
263 1 268 269
264 1 269 270
265 1 270 271
266 1 271 272
267 1 272 273
268 1 273 274
269 1 274 275
270 1 275 276
271 1 276 277
272 1 277 278
273 1 278 279
274 1 279 280
275 1 280 281
276 1 281 282
277 1 282 283
278 1 283 284
279 1 284 285
280 1 285 286
281 1 286 287
282 1 287 288
283 1 288 289
284 1 289 290
285 1 290 291
286 1 291 292
287 1 292 293
288 1 293 294
289 1 294 295
290 1 295 296
291 1 296 297
292 1 297 298
293 1 298 299
294 1 299 300
295 1 301 302
296 1 302 303
297 1 303 304
298 1 304 305
299 1 305 306
300 1 306 307
301 1 307 308
302 1 308 309
303 1 309 310
304 1 310 311
305 1 311 312
306 1 312 313
307 1 313 314
308 1 314 315
309 1 315 316
310 1 316 317
311 1 317 318
312 1 318 319
313 1 319 320
314 1 320 321
315 1 321 322
316 1 322 323
317 1 323 324
318 1 324 325
319 1 325 326
320 1 326 327
321 1 327 328
322 1 328 329
323 1 329 330
324 1 330 331
325 1 331 332
326 1 332 333
327 1 333 334
328 1 334 335
329 1 335 336
330 1 336 337
331 1 337 338
332 1 338 339
333 1 339 340
334 1 340 341
335 1 341 342
336 1 342 343
337 1 343 344
338 1 344 345
339 1 345 346
340 1 346 347
341 1 347 348
342 1 348 349
343 1 349 350
344 1 351 352
345 1 352 353
346 1 353 354
347 1 354 355
348 1 355 356
349 1 356 357
350 1 357 358
351 1 358 359
352 1 359 360
353 1 360 361
354 1 361 362
355 1 362 363
356 1 363 364
357 1 364 365
358 1 365 366
359 1 366 367
360 1 367 368
361 1 368 369
362 1 369 370
363 1 370 371
364 1 371 372
365 1 372 373
366 1 373 374
367 1 374 375
368 1 375 376
369 1 376 377
370 1 377 378
371 1 378 379
372 1 379 380
373 1 380 381
374 1 381 382
375 1 382 383
376 1 383 384
377 1 384 385
378 1 385 386
379 1 386 387
380 1 387 388
381 1 388 389
382 1 389 390
383 1 390 391
384 1 391 392
385 1 392 393
386 1 393 394
387 1 394 395
388 1 395 396
389 1 396 397
390 1 397 398
391 1 398 399
392 1 399 400
393 1 401 402
394 1 402 403
395 1 403 404
396 1 404 405
397 1 405 406
398 1 406 407
399 1 407 408
400 1 408 409
401 1 409 410
402 1 410 411
403 1 411 412
404 1 412 413
405 1 413 414
406 1 414 415
407 1 415 416
408 1 416 417
409 1 417 418
410 1 418 419
411 1 419 420
412 1 420 421
413 1 421 422
414 1 422 423
415 1 423 424
416 1 424 425
417 1 425 426
418 1 426 427
419 1 427 428
420 1 428 429
421 1 429 430
422 1 430 431
423 1 431 432
424 1 432 433
425 1 433 434
426 1 434 435
427 1 435 436
428 1 436 437
429 1 437 438
430 1 438 439
431 1 439 440
432 1 440 441
433 1 441 442
434 1 442 443
435 1 443 444
436 1 444 445
437 1 445 446
438 1 446 447
439 1 447 448
440 1 448 449
441 1 449 450
442 1 451 452
443 1 452 453
444 1 453 454
445 1 454 455
446 1 455 456
447 1 456 457
448 1 457 458
449 1 458 459
450 1 459 460
451 1 460 461
452 1 461 462
453 1 462 463
454 1 463 464
455 1 464 465
456 1 465 466
457 1 466 467
458 1 467 468
459 1 468 469
460 1 469 470
461 1 470 471
462 1 471 472
463 1 472 473
464 1 473 474
465 1 474 475
466 1 475 476
467 1 476 477
468 1 477 478
469 1 478 479
470 1 479 480
471 1 480 481
472 1 481 482
473 1 482 483
474 1 483 484
475 1 484 485
476 1 485 486
477 1 486 487
478 1 487 488
479 1 488 489
480 1 489 490
481 1 490 491
482 1 491 492
483 1 492 493
484 1 493 494
485 1 494 495
486 1 495 496
487 1 496 497
488 1 497 498
489 1 498 499
490 1 499 500
491 1 501 502
492 1 502 503
493 1 503 504
494 1 504 505
495 1 505 506
496 1 506 507
497 1 507 508
498 1 508 509
499 1 509 510
500 1 510 511
501 1 511 512
502 1 512 513
503 1 513 514
504 1 514 515
505 1 515 516
506 1 516 517
507 1 517 518
508 1 518 519
509 1 519 520
510 1 520 521
511 1 521 522
512 1 522 523
513 1 523 524
514 1 524 525
515 1 525 526
516 1 526 527
517 1 527 528
518 1 528 529
519 1 529 530
520 1 530 531
521 1 531 532
522 1 532 533
523 1 533 534
524 1 534 535
525 1 535 536
526 1 536 537
527 1 537 538
528 1 538 539
529 1 539 540
530 1 540 541
531 1 541 542
532 1 542 543
533 1 543 544
534 1 544 545
535 1 545 546
536 1 546 547
537 1 547 548
538 1 548 549
539 1 549 550
540 1 551 552
541 1 552 553
542 1 553 554
543 1 554 555
544 1 555 556
545 1 556 557
546 1 557 558
547 1 558 559
548 1 559 560
549 1 560 561
550 1 561 562
551 1 562 563
552 1 563 564
553 1 564 565
554 1 565 566
555 1 566 567
556 1 567 568
557 1 568 569
558 1 569 570
559 1 570 571
560 1 571 572
561 1 572 573
562 1 573 574
563 1 574 575
564 1 575 576
565 1 576 577
566 1 577 578
567 1 578 579
568 1 579 580
569 1 580 581
570 1 581 582
571 1 582 583
572 1 583 584
573 1 584 585
574 1 585 586
575 1 586 587
576 1 587 588
577 1 588 589
578 1 589 590
579 1 590 591
580 1 591 592
581 1 592 593
582 1 593 594
583 1 594 595
584 1 595 596
585 1 596 597
586 1 597 598
587 1 598 599
588 1 599 600
589 1 601 602
590 1 602 603
591 1 603 604
592 1 604 605
593 1 605 606
594 1 606 607
595 1 607 608
596 1 608 609
597 1 609 610
598 1 610 611
599 1 611 612
600 1 612 613
601 1 613 614
602 1 614 615
603 1 615 616
604 1 616 617
605 1 617 618
606 1 618 619
607 1 619 620
608 1 620 621
609 1 621 622
610 1 622 623
611 1 623 624
612 1 624 625
613 1 625 626
614 1 626 627
615 1 627 628
616 1 628 629
617 1 629 630
618 1 630 631
619 1 631 632
620 1 632 633
621 1 633 634
622 1 634 635
623 1 635 636
624 1 636 637
625 1 637 638
626 1 638 639
627 1 639 640
628 1 640 641
629 1 641 642
630 1 642 643
631 1 643 644
632 1 644 645
633 1 645 646
634 1 646 647
635 1 647 648
636 1 648 649
637 1 649 650
638 1 651 652
639 1 652 653
640 1 653 654
641 1 654 655
642 1 655 656
643 1 656 657
644 1 657 658
645 1 658 659
646 1 659 660
647 1 660 661
648 1 661 662
649 1 662 663
650 1 663 664
651 1 664 665
652 1 665 666
653 1 666 667
654 1 667 668
655 1 668 669
656 1 669 670
657 1 670 671
658 1 671 672
659 1 672 673
660 1 673 674
661 1 674 675
662 1 675 676
663 1 676 677
664 1 677 678
665 1 678 679
666 1 679 680
667 1 680 681
668 1 681 682
669 1 682 683
670 1 683 684
671 1 684 685
672 1 685 686
673 1 686 687
674 1 687 688
675 1 688 689
676 1 689 690
677 1 690 691
678 1 691 692
679 1 692 693
680 1 693 694
681 1 694 695
682 1 695 696
683 1 696 697
684 1 697 698
685 1 698 699
686 1 699 700
687 1 701 702
688 1 702 703
689 1 703 704
690 1 704 705
691 1 705 706
692 1 706 707
693 1 707 708
694 1 708 709
695 1 709 710
696 1 710 711
697 1 711 712
698 1 712 713
699 1 713 714
700 1 714 715
701 1 715 716
702 1 716 717
703 1 717 718
704 1 718 719
705 1 719 720
706 1 720 721
707 1 721 722
708 1 722 723
709 1 723 724
710 1 724 725
711 1 725 726
712 1 726 727
713 1 727 728
714 1 728 729
715 1 729 730
716 1 730 731
717 1 731 732
718 1 732 733
719 1 733 734
720 1 734 735
721 1 735 736
722 1 736 737
723 1 737 738
724 1 738 739
725 1 739 740
726 1 740 741
727 1 741 742
728 1 742 743
729 1 743 744
730 1 744 745
731 1 745 746
732 1 746 747
733 1 747 748
734 1 748 749
735 1 749 750
736 1 751 752
737 1 752 753
738 1 753 754
739 1 754 755
740 1 755 756
741 1 756 757
742 1 757 758
743 1 758 759
744 1 759 760
745 1 760 761
746 1 761 762
747 1 762 763
748 1 763 764
749 1 764 765
750 1 765 766
751 1 766 767
752 1 767 768
753 1 768 769
754 1 769 770
755 1 770 771
756 1 771 772
757 1 772 773
758 1 773 774
759 1 774 775
760 1 775 776
761 1 776 777
762 1 777 778
763 1 778 779
764 1 779 780
765 1 780 781
766 1 781 782
767 1 782 783
768 1 783 784
769 1 784 785
770 1 785 786
771 1 786 787
772 1 787 788
773 1 788 789
774 1 789 790
775 1 790 791
776 1 791 792
777 1 792 793
778 1 793 794
779 1 794 795
780 1 795 796
781 1 796 797
782 1 797 798
783 1 798 799
784 1 799 800
785 1 801 802
786 1 802 803
787 1 803 804
788 1 804 805
789 1 805 806
790 1 806 807
791 1 807 808
792 1 808 809
793 1 809 810
794 1 810 811
795 1 811 812
796 1 812 813
797 1 813 814
798 1 814 815
799 1 815 816
800 1 816 817
801 1 817 818
802 1 818 819
803 1 819 820
804 1 820 821
805 1 821 822
806 1 822 823
807 1 823 824
808 1 824 825
809 1 825 826
810 1 826 827
811 1 827 828
812 1 828 829
813 1 829 830
814 1 830 831
815 1 831 832
816 1 832 833
817 1 833 834
818 1 834 835
819 1 835 836
820 1 836 837
821 1 837 838
822 1 838 839
823 1 839 840
824 1 840 841
825 1 841 842
826 1 842 843
827 1 843 844
828 1 844 845
829 1 845 846
830 1 846 847
831 1 847 848
832 1 848 849
833 1 849 850
834 1 851 852
835 1 852 853
836 1 853 854
837 1 854 855
838 1 855 856
839 1 856 857
840 1 857 858
841 1 858 859
842 1 859 860
843 1 860 861
844 1 861 862
845 1 862 863
846 1 863 864
847 1 864 865
848 1 865 866
849 1 866 867
850 1 867 868
851 1 868 869
852 1 869 870
853 1 870 871
854 1 871 872
855 1 872 873
856 1 873 874
857 1 874 875
858 1 875 876
859 1 876 877
860 1 877 878
861 1 878 879
862 1 879 880
863 1 880 881
864 1 881 882
865 1 882 883
866 1 883 884
867 1 884 885
868 1 885 886
869 1 886 887
870 1 887 888
871 1 888 889
872 1 889 890
873 1 890 891
874 1 891 892
875 1 892 893
876 1 893 894
877 1 894 895
878 1 895 896
879 1 896 897
880 1 897 898
881 1 898 899
882 1 899 900
883 1 901 902
884 1 902 903
885 1 903 904
886 1 904 905
887 1 905 906
888 1 906 907
889 1 907 908
890 1 908 909
891 1 909 910
892 1 910 911
893 1 911 912
894 1 912 913
895 1 913 914
896 1 914 915
897 1 915 916
898 1 916 917
899 1 917 918
900 1 918 919
901 1 919 920
902 1 920 921
903 1 921 922
904 1 922 923
905 1 923 924
906 1 924 925
907 1 925 926
908 1 926 927
909 1 927 928
910 1 928 929
911 1 929 930
912 1 930 931
913 1 931 932
914 1 932 933
915 1 933 934
916 1 934 935
917 1 935 936
918 1 936 937
919 1 937 938
920 1 938 939
921 1 939 940
922 1 940 941
923 1 941 942
924 1 942 943
925 1 943 944
926 1 944 945
927 1 945 946
928 1 946 947
929 1 947 948
930 1 948 949
931 1 949 950
932 1 951 952
933 1 952 953
934 1 953 954
935 1 954 955
936 1 955 956
937 1 956 957
938 1 957 958
939 1 958 959
940 1 959 960
941 1 960 961
942 1 961 962
943 1 962 963
944 1 963 964
945 1 964 965
946 1 965 966
947 1 966 967
948 1 967 968
949 1 968 969
950 1 969 970
951 1 970 971
952 1 971 972
953 1 972 973
954 1 973 974
955 1 974 975
956 1 975 976
957 1 976 977
958 1 977 978
959 1 978 979
960 1 979 980
961 1 980 981
962 1 981 982
963 1 982 983
964 1 983 984
965 1 984 985
966 1 985 986
967 1 986 987
968 1 987 988
969 1 988 989
970 1 989 990
971 1 990 991
972 1 991 992
973 1 992 993
974 1 993 994
975 1 994 995
976 1 995 996
977 1 996 997
978 1 997 998
979 1 998 999
980 1 999 1000
